 vasp.5.4.4.18Apr17-6-g9f103f2a35 (build May  1 2020 15:48:39) complex
 executed on             LinuxGNU date 2020.06.25  05:28:02

 INCAR:
 POTCAR:   PAW_PBE Ni 06Sep2000
 POTCAR:   PAW_PBE Ge 05Jan2001
 POTCAR:   PAW_PBE Si 05Jan2001
 POTCAR:   PAW_PBE Se 06Sep2000

 POTCAR:   PAW_PBE Ni 06Sep2000
   VRHFIN =Ni:

   TITEL  = PAW_PBE Ni 06Sep2000
   POMASS =   58.690; ZVAL   =   10.000    mass and valenz
   ENMAX  =  269.533; ENMIN  =  202.150 eV
   QCUT   =   -4.451; QGAM   =    8.902    optimization parameters

   Description
     l     E      TYP  RCUT    TYP  RCUT
     2   .000     23  2.300
     2   .000     23  2.300
     0   .000     23  2.300
     0   .000     23  2.300
     1  -.200     23  2.300
     1   .000     23  2.300
     3   .000      7   .000

 POTCAR:   PAW_PBE Ge 05Jan2001
   VRHFIN =Ge: s2p2

   TITEL  = PAW_PBE Ge 05Jan2001
   POMASS =   72.610; ZVAL   =    4.000    mass and valenz
   ENMAX  =  173.807; ENMIN  =  130.355 eV
   QCUT   =   -3.574; QGAM   =    7.148    optimization parameters

[...]

 POTCAR:   PAW_PBE Si 05Jan2001
   VRHFIN =Si: s2p2

   TITEL  = PAW_PBE Si 05Jan2001
   POMASS =   28.085; ZVAL   =    4.000    mass and valenz
   ENMAX  =  245.345; ENMIN  =  184.009 eV
   QCUT   =   -4.246; QGAM   =    8.493    optimization parameters

[...]

 POTCAR:   PAW_PBE Se 06Sep2000
   VRHFIN =Se: s2p4

   TITEL  = PAW_PBE Se 06Sep2000
   POMASS =   78.960; ZVAL   =    6.000    mass and valenz
   ENMAX  =  211.534; ENMIN  =  158.651 eV
   QCUT   =   -3.943; QGAM   =    7.886    optimization parameters

   Description
     l     E      TYP  RCUT    TYP  RCUT
     0   .000     23  2.100
     0   .000     23  2.100
     1   .000     23  2.100
     1   .000     23  2.100
     2   .000     23  2.100
     3  -.100      7  2.100

 Optimization of the real space projectors (new method)

 maximal supplied QI-value         = 16.25
 optimisation between [QCUT,QGAM] = [ 11.54, 23.24] = [ 37.28,151.24] Ry
 Optimized for a Real-space Cutoff    1.49 Angstroem

   l    n(q)    QCUT    max X(q) W(low)/X(q) W(high)/X(q)  e(spline)
   2      9    11.539     4.811    0.20E-04    0.14E-04    0.45E-07
   2      9    11.539    15.146    0.24E-03    0.12E-03    0.20E-06
   0     10    11.539    14.357    0.18E-04    0.12E-05    0.14E-07
   0     10    11.539    43.282    0.39E-04    0.17E-04    0.23E-06
   1     10    11.539     5.514    0.99E-05    0.13E-04    0.19E-07
   1     10    11.539     7.697    0.38E-04    0.79E-04    0.91E-07
 Optimization of the real space projectors (new method)

[...]

   l    n(q)    QCUT    max X(q) W(low)/X(q) W(high)/X(q)  e(spline)
   0      8    11.508     8.708    0.18E-04    0.44E-05    0.47E-08
   0      8    11.508   106.241    0.70E-04    0.15E-03    0.51E-07
   1      8    11.508     5.901    0.63E-05    0.23E-04    0.21E-07
   1      8    11.508    73.241    0.15E-03    0.36E-04    0.79E-07
 Optimization of the real space projectors (new method)

 maximal supplied QI-value         = 17.95
 optimisation between [QCUT,QGAM] = [ 11.67, 23.34] = [ 38.13,152.52] Ry
 Optimized for a Real-space Cutoff    1.25 Angstroem

   l    n(q)    QCUT    max X(q) W(low)/X(q) W(high)/X(q)  e(spline)
   0      9    11.669     6.499    0.13E-04    0.81E-05    0.11E-07
   0      9    11.669    52.623    0.18E-03    0.46E-04    0.72E-07
   1      8    11.669     4.229    0.40E-04    0.45E-04    0.31E-07
   1      8    11.669    29.991    0.22E-03    0.36E-03    0.10E-06
   2      8    11.669     3.719    0.19E-03    0.46E-04    0.50E-07

 PAW_PBE Ni 06Sep2000                   :
 PAW_PBE Ge 05Jan2001                   :
 PAW_PBE Si 05Jan2001                   :
 PAW_PBE Se 06Sep2000                   :

 POSCAR: Ni2 Ge Si Se6
  positions in direct lattice
  velocities in cartesian coordinates
 exchange correlation table for  LEXCH =       42
   RHO(1)=    0.500       N(1)  =     2000
   RHO(2)=  100.500       N(2)  =     4000

 ion  position               nearest neighbor table
   1  0.333  0.333  0.500-   6 2.78   5 2.78   7 2.78   8 2.78  10 2.78   9 2.78
   2  0.667  0.667  0.500-   9 2.78   8 2.78  10 2.78   5 2.78   7 2.78   6 2.78
   3  0.000  0.000  0.448-   4 2.43   8 2.63  10 2.63   9 2.63
   4  0.000  0.000  0.552-   3 2.43   5 2.63   7 2.63   6 2.63
   5  0.626  0.000  0.574-   4 2.63   1 2.78   2 2.78
   6  0.000  0.373  0.574-   4 2.63   1 2.78   2 2.78
   7  0.373  0.626  0.574-   4 2.63   1 2.78   2 2.78
   8  0.374  1.000  0.426-   3 2.63   2 2.78   1 2.78
   9  1.000  0.627  0.426-   3 2.63   2 2.78   1 2.78
  10  0.627  0.374  0.426-   3 2.63   2 2.78   1 2.78

  LATTYP: Found a hexagonal cell.
 ALAT       =     6.9077769333
 C/A-ratio  =     3.3939410937

  Lattice vectors:

 A1 = (   3.4538890000,  -5.9823100000,   0.0000000000)
 A2 = (  -6.9077770000,   0.0000000000,   0.0000000000)
 A3 = (   0.0000000000,   0.0000000000, -23.4445880000)

Analysis of symmetry for initial positions (statically):
 Subroutine PRICEL returns:
 Original cell was already a primitive cell.

 Routine SETGRP: Setting up the symmetry group for a
 hexagonal supercell.

 Subroutine GETGRP returns: Found  3 space group operations
 (whereof  3 operations were pure point group operations)
 out of a pool of 24 trial point group operations.

The static configuration has the point symmetry C_3 .

Analysis of symmetry for dynamics (positions and initial velocities):
 Subroutine PRICEL returns:
 Original cell was already a primitive cell.

[...]

The dynamic configuration has the point symmetry C_3 .

Analysis of constrained symmetry for selective dynamics:
 Subroutine PRICEL returns:
 Original cell was already a primitive cell.

[...]

The constrained configuration has the point symmetry C_3 .

Analysis of structural, dynamic, and magnetic symmetry:
 Subroutine PRICEL returns:
 Original cell was already a primitive cell.

 Routine SETGRP: Setting up the symmetry group for a
 hexagonal supercell.

 Subroutine GETGRP returns: Found  3 space group operations
 (whereof  3 operations were pure point group operations)
 out of a pool of 24 trial point group operations.

The magnetic configuration has the point symmetry C_3 .

 Subroutine INISYM returns: Found  3 space group operations
 (whereof  3 operations are pure point group operations),
 and found     1 'primitive' translations

 KPOINTS: Kpoints from vasprun.xml

Automatic generation of k-mesh.
Space group operators:
 irot       det(A)        alpha          n_x          n_y          n_z        tau_x        tau_y        tau_z
    1     1.000000     0.000000     1.000000     0.000000     0.000000     0.000000     0.000000     0.000000
    2     1.000000   120.000000     0.000000     0.000000     1.000000     0.000000     0.000000     0.000000
    3     1.000000   120.000000     0.000000     0.000000    -1.000000     0.000000     0.000000     0.000000

 Subroutine IBZKPT returns following result:

 Found      5 irreducible k-points:

 Following reciprocal coordinates:
            Coordinates               Weight
  0.000000  0.000000  0.000000      1.000000
  0.200000  0.000000  0.000000      6.000000
  0.400000  0.000000  0.000000      6.000000
  0.400000  0.200000  0.000000      6.000000
 -0.400000  0.200000  0.000000      6.000000

 Following cartesian coordinates:
            Coordinates               Weight
  0.000000  0.000000  0.000000      1.000000
  0.028953 -0.016716  0.000000      6.000000
  0.057906 -0.033432  0.000000      6.000000
  0.057906  0.000000  0.000000      6.000000
 -0.057906  0.066864  0.000000      6.000000

 TETIRR: Found     15 inequivalent tetrahedra from      150

 SYSTEM =  unknown system
 POSCAR =  Ni2 Ge Si Se6

 Startparameter for this run:
   NWRITE =      2    write-flag & timer
   PREC   = accura    normal or accurate (medium, high low for compatibility)
   ISTART =      0    job   : 0-new  1-cont  2-samecut
   ICHARG =      2    charge: 1-file 2-atom 10-const
   ISPIN  =      2    spin polarized calculation?
   LNONCOLLINEAR =      F non collinear calculations
   LSORBIT =      F    spin-orbit coupling
   INIWAV =      1    electr: 0-lowe 1-rand  2-diag
   LASPH  =      F    aspherical Exc in radial PAW
   METAGGA=      F    non-selfconsistent MetaGGA calc.

 Electronic Relaxation 1
   ENCUT  =  520.0 eV  38.22 Ry    6.18 a.u.  12.84 12.84 43.59*2*pi/ulx,y,z
   ENINI  =  520.0     initial cutoff
   ENAUG  =  544.6 eV  augmentation charge cutoff
   NELM   =    400;   NELMIN=  2; NELMDL=  0     # of ELM steps
   EDIFF  = 0.1E-03   stopping-criterion for ELM
   LREAL  =      T    real-space projection
   NLSPLINE    = F    spline interpolate recip. space projectors
   LCOMPAT=      F    compatible to vasp.4.4
   GGA_COMPAT  = T    GGA compatible to vasp.4.4-vasp.4.6
   LMAXPAW     = -100 max onsite density
   LMAXMIX     =    2 max onsite mixed and CHGCAR
   VOSKOWN=      0    Vosko Wilk Nusair interpolation
   ROPT   =   -0.00025  -0.00025  -0.00025  -0.00025
 Ionic relaxation
   EDIFFG = 0.1E-02   stopping-criterion for IOM
   NSW    =     99    number of steps for IOM
   NBLOCK =      1;   KBLOCK =     99    inner block; outer block
   IBRION =      2    ionic relax: 0-MD 1-quasi-New 2-CG
   NFREE  =      1    steps in history (QN), initial steepest desc. (CG)
   ISIF   =      3    stress and relaxation
   IWAVPR =     11    prediction:  0-non 1-charg 2-wave 3-comb
   ISYM   =      2    0-nonsym 1-usesym 2-fastsym
   LCORR  =      T    Harris-Foulkes like correction to forces

   POTIM  = 0.5000    time-step for ionic-motion
   TEIN   =    0.0    initial temperature
   TEBEG  =    0.0;   TEEND  =   0.0 temperature during run
   SMASS  =  -3.00    Nose mass-parameter (am)
   estimated Nose-frequenzy (Omega)   =  0.10E-29 period in steps =****** mass=  -0.109E-26a.u.
   SCALEE = 1.0000    scale energy and forces
   NPACO  =    256;   APACO  = 16.0  distance and # of slots for P.C.
   PSTRESS=    0.0 pullay stress

  Mass of Ions in am
   POMASS =  58.69 72.61 28.09 78.96
  Ionic Valenz
   ZVAL   =  10.00  4.00  4.00  6.00
  Atomic Wigner-Seitz radii
  virtual crystal weights
   VCA    =   1.00  1.00  1.00  1.00
   NELECT =      64.0000    total number of electrons
   NUPDOWN=      -1.0000    fix difference up-down

 DOS related values:
   EMIN   =  10.00;   EMAX   =-10.00  energy-range for DOS
   EFERMI =   0.00
   ISMEAR =    -5;   SIGMA  =   0.05  broadening in eV -4-tet -1-fermi 0-gaus

 Electronic relaxation 2 (details)
   IALGO  =     38    algorithm
   LDIAG  =      T    sub-space diagonalisation (order eigenvalues)
   LSUBROT=      F    optimize rotation matrix (better conditioning)
   TURBO    =      0    0=normal 1=particle mesh
   IRESTART =      0    0=no restart 2=restart with 2 vectors
   NREBOOT  =      0    no. of reboots
   NMIN     =      0    reboot dimension
   EREF     =   0.00    reference energy to select bands
   IMIX   =      4    mixing-type and parameters
     AMIX     =   0.40;   BMIX     =  1.00
     AMIX_MAG =   1.60;   BMIX_MAG =  1.00
     AMIN     =   0.01
     WC   =   100.;   INIMIX=   1;  MIXPRE=   1;  MAXMIX= -45

 Intra band minimization:
   WEIMIN = 0.0010     energy-eigenvalue tresh-hold
   EBREAK =  0.52E-06  absolut break condition
[...]
     37      -2.6381      0.00000
     38      -0.6247      0.00000
     39      -0.6247      0.00000
     40       0.1419      0.00000
     41       0.3342      0.00000
     42       0.5285      0.00000
     43       0.9410      0.00000
     44       1.0047      0.00000
     45       1.0047      0.00000
     46       1.3878      0.00000
     47       1.9181      0.00000
     48       2.3802      0.00000

[...]

 soft charge-density along one line, spin component           1
         0         1         2         3         4         5         6         7         8         9
 total charge-density along one line

[...]

------------------------ aborting loop because EDIFF is reached ----------------------------------------

 total charge

# of ion       s       p       d       tot
    1        0.304   0.233   8.245   8.783
    2        0.304   0.233   8.245   8.783
    3        1.176   0.973   0.062   2.212
    4        0.803   0.676   0.000   1.479
    5        1.496   2.128   0.018   3.641
    6        1.493   2.184   0.017   3.694
    7        1.495   2.144   0.018   3.657
    8        1.497   2.134   0.017   3.648
    9        1.494   2.185   0.017   3.696
   10        1.496   2.149   0.017   3.662
tot         11.558  15.040  16.658  43.256

 magnetization (x)

[...]

  FORCE on cell =-STRESS in cart. coord.  units (eV):
  Direction    XX          YY          ZZ          XY          YZ          ZX
  Alpha Z    40.05543    40.05543    40.05543
  Ewald   10003.16019 10003.15816-11941.28445    -0.00208    -0.00052    -0.00095
  Hartree 10859.21775 10859.21887-10140.47956    -0.00050     0.00009     0.00013
  E(xc)    -267.67899  -267.67907  -267.49838     0.00009    -0.00000     0.00002
  Local  -21563.26277-21563.26287 21358.17202     0.00238     0.00029     0.00058
  n-local   225.77513   226.23779   231.97986     0.19340     0.31898     0.20073
  augment    74.43132    74.43145    71.43513     0.00001    -0.00028     0.00023
  Kinetic   607.24505   603.06182   635.17180    -2.28156    -0.53250    -0.69687
  Fock        0.00000     0.00000     0.00000     0.00000     0.00000     0.00000
  Total     -22.91766   -22.91765   -12.44815     0.00000     0.00000     0.00000
  in kB     -37.89928   -37.89928   -20.58569     0.00000     0.00000     0.00000

 VOLUME and BASIS-vectors are now :
  energy-cutoff  :      520.00
  volume of cell :      968.84
      direct lattice vectors                 reciprocal lattice vectors
     6.907777000 -0.000000000  0.000000000     0.144764372 -0.083579742  0.000000000
     3.453888000  5.982310000  0.000000000     0.000000000  0.167159509 -0.000000000
     0.000000000  0.000000000 23.444588000    -0.000000000  0.000000000  0.042653767

[...]

 FORCES acting on ions
    electron-ion (+dipol)            ewald-force                    non-local-force                 convergence-correction
   0.211E-03 0.104E-03 0.110E+01   0.643E-03 0.389E-03 -.118E+01   -.139E-16 0.000E+00 0.803E-01   0.663E-06 0.373E-06 -.245E-01
   -.230E-03 -.121E-03 -.128E+01   -.643E-03 -.389E-03 0.118E+01   0.694E-17 0.000E+00 0.779E-01   -.674E-06 -.426E-06 -.216E-01
   -.468E-04 -.450E-04 0.189E+03   -.141E-03 -.779E-04 -.186E+03   0.694E-17 0.347E-17 -.247E+01   -.472E-07 -.135E-07 -.306E-02
   0.379E-04 -.225E-04 -.191E+03   0.141E-03 0.779E-04 0.186E+03   0.208E-16 0.139E-16 0.487E+01   0.105E-06 0.519E-06 -.154E-01
   -.246E+02 0.160E+00 -.424E+03   0.233E+02 -.155E+00 0.425E+03   0.230E+01 -.736E-02 -.283E+01   -.229E-02 -.295E-02 -.292E-01
   0.124E+02 0.212E+02 -.424E+03   -.118E+02 -.201E+02 0.425E+03   -.116E+01 -.199E+01 -.283E+01   -.141E-02 0.345E-02 -.292E-01
   0.122E+02 -.214E+02 -.424E+03   -.115E+02 0.202E+02 0.425E+03   -.114E+01 0.200E+01 -.283E+01   0.370E-02 -.505E-03 -.292E-01
   0.248E+02 -.156E+00 0.424E+03   -.233E+02 0.155E+00 -.425E+03   -.194E+01 0.644E-02 0.278E+01   0.223E-02 -.107E-04 0.153E-02
   -.125E+02 -.214E+02 0.424E+03   0.118E+02 0.201E+02 -.425E+03   0.977E+00 0.168E+01 0.278E+01   -.112E-02 -.193E-02 0.153E-02
   -.122E+02 0.215E+02 0.424E+03   0.115E+02 -.202E+02 -.425E+03   0.966E+00 -.169E+01 0.278E+01   -.111E-02 0.194E-02 0.153E-02
   -.584E-04 0.233E-04 -.229E+01   0.355E-14 0.000E+00 -.171E-12   0.111E-15 0.000E+00 0.244E+01   0.193E-05 0.184E-06 -.147E+00

 POSITION                                       TOTAL-FORCE (eV/Angst)
      3.45388      1.99410     11.72054         0.000000     -0.000000     -0.023197
      6.90778      3.98821     11.72405         0.000000     -0.000000     -0.039070
      0.00000      0.00000     10.50824         0.000000     -0.000000     -0.180034
      0.00000      0.00000     12.93635         0.000000     -0.000000      0.500948
      4.32819      0.00251     13.45138         0.978816     -0.005118     -1.310561
      1.29198      2.23274     13.45138        -0.493840     -0.845120     -1.310561
      4.74152      3.74706     13.45138        -0.484976      0.850238     -1.310561
      6.03348      5.97980      9.99321        -0.434553      0.004693      1.224345
      9.06969      3.74957      9.99321         0.221341      0.373988      1.224345
      5.62015      2.23525      9.99321         0.213212     -0.378681      1.224345
    total drift:                               -0.000056      0.000024      0.001990

  FREE ENERGIE OF THE ION-ELECTRON SYSTEM (eV)
  free  energy   TOTEN  =       -34.07007179 eV

  energy  without entropy=      -34.07007179  energy(sigma->0) =      -34.07007179

[...]

 d Force = 0.2306212E+00[-0.135E+00, 0.597E+00]  d Energy = 0.3380972E+01-0.315E+01
 d Force =-0.1575311E+03[-0.177E+03,-0.138E+03]  d Ewald  =-0.1940541E+04 0.178E+04

 Steepest descent step on ions:
 trial-energy change:   -3.380972  1 .order   -2.459416   -6.458876    1.540044
  (g-gl).g = 0.646E+01      g.g   = 0.646E+01  gl.gl    = 0.000E+00
 g(Force)  = 0.644E+00   g(Stress)= 0.582E+01 ortho     = 0.000E+00
 gamma     =   0.00000
 trial     =   1.00000
 opt step  =   0.88031  (harmonic =   0.80747) maximal distance =0.05199579
 next E    =   -37.541631   (d E  =  -3.47156)

[...]

 d Force = 0.8598568E-02[-0.964E-03, 0.182E-01]  d Energy = 0.8519601E-01-0.766E-01
 d Force = 0.2230769E+02[ 0.220E+02, 0.227E+02]  d Ewald  = 0.2695062E+03-0.247E+03

[...]

 d Force = 0.8715906E-01[ 0.607E-01, 0.114E+00]  d Energy = 0.8924791E-01-0.209E-02
 d Force =-0.1653281E+02[-0.167E+02,-0.164E+02]  d Ewald  =-0.3102732E+02 0.145E+02

 Conjugate gradient step on ions:
 trial-energy change:   -0.089248  1 .order   -0.088571   -0.115184   -0.061958
  (g-gl).g = 0.432E-01      g.g   = 0.118E+00  gl.gl    = 0.646E+01
 g(Force)  = 0.117E+00   g(Stress)= 0.921E-03 ortho     = 0.743E-01
 gamma     =   0.00668
 trial     =   0.97606
 opt step  =   1.96113  (harmonic =   2.11225) maximal distance =0.07888254
 next E    =   -37.657449   (d E  =  -0.12121)

[...]

 d Force = 0.1835127E-02[ 0.323E-03, 0.335E-02]  d Energy = 0.2551899E-02-0.717E-03
 d Force =-0.4564368E+01[-0.457E+01,-0.456E+01]  d Ewald  =-0.8481709E+01 0.392E+01

[...]

 d Force = 0.2669682E-02[ 0.107E-02, 0.427E-02]  d Energy = 0.2849441E-02-0.180E-03
 d Force =-0.4822157E+01[-0.481E+01,-0.483E+01]  d Ewald  = 0.1143808E+02-0.163E+02

 Conjugate gradient step on ions:
 trial-energy change:   -0.002849  1 .order   -0.002663   -0.004434   -0.000893
  (g-gl).g = 0.208E-02      g.g   = 0.359E-02  gl.gl    = 0.118E+00
 g(Force)  = 0.346E-02   g(Stress)= 0.130E-03 ortho     = 0.147E-02
 gamma     =   0.01772
 trial     =   1.22548
 opt step  =   1.53468  (harmonic =   1.53468) maximal distance =0.00572674
 next E    =   -37.671601   (d E  =  -0.00278)

[...]

 eigenvalue-minimisations  :   976
 total energy-change (2. order) : 0.2732823E-03  (-0.5506367E-04)
 number of electron      63.9999990 magnetization       1.8891167
 augmentation part        4.7279338 magnetization       0.8968658

 Broyden mixing:
  rms(total) = 0.31758E-02    rms(broyden)= 0.31746E-02
  rms(prec ) = 0.34450E-02
  weight for this iteration     100.00

 eigenvalues of (default mixing * dielectric matrix)
  average eigenvalue GAMMA=   0.5709
  0.8701  0.2717

[...]

--------------------------------------- Iteration      8(   4)  ---------------------------------------

[...]

 eigenvalue-minimisations  :   768
 total energy-change (2. order) :-0.4847835E-04  (-0.7035931E-05)
 number of electron      63.9999990 magnetization       1.8891167
 augmentation part        4.7279338 magnetization       0.8968658

 Free energy of the ion-electron system (eV)
  alpha Z        PSCENC =        52.59075063
  Ewald energy   TEWEN  =      9792.92859168
  -Hartree energ DENC   =    -13337.71900760
  -exchange      EXHF   =         0.00000000
  -V(xc)+E(xc)   XCENC  =        36.99345985
  PAW double counting   =      2583.96766106    -2599.74554335
  entropy T*S    EENTRO =         0.00000000
  eigenvalues    EBANDS =      -490.14667025
  atomic energy  EATOM  =      3923.45879020
  Solvation  Ediel_sol  =         0.00000000
  free energy    TOTEN  =       -37.67196778 eV

  energy without entropy =      -37.67196778  energy(sigma->0) =      -37.67196778

 average (electrostatic) potential at core
  the test charge radii are     0.9791  1.1631  0.9892  1.0808
  (the norm of the test charge is              1.0000)
       1 -50.0537       2 -50.0509       3 -39.6755       4 -92.8173       5 -61.2482
       6 -61.2482       7 -61.2481       8 -61.4019       9 -61.4019      10 -61.4019

 E-fermi :  -2.6192     XC(G=0):  -3.4835     alpha+bet : -2.7054

[...]

 spin component 2

[...]

 k-point     5 :      -0.4000    0.2000    0.0000
  band No.  band energies     occupation
      1     -16.4052      1.00000
      2     -16.2592      1.00000
      3     -15.8638      1.00000
      4     -15.7572      1.00000
      5     -15.6625      1.00000
      6     -15.4671      1.00000
      7     -11.3433      1.00000
      8      -9.5518      1.00000
      9      -7.8922      1.00000
     10      -7.3851      1.00000
     11      -7.3703      1.00000
     12      -6.8777      1.00000
     13      -6.5323      1.00000
     14      -6.3567      1.00000
     15      -6.0772      1.00000
     16      -5.6958      1.00000
     17      -5.6333      1.00000
     18      -5.6020      1.00000
     19      -5.5871      1.00000
     20      -5.3875      1.00000
     21      -5.1702      1.00000
     22      -4.6718      1.00000
     23      -4.4683      1.00000
     24      -4.4048      1.00000
     25      -4.3010      1.00000
     26      -4.0647      1.00000
     27      -4.0532      1.00000
     28      -3.9309      1.00000
     29      -3.8934      1.00000
     30      -3.7675      1.00000
     31      -3.6553      1.00000
     32      -2.4262     -0.04326
     33      -2.3420      0.00000
     34      -2.1667      0.00000
     35      -1.7336      0.00000
     36      -1.1262      0.00000
     37      -0.1481      0.00000
     38       0.4914      0.00000
     39       0.6801      0.00000
     40       1.3717      0.00000
     41       1.5386      0.00000
     42       1.6933      0.00000
     43       2.6843      0.00000
     44       2.7729      0.00000
     45       2.8118      0.00000
     46       2.9894      0.00000
     47       3.2001      0.00000
     48       3.7953      0.00000

[...]

 soft charge-density along one line, spin component           2
         0         1         2         3         4         5         6         7         8         9
 total charge-density along one line

------------------------ aborting loop because EDIFF is reached ----------------------------------------

[...]

  FORCE on cell =-STRESS in cart. coord.  units (eV):
  Direction    XX          YY          ZZ          XY          YZ          ZX
  Alpha Z    52.59075    52.59075    52.59075
  Ewald   11938.96754 11938.96542-14085.00717    -0.00239    -0.00056    -0.00101
  Hartree 12693.71668 12693.71788-12050.66266    -0.00056     0.00008     0.00012
  E(xc)    -273.67529  -273.67529  -273.36486     0.00002     0.00001     0.00001
  Local  -25355.50595-25355.50627 25385.34963     0.00257     0.00030     0.00057
  n-local   240.90021   241.39681   241.92999     0.08831     0.53436     0.37158
  augment    75.41451    75.41461    72.01240     0.00006     0.00002     0.00005
  Kinetic   631.75711   622.59494   657.23800    -4.82810    -0.65201    -1.08747
  Fock        0.00000     0.00000     0.00000     0.00000     0.00000     0.00000
  Total      -0.16780    -0.16780     0.08609     0.00000     0.00000     0.00000
  in kB      -0.36433    -0.36433     0.18692     0.00000     0.00000     0.00000

 VOLUME and BASIS-vectors are now :
  energy-cutoff  :      520.00
  volume of cell :      737.91
      direct lattice vectors                 reciprocal lattice vectors
     6.211748410  0.000000012  0.000000000     0.160985271 -0.092944883 -0.000000000
     3.105873844  5.379531675 -0.000000000    -0.000000000  0.185889788  0.000000000
     0.000000000 -0.000000000 22.082263001    -0.000000000  0.000000000  0.045285214

  length of vectors
     6.211748410  6.211748013 22.082263001     0.185889776  0.185889788  0.045285214

 FORCES acting on ions
    electron-ion (+dipol)            ewald-force                    non-local-force                 convergence-correction
   0.159E-03 0.751E-04 -.555E+01   0.792E-03 0.475E-03 0.564E+01   -.139E-16 0.573E-20 -.493E-01   0.212E-05 -.360E-05 -.272E-01
   -.144E-03 -.652E-04 -.703E+01   -.780E-03 -.469E-03 0.714E+01   -.208E-19 0.824E-20 -.710E-01   0.224E-05 -.388E-05 -.289E-01
   -.351E-04 -.369E-04 0.241E+03   -.174E-03 -.976E-04 -.238E+03   -.948E-18 -.656E-17 -.323E+01   0.896E-07 0.450E-07 0.488E-02
   0.303E-04 0.104E-04 -.248E+03   0.189E-03 0.106E-03 0.244E+03   0.151E-16 0.134E-16 0.432E+01   -.654E-07 -.483E-07 -.147E-01
   -.269E+02 0.358E-02 -.525E+03   0.249E+02 0.147E-01 0.528E+03   0.196E+01 -.503E-02 -.229E+01   0.148E-02 -.166E-01 -.323E-01
   0.135E+02 0.233E+02 -.525E+03   -.125E+02 -.216E+02 0.528E+03   -.985E+00 -.170E+01 -.229E+01   -.151E-01 0.702E-02 -.323E-01
   0.134E+02 -.233E+02 -.525E+03   -.125E+02 0.216E+02 0.528E+03   -.976E+00 0.170E+01 -.229E+01   0.136E-01 0.958E-02 -.323E-01
   0.344E+02 -.163E-01 0.532E+03   -.324E+02 0.354E-01 -.534E+03   -.192E+01 0.333E-02 0.226E+01   -.555E-03 -.183E-01 0.160E-01
   -.172E+02 -.297E+02 0.532E+03   0.162E+02 0.281E+02 -.534E+03   0.961E+00 0.166E+01 0.226E+01   -.156E-01 0.965E-02 0.160E-01
   -.172E+02 0.298E+02 0.532E+03   0.162E+02 -.281E+02 -.534E+03   0.955E+00 -.166E+01 0.226E+01   0.162E-01 0.869E-02 0.160E-01
   0.387E-04 -.286E-04 -.748E+00   -.355E-14 0.142E-13 0.000E+00   -.222E-15 0.000E+00 0.869E+00   0.430E-05 -.759E-05 -.115E+00

 POSITION                                       TOTAL-FORCE (eV/Angst)
      3.10587      1.79318     11.02743         0.000000      0.000000      0.013578
      6.21175      3.58636     11.02966         0.000000      0.000000      0.007766
      0.00000     -0.00000      9.89762        -0.000000      0.000000     -0.226020
      0.00000     -0.00000     12.24444         0.000000     -0.000000      0.041356
      3.92969      0.00079     12.60244         0.002421     -0.002786      0.026961
      1.14171      1.97593     12.60244        -0.003623     -0.000703      0.026961
      4.24623      3.40282     12.60244         0.001203      0.003490      0.026961
      5.50244      5.37858      9.47437         0.000043      0.003489      0.027480
      8.11851      3.30452      9.47437         0.003000     -0.001782      0.027480
      5.01428      2.07596      9.47437        -0.003043     -0.001707      0.027480
    total drift:                                0.000043     -0.000036      0.006901

  FREE ENERGIE OF THE ION-ELECTRON SYSTEM (eV)
  free  energy   TOTEN  =       -37.67196778 eV

  energy  without entropy=      -37.67196778  energy(sigma->0) =      -37.67196778

 d Force = 0.1625579E-03[ 0.542E-04, 0.271E-03]  d Energy = 0.2936583E-03-0.131E-03
 d Force =-0.1214752E+01[-0.121E+01,-0.122E+01]  d Ewald  = 0.2888199E+01-0.410E+01

 reached required accuracy - stopping structural energy minimisation

 total charge

[...]

 magnetization (x)

# of ion       s       p       d       tot
    1       -0.001  -0.001   0.546   0.545
    2       -0.001  -0.001   0.546   0.544
    3        0.004   0.009   0.003   0.016
    4        0.003   0.001   0.000   0.004
    5        0.006   0.053   0.001   0.061
    6        0.008   0.070   0.002   0.080
    7        0.006   0.062   0.002   0.070
    8        0.008   0.052   0.001   0.061
    9        0.009   0.069   0.002   0.080
   10        0.007   0.061   0.001   0.069
tot          0.050   0.377   1.105   1.531

 BZINTS: Fermi energy: -2.619163; 64.000000 electrons
         Band energy:-490.146670;  BLOECHL correction: -0.015387