 vasp.5.4.4.18Apr17-6-g9f103f2a35 (build May  1 2020 15:48:39) complex
 executed on             LinuxGNU date 2020.06.21  23:31:46

 INCAR:
 POTCAR:   PAW_PBE Ni 06Sep2000
 POTCAR:    PAW_PBE P 17Jan2003
 POTCAR:   PAW_PBE Ge 05Jan2001
 POTCAR:    PAW_PBE S 17Jan2003

 POTCAR:   PAW_PBE Ni 06Sep2000
   VRHFIN =Ni:

   TITEL  = PAW_PBE Ni 06Sep2000
   POMASS =   58.690; ZVAL   =   10.000    mass and valenz
   ENMAX  =  269.533; ENMIN  =  202.150 eV
   QCUT   =   -4.451; QGAM   =    8.902    optimization parameters

   Description
     l     E      TYP  RCUT    TYP  RCUT
     2   .000     23  2.300
     2   .000     23  2.300
     0   .000     23  2.300
     0   .000     23  2.300
     1  -.200     23  2.300
     1   .000     23  2.300
     3   .000      7   .000

 POTCAR:    PAW_PBE P 17Jan2003
   VRHFIN =P : s2p3

   TITEL  = PAW_PBE P 17Jan2003
   POMASS =   30.974; ZVAL   =    5.000    mass and valenz
   ENMAX  =  270.000; ENMIN  =  191.280 eV
   QCUT   =   -4.330; QGAM   =    8.659    optimization parameters

[...]

 POTCAR:   PAW_PBE Ge 05Jan2001
   VRHFIN =Ge: s2p2

[...]

 POTCAR:    PAW_PBE S 17Jan2003
   VRHFIN =S : s2p4

   TITEL  = PAW_PBE S 17Jan2003
   POMASS =   32.066; ZVAL   =    6.000    mass and valenz
   ENMAX  =  280.000; ENMIN  =  194.016 eV
   QCUT   =   -4.360; QGAM   =    8.721    optimization parameters

   Description
     l     E      TYP  RCUT    TYP  RCUT
     0   .000     23  1.900
     0   .000     23  1.900
     1   .000     23  1.900
     1   .000     23  1.900
     2   .000     23  1.900

 Optimization of the real space projectors (new method)

 maximal supplied QI-value         = 16.25
 optimisation between [QCUT,QGAM] = [ 11.54, 23.24] = [ 37.28,151.24] Ry
 Optimized for a Real-space Cutoff    1.49 Angstroem

   l    n(q)    QCUT    max X(q) W(low)/X(q) W(high)/X(q)  e(spline)
   2      9    11.539     4.811    0.20E-04    0.14E-04    0.45E-07
   2      9    11.539    15.146    0.24E-03    0.12E-03    0.20E-06
   0     10    11.539    14.357    0.18E-04    0.12E-05    0.14E-07
   0     10    11.539    43.282    0.39E-04    0.17E-04    0.23E-06
   1     10    11.539     5.514    0.99E-05    0.13E-04    0.19E-07
   1     10    11.539     7.697    0.38E-04    0.79E-04    0.91E-07
 Optimization of the real space projectors (new method)

[...]

   l    n(q)    QCUT    max X(q) W(low)/X(q) W(high)/X(q)  e(spline)
   0      9    11.539     8.651    0.22E-04    0.16E-04    0.10E-07
   0      9    11.539    33.192    0.11E-03    0.16E-03    0.65E-07
   1      8    11.539     5.899    0.37E-04    0.28E-04    0.43E-07
   1      8    11.539    27.289    0.22E-03    0.28E-04    0.14E-06
   2      8    11.539     4.673    0.11E-03    0.18E-03    0.58E-07
 Optimization of the real space projectors (new method)

 maximal supplied QI-value         = 19.84
 optimisation between [QCUT,QGAM] = [ 11.51, 23.22] = [ 37.09,150.92] Ry
 Optimized for a Real-space Cutoff    1.21 Angstroem

   l    n(q)    QCUT    max X(q) W(low)/X(q) W(high)/X(q)  e(spline)
   0      8    11.508     5.487    0.18E-04    0.22E-05    0.47E-08
   0      8    11.508    85.627    0.96E-04    0.18E-03    0.54E-07
   1      8    11.508     3.530    0.17E-04    0.28E-04    0.21E-07
   1      8    11.508    42.714    0.18E-03    0.63E-04    0.92E-07

 PAW_PBE Ni 06Sep2000                   :
  PAW_PBE P 17Jan2003                   :
 PAW_PBE Ge 05Jan2001                   :
  PAW_PBE S 17Jan2003                   :

 POSCAR: Ni2 P Ge S6
  positions in direct lattice
  velocities in cartesian coordinates
 exchange correlation table for  LEXCH =       42
   RHO(1)=    0.500       N(1)  =     2000
   RHO(2)=  100.500       N(2)  =     4000

 ion  position               nearest neighbor table
   1  0.333  0.333  0.500-   6 2.78   5 2.78   7 2.78   8 2.78  10 2.78   9 2.78
   2  0.667  0.667  0.500-   9 2.78   8 2.78  10 2.78   5 2.78   7 2.78   6 2.78
   3  0.000  0.000  0.448-   4 2.43   8 2.63  10 2.63   9 2.63
   4  0.000  0.000  0.552-   3 2.43   5 2.63   7 2.63   6 2.63
   5  0.626  0.000  0.574-   4 2.63   1 2.78   2 2.78
   6  0.000  0.373  0.574-   4 2.63   1 2.78   2 2.78
   7  0.373  0.626  0.574-   4 2.63   1 2.78   2 2.78
   8  0.374  1.000  0.426-   3 2.63   2 2.78   1 2.78
   9  1.000  0.627  0.426-   3 2.63   2 2.78   1 2.78
  10  0.627  0.374  0.426-   3 2.63   2 2.78   1 2.78

  LATTYP: Found a hexagonal cell.
 ALAT       =     6.9077769333
 C/A-ratio  =     3.3939410937

  Lattice vectors:

 A1 = (   3.4538890000,  -5.9823100000,   0.0000000000)
 A2 = (  -6.9077770000,   0.0000000000,   0.0000000000)
 A3 = (   0.0000000000,   0.0000000000, -23.4445880000)

Analysis of symmetry for initial positions (statically):
 Subroutine PRICEL returns:
 Original cell was already a primitive cell.

 Routine SETGRP: Setting up the symmetry group for a
 hexagonal supercell.

 Subroutine GETGRP returns: Found  3 space group operations
 (whereof  3 operations were pure point group operations)
 out of a pool of 24 trial point group operations.

The static configuration has the point symmetry C_3 .

Analysis of symmetry for dynamics (positions and initial velocities):
 Subroutine PRICEL returns:
 Original cell was already a primitive cell.

[...]

The dynamic configuration has the point symmetry C_3 .

Analysis of constrained symmetry for selective dynamics:
 Subroutine PRICEL returns:
 Original cell was already a primitive cell.

[...]

The constrained configuration has the point symmetry C_3 .

Analysis of structural, dynamic, and magnetic symmetry:
 Subroutine PRICEL returns:
 Original cell was already a primitive cell.

 Routine SETGRP: Setting up the symmetry group for a
 hexagonal supercell.

 Subroutine GETGRP returns: Found  3 space group operations
 (whereof  3 operations were pure point group operations)
 out of a pool of 24 trial point group operations.

The magnetic configuration has the point symmetry C_3 .

 Subroutine INISYM returns: Found  3 space group operations
 (whereof  3 operations are pure point group operations),
 and found     1 'primitive' translations

 KPOINTS: Kpoints from vasprun.xml

Automatic generation of k-mesh.
Space group operators:
 irot       det(A)        alpha          n_x          n_y          n_z        tau_x        tau_y        tau_z
    1     1.000000     0.000000     1.000000     0.000000     0.000000     0.000000     0.000000     0.000000
    2     1.000000   120.000000     0.000000     0.000000     1.000000     0.000000     0.000000     0.000000
    3     1.000000   120.000000     0.000000     0.000000    -1.000000     0.000000     0.000000     0.000000

 Subroutine IBZKPT returns following result:

 Found      5 irreducible k-points:

 Following reciprocal coordinates:
            Coordinates               Weight
  0.000000  0.000000  0.000000      1.000000
  0.200000  0.000000  0.000000      6.000000
  0.400000  0.000000  0.000000      6.000000
  0.400000  0.200000  0.000000      6.000000
 -0.400000  0.200000  0.000000      6.000000

 Following cartesian coordinates:
            Coordinates               Weight
  0.000000  0.000000  0.000000      1.000000
  0.028953 -0.016716  0.000000      6.000000
  0.057906 -0.033432  0.000000      6.000000
  0.057906  0.000000  0.000000      6.000000
 -0.057906  0.066864  0.000000      6.000000

 TETIRR: Found     15 inequivalent tetrahedra from      150

 SYSTEM =  unknown system
 POSCAR =  Ni2 P Ge S6

 Startparameter for this run:
   NWRITE =      2    write-flag & timer
   PREC   = accura    normal or accurate (medium, high low for compatibility)
   ISTART =      0    job   : 0-new  1-cont  2-samecut
   ICHARG =      2    charge: 1-file 2-atom 10-const
   ISPIN  =      2    spin polarized calculation?
   LNONCOLLINEAR =      F non collinear calculations
   LSORBIT =      F    spin-orbit coupling
   INIWAV =      1    electr: 0-lowe 1-rand  2-diag
   LASPH  =      F    aspherical Exc in radial PAW
   METAGGA=      F    non-selfconsistent MetaGGA calc.

 Electronic Relaxation 1
   ENCUT  =  520.0 eV  38.22 Ry    6.18 a.u.  12.84 12.84 43.59*2*pi/ulx,y,z
   ENINI  =  520.0     initial cutoff
   ENAUG  =  544.6 eV  augmentation charge cutoff
   NELM   =    400;   NELMIN=  2; NELMDL=  0     # of ELM steps
   EDIFF  = 0.1E-03   stopping-criterion for ELM
   LREAL  =      T    real-space projection
   NLSPLINE    = F    spline interpolate recip. space projectors
   LCOMPAT=      F    compatible to vasp.4.4
   GGA_COMPAT  = T    GGA compatible to vasp.4.4-vasp.4.6
   LMAXPAW     = -100 max onsite density
   LMAXMIX     =    2 max onsite mixed and CHGCAR
   VOSKOWN=      0    Vosko Wilk Nusair interpolation
   ROPT   =   -0.00025  -0.00025  -0.00025  -0.00025
 Ionic relaxation
   EDIFFG = 0.1E-02   stopping-criterion for IOM
   NSW    =     99    number of steps for IOM
   NBLOCK =      1;   KBLOCK =     99    inner block; outer block
   IBRION =      2    ionic relax: 0-MD 1-quasi-New 2-CG
   NFREE  =      1    steps in history (QN), initial steepest desc. (CG)
   ISIF   =      3    stress and relaxation
   IWAVPR =     11    prediction:  0-non 1-charg 2-wave 3-comb
   ISYM   =      2    0-nonsym 1-usesym 2-fastsym
   LCORR  =      T    Harris-Foulkes like correction to forces

   POTIM  = 0.5000    time-step for ionic-motion
   TEIN   =    0.0    initial temperature
   TEBEG  =    0.0;   TEEND  =   0.0 temperature during run
   SMASS  =  -3.00    Nose mass-parameter (am)
   estimated Nose-frequenzy (Omega)   =  0.10E-29 period in steps =****** mass=  -0.109E-26a.u.
   SCALEE = 1.0000    scale energy and forces
   NPACO  =    256;   APACO  = 16.0  distance and # of slots for P.C.
   PSTRESS=    0.0 pullay stress

  Mass of Ions in am
   POMASS =  58.69 30.97 72.61 32.07
  Ionic Valenz
   ZVAL   =  10.00  5.00  4.00  6.00
  Atomic Wigner-Seitz radii
  virtual crystal weights
   VCA    =   1.00  1.00  1.00  1.00
   NELECT =      65.0000    total number of electrons
   NUPDOWN=      -1.0000    fix difference up-down

 DOS related values:
   EMIN   =  10.00;   EMAX   =-10.00  energy-range for DOS
   EFERMI =   0.00
   ISMEAR =    -5;   SIGMA  =   0.05  broadening in eV -4-tet -1-fermi 0-gaus

 Electronic relaxation 2 (details)
   IALGO  =     38    algorithm
   LDIAG  =      T    sub-space diagonalisation (order eigenvalues)
   LSUBROT=      F    optimize rotation matrix (better conditioning)
   TURBO    =      0    0=normal 1=particle mesh
   IRESTART =      0    0=no restart 2=restart with 2 vectors
   NREBOOT  =      0    no. of reboots
   NMIN     =      0    reboot dimension
   EREF     =   0.00    reference energy to select bands
   IMIX   =      4    mixing-type and parameters
     AMIX     =   0.40;   BMIX     =  1.00
     AMIX_MAG =   1.60;   BMIX_MAG =  1.00
     AMIN     =   0.01
     WC   =   100.;   INIMIX=   1;  MIXPRE=   1;  MAXMIX= -45

 Intra band minimization:
   WEIMIN = 0.0010     energy-eigenvalue tresh-hold
   EBREAK =  0.52E-06  absolut break condition
   DEPER  =   0.30     relativ break condition

   TIME   =   0.40     timestep for ELM

  volume/ion in A,a.u.               =      96.88       653.80
  Fermi-wavevector in a.u.,A,eV,Ry     =   0.665216  1.257076  6.020745  0.442512
[...]
     6.907777000 -0.000000000  0.000000000     0.144764372 -0.083579742  0.000000000
     3.453888000  5.982310000  0.000000000     0.000000000  0.167159509 -0.000000000
     0.000000000  0.000000000 23.444588000    -0.000000000  0.000000000  0.042653767

[...]

 FORCES acting on ions
    electron-ion (+dipol)            ewald-force                    non-local-force                 convergence-correction
   0.239E-03 0.121E-03 -.749E+01   0.658E-03 0.396E-03 0.773E+01   0.000E+00 0.000E+00 -.174E+00   0.660E-06 0.344E-06 -.183E-01
   -.226E-03 -.102E-03 -.991E+01   -.658E-03 -.396E-03 0.101E+02   0.000E+00 -.694E-17 -.159E+00   -.609E-06 -.427E-06 -.189E-01
   -.219E-04 -.824E-05 0.235E+03   -.176E-03 -.974E-04 -.233E+03   0.000E+00 0.000E+00 -.278E+01   -.521E-07 -.306E-07 0.210E-01
   0.730E-04 -.680E-04 -.199E+03   0.141E-03 0.779E-04 0.199E+03   0.694E-17 0.000E+00 0.110E+01   0.489E-07 -.260E-08 -.264E-01
   -.247E+02 0.156E+00 -.431E+03   0.219E+02 -.154E+00 0.435E+03   0.374E+01 -.102E-01 -.495E+01   -.954E-02 0.239E-02 -.612E-01
   0.125E+02 0.213E+02 -.431E+03   -.111E+02 -.189E+02 0.435E+03   -.188E+01 -.324E+01 -.495E+01   0.684E-02 0.706E-02 -.612E-01
   0.122E+02 -.214E+02 -.431E+03   -.108E+02 0.191E+02 0.435E+03   -.186E+01 0.325E+01 -.495E+01   0.270E-02 -.945E-02 -.612E-01
   0.178E+02 -.153E+00 0.426E+03   -.153E+02 0.146E+00 -.429E+03   -.383E+01 0.631E-02 0.500E+01   0.114E-01 0.238E-02 0.439E-01
   -.904E+01 -.154E+02 0.426E+03   0.778E+01 0.132E+02 -.429E+03   0.192E+01 0.331E+01 0.500E+01   -.364E-02 -.111E-01 0.439E-01
   -.878E+01 0.155E+02 0.426E+03   0.752E+01 -.133E+02 -.429E+03   0.191E+01 -.332E+01 0.500E+01   -.777E-02 0.869E-02 0.439E-01
   0.431E-04 -.323E-04 0.197E+01   -.444E-14 0.711E-14 -.568E-13   0.444E-15 0.000E+00 -.188E+01   0.197E-07 -.172E-06 -.947E-01

 POSITION                                       TOTAL-FORCE (eV/Angst)
      3.45388      1.99410     11.72054        -0.000000     -0.000000      0.043750
      6.90778      3.98821     11.72405        -0.000000     -0.000000      0.023643
      0.00000      0.00000     10.50824        -0.000000     -0.000000     -0.793626
      0.00000      0.00000     12.93635        -0.000000     -0.000000      0.540281
      4.32819      0.00251     13.45138         0.981122     -0.004032     -1.618126
      1.29198      2.23274     13.45138        -0.494053     -0.847661     -1.618126
      4.74152      3.74706     13.45138        -0.487069      0.851693     -1.618126
      6.03348      5.97980      9.99321        -1.299623      0.001453      1.680110
      9.06969      3.74957      9.99321         0.651069      1.124780      1.680110
      5.62015      2.23525      9.99321         0.648554     -1.126233      1.680110
    total drift:                                0.000043     -0.000032     -0.001336

  FREE ENERGIE OF THE ION-ELECTRON SYSTEM (eV)
  free  energy   TOTEN  =       -35.01096845 eV

  energy  without entropy=      -35.01096845  energy(sigma->0) =      -35.01096845

[...]

 d Force = 0.6337214E+00[ 0.182E+00, 0.109E+01]  d Energy = 0.7421480E+01-0.679E+01
 d Force =-0.2097191E+03[-0.243E+03,-0.177E+03]  d Ewald  =-0.2635424E+04 0.243E+04

 Steepest descent step on ions:
 trial-energy change:   -7.421480  1 .order   -5.972720  -10.461439   -1.484001
  (g-gl).g = 0.105E+02      g.g   = 0.105E+02  gl.gl    = 0.000E+00
 g(Force)  = 0.120E+01   g(Stress)= 0.926E+01 ortho     = 0.000E+00
 gamma     =   0.00000
 trial     =   1.00000
 opt step  =   1.08077  (harmonic =   1.16530) maximal distance =0.08759999
 next E    =   -42.493147   (d E  =  -7.48218)

[...]

 d Force =-0.2812558E-03[-0.540E-03,-0.226E-04]  d Energy = 0.6333724E-02-0.661E-02
 d Force = 0.3840106E+01[ 0.383E+01, 0.385E+01]  d Ewald  = 0.4830768E+02-0.445E+02

[...]

 d Force = 0.1590678E+00[ 0.928E-01, 0.225E+00]  d Energy = 0.1574180E+00 0.165E-02
 d Force = 0.6970003E+00[ 0.952E-01, 0.130E+01]  d Ewald  =-0.1090581E+03 0.110E+03

 Conjugate gradient step on ions:
 trial-energy change:   -0.157418  1 .order   -0.159176   -0.227400   -0.090951
  (g-gl).g = 0.203E+00      g.g   = 0.224E+00  gl.gl    = 0.105E+02
 g(Force)  = 0.222E+00   g(Stress)= 0.176E-02 ortho     = 0.212E-01
 gamma     =   0.01938
 trial     =   1.01330
 opt step  =   1.79594  (harmonic =   1.68873) maximal distance =0.06706497
 next E    =   -42.673557   (d E  =  -0.19173)

[...]

 d Force = 0.3187384E-01[-0.801E-02, 0.718E-01]  d Energy = 0.3025393E-01 0.162E-02
 d Force =-0.2872403E+00[-0.646E+00, 0.711E-01]  d Ewald  =-0.8584745E+02 0.856E+02

[...]

 d Force = 0.1363903E-03[-0.106E-02, 0.133E-02]  d Energy = 0.8756049E-03-0.739E-03
 d Force = 0.9978700E-01[ 0.898E-01, 0.110E+00]  d Ewald  = 0.1444000E+02-0.143E+02

[...]

 d Force = 0.3393059E-01[ 0.161E-01, 0.518E-01]  d Energy = 0.3124522E-01 0.269E-02
 d Force = 0.6326216E+01[ 0.639E+01, 0.626E+01]  d Ewald  = 0.1524115E+03-0.146E+03

 Conjugate gradient step on ions:
 trial-energy change:   -0.031245  1 .order   -0.035206   -0.071025    0.000612
  (g-gl).g = 0.527E-01      g.g   = 0.622E-01  gl.gl    = 0.224E+00
 g(Force)  = 0.432E-01   g(Stress)= 0.189E-01 ortho     =-0.216E-03
 gamma     =   0.23540
 trial     =   1.14368
 opt step  =   1.12915  (harmonic =   1.13391) maximal distance =0.03193873
 next E    =   -42.701622   (d E  =  -0.03125)

[...]

 d Force =-0.2100366E-03[-0.216E-03,-0.204E-03]  d Energy =-0.1053954E-03-0.105E-03
 d Force =-0.8113095E-01[-0.811E-01,-0.811E-01]  d Ewald  =-0.1919349E+01 0.184E+01

[...]

 d Force = 0.1121672E-01[-0.333E-02, 0.258E-01]  d Energy = 0.1601088E-01-0.479E-02
 d Force =-0.5070297E+01[-0.496E+01,-0.518E+01]  d Ewald  =-0.1166102E+03 0.112E+03

[...]

 d Force = 0.1403275E-03[ 0.711E-04, 0.210E-03]  d Energy = 0.8331762E-04 0.570E-04
 d Force = 0.3131432E+00[ 0.314E+00, 0.313E+00]  d Ewald  = 0.7387627E+01-0.707E+01

[...]

 d Force = 0.3160209E-02[ 0.110E-02, 0.522E-02]  d Energy = 0.6992493E-02-0.383E-02
 d Force = 0.1712397E+01[ 0.170E+01, 0.173E+01]  d Ewald  =-0.1250158E+03 0.127E+03

[...]

 d Force =-0.1252769E-03[-0.920E-03, 0.669E-03]  d Energy =-0.7344165E-03 0.609E-03
 d Force = 0.1026157E+01[ 0.102E+01, 0.103E+01]  d Ewald  =-0.7635430E+02 0.774E+02

[...]

 d Force = 0.9874254E-02[ 0.734E-02, 0.124E-01]  d Energy =-0.9818315E-03 0.109E-01
 d Force =-0.3884039E+02[-0.386E+02,-0.390E+02]  d Ewald  =-0.1082394E+03 0.694E+02

[...]

 d Force = 0.1994331E-02[ 0.174E-02, 0.224E-02]  d Energy = 0.2515420E-02-0.521E-03
 d Force =-0.4512543E+01[-0.451E+01,-0.452E+01]  d Ewald  = 0.2688391E+02-0.314E+02

 Conjugate gradient step on ions:
 trial-energy change:   -0.002515  1 .order   -0.002683   -0.003054   -0.002313
  (g-gl).g = 0.235E-02      g.g   = 0.751E-02  gl.gl    = 0.275E-01
 g(Force)  = 0.525E-02   g(Stress)= 0.226E-02 ortho     = 0.562E-02
 gamma     =   0.08533
 trial     =   0.38235
 opt step  =   1.52939  (harmonic =   1.57618) maximal distance =0.01031943
 next E    =   -42.756444   (d E  =  -0.00629)

[...]

 d Force = 0.2961542E-02[ 0.691E-03, 0.523E-02]  d Energy = 0.2647571E-02 0.314E-03
 d Force =-0.1346676E+02[-0.134E+02,-0.135E+02]  d Ewald  = 0.8039459E+02-0.939E+02

[...]

 Conjugate gradient step on ions:
 trial-energy change:   -0.001373  1 .order   -0.000695   -0.000918   -0.000473
  (g-gl).g = 0.224E-02      g.g   = 0.157E-02  gl.gl    = 0.751E-02
 g(Force)  = 0.461E-03   g(Stress)= 0.111E-02 ortho     =-0.227E-03
 gamma     =   0.29840
 trial     =   0.61175
 opt step  =   0.67081  (harmonic =   1.26359) maximal distance =0.00115954
 next E    =   -42.756709   (d E  =  -0.00140)

[...]

 eigenvalue-minimisations  :   784
 total energy-change (2. order) : 0.1321412E-03  (-0.1710105E-04)
 number of electron      64.9999997 magnetization       2.9816995
 augmentation part        6.2631694 magnetization       1.5103117

 Broyden mixing:
  rms(total) = 0.13693E-02    rms(broyden)= 0.13689E-02
  rms(prec ) = 0.18583E-02
  weight for this iteration     100.00

 eigenvalues of (default mixing * dielectric matrix)
  average eigenvalue GAMMA=   0.6493
  0.9906  0.3081

[...]

--------------------------------------- Iteration     25(   4)  ---------------------------------------

[...]

 eigenvalue-minimisations  :   672
 total energy-change (2. order) :-0.1754804E-04  (-0.4917481E-05)
 number of electron      64.9999997 magnetization       2.9816995
 augmentation part        6.2631694 magnetization       1.5103117

 Free energy of the ion-electron system (eV)
  alpha Z        PSCENC =        41.09558354
  Ewald energy   TEWEN  =     11933.47925266
  -Hartree energ DENC   =    -15647.08776181
  -exchange      EXHF   =         0.00000000
  -V(xc)+E(xc)   XCENC  =       130.32888926
  PAW double counting   =      2548.56304352    -2640.14467762
  entropy T*S    EENTRO =         0.00000000
  eigenvalues    EBANDS =      -522.44439541
  atomic energy  EATOM  =      4113.45303949
  Solvation  Ediel_sol  =         0.00000000
  free energy    TOTEN  =       -42.75702637 eV

  energy without entropy =      -42.75702637  energy(sigma->0) =      -42.75702637

 average (electrostatic) potential at core
  the test charge radii are     0.9791  0.9587  1.1631  0.9698
  (the norm of the test charge is              1.0000)
       1 -50.2056       2 -50.2043       3 -93.1141       4 -40.0354       5 -94.5036
       6 -94.5036       7 -94.5036       8 -94.5226       9 -94.5226      10 -94.5226

 E-fermi :  -2.6526     XC(G=0):  -3.3155     alpha+bet : -2.8798

[...]

 spin component 2

[...]

 k-point     5 :      -0.4000    0.2000    0.0000
  band No.  band energies     occupation
      1     -18.0476      1.00000
      2     -16.3829      1.00000
      3     -16.1764      1.00000
      4     -15.9852      1.00000
      5     -15.7383      1.00000
      6     -15.5123      1.00000
      7     -12.0167      1.00000
      8     -10.5912      1.00000
      9      -8.7172      1.00000
     10      -8.2902      1.00000
     11      -8.0629      1.00000
     12      -7.5434      1.00000
     13      -7.3490      1.00000
     14      -6.7811      1.00000
     15      -6.3580      1.00000
     16      -6.2141      1.00000
     17      -6.1845      1.00000
     18      -5.8667      1.00000
     19      -5.8644      1.00000
     20      -5.6530      1.00000
     21      -5.5234      1.00000
     22      -4.9061      1.00000
     23      -4.7156      1.00000
     24      -4.6810      1.00000
     25      -4.5387      1.00000
     26      -4.2355      1.00000
     27      -4.2000      1.00000
     28      -4.0563      1.00000
     29      -3.9126      1.00000
     30      -3.8207      1.00000
     31      -3.7885      1.00000
     32      -2.4741     -0.02549
     33      -2.3428      0.00000
     34      -2.0984      0.00000
     35      -1.8115      0.00000
     36      -1.0598      0.00000
     37      -0.3392      0.00000
     38       0.4923      0.00000
     39       0.8263      0.00000
     40       1.2960      0.00000
     41       1.4676      0.00000
     42       1.6119      0.00000
     43       2.7739      0.00000
     44       3.0360      0.00000
     45       3.1106      0.00000
     46       3.3568      0.00000
     47       3.4209      0.00000
     48       3.8169      0.00000

[...]

 soft charge-density along one line, spin component           2
         0         1         2         3         4         5         6         7         8         9
 total charge-density along one line

------------------------ aborting loop because EDIFF is reached ----------------------------------------

[...]

  FORCE on cell =-STRESS in cart. coord.  units (eV):
  Direction    XX          YY          ZZ          XY          YZ          ZX
  Alpha Z    41.09558    41.09558    41.09558
  Ewald   14280.28350 14280.28063-16627.08723    -0.00225    -0.00063    -0.00114
  Hartree 15034.56090 15034.56189-14424.35272    -0.00048     0.00006     0.00010
  E(xc)    -272.50241  -272.50243  -272.22306     0.00003     0.00000     0.00001
  Local  -30226.93529-30226.93489 30093.09540     0.00230     0.00037     0.00069
  n-local   444.44323   445.60864   450.10513     0.52388     0.29198     0.18027
  augment    -7.09704    -7.09692   -12.61024     0.00003     0.00004     0.00004
  Kinetic   710.27028   700.42806   751.96186    -5.03327    -0.50753    -0.75646
  Fock        0.00000     0.00000     0.00000     0.00000     0.00000     0.00000
  Total      -0.22034    -0.22034    -0.01527     0.00000     0.00000    -0.00000
  in kB      -0.53089    -0.53089    -0.03680     0.00000     0.00000    -0.00000

 VOLUME and BASIS-vectors are now :
  energy-cutoff  :      520.00
  volume of cell :      664.96
      direct lattice vectors                 reciprocal lattice vectors
     5.875384296  0.000000080 -0.000000000     0.170201634 -0.098265951  0.000000000
     2.937691805  5.088231896 -0.000000000    -0.000000003  0.196531925  0.000000000
    -0.000000000 -0.000000000 22.242975885     0.000000000  0.000000000  0.044958013

  length of vectors
     5.875384296  5.875383985 22.242975885     0.196531914  0.196531925  0.044958013

 FORCES acting on ions
    electron-ion (+dipol)            ewald-force                    non-local-force                 convergence-correction
   -.128E-03 -.701E-04 0.908E+01   0.893E-03 0.528E-03 -.846E+01   0.691E-18 0.716E-18 -.631E+00   0.422E-06 -.521E-06 -.206E-01
   0.110E-03 0.124E-03 0.106E+02   -.900E-03 -.533E-03 -.998E+01   0.671E-18 -.132E-16 -.613E+00   0.310E-06 -.496E-06 -.204E-01
   -.377E-04 -.412E-04 0.317E+03   -.271E-03 -.151E-03 -.310E+03   0.211E-16 0.213E-16 -.657E+01   -.356E-07 -.229E-07 0.170E-01
   0.164E-04 0.397E-04 -.310E+03   0.216E-03 0.121E-03 0.308E+03   0.770E-17 -.280E-17 0.247E+01   -.471E-07 -.287E-07 -.233E-01
   -.343E+02 0.110E+00 -.608E+03   0.303E+02 -.114E+00 0.612E+03   0.398E+01 0.526E-02 -.368E+01   -.250E-02 -.285E-02 -.473E-01
   0.172E+02 0.296E+02 -.608E+03   -.153E+02 -.262E+02 0.612E+03   -.199E+01 -.345E+01 -.368E+01   -.122E-02 0.359E-02 -.473E-01
   0.171E+02 -.298E+02 -.608E+03   -.151E+02 0.263E+02 0.612E+03   -.200E+01 0.345E+01 -.368E+01   0.372E-02 -.740E-03 -.473E-01
   0.115E+01 -.101E+00 0.601E+03   0.241E+01 0.111E+00 -.605E+03   -.355E+01 -.710E-02 0.388E+01   0.513E-02 -.237E-02 0.347E-01
   -.661E+00 -.942E+00 0.601E+03   -.111E+01 -.214E+01 -.605E+03   0.177E+01 0.308E+01 0.388E+01   -.462E-02 -.326E-02 0.347E-01
   -.484E+00 0.105E+01 0.601E+03   -.130E+01 0.203E+01 -.605E+03   0.178E+01 -.307E+01 0.388E+01   -.512E-03 0.563E-02 0.347E-01
   -.115E-03 0.504E-04 0.483E+01   0.178E-14 -.142E-13 -.114E-12   0.444E-15 0.444E-15 -.475E+01   0.682E-06 -.105E-05 -.850E-01

 POSITION                                       TOTAL-FORCE (eV/Angst)
      2.93769      1.69608     11.08122         0.000000      0.000000     -0.038889
      5.87539      3.39216     11.07860         0.000000      0.000000     -0.029199
     -0.00000     -0.00000      9.97982         0.000000      0.000000     -0.012486
     -0.00000     -0.00000     12.27332        -0.000000     -0.000000      0.200651
      3.62248     -0.00043     12.55575         0.009348     -0.000049     -0.016263
      1.12609      1.95129     12.55575        -0.004717     -0.008071     -0.016263
      4.06452      3.13737     12.55575        -0.004631      0.008120     -0.016263
      2.02769      0.00040      9.52365         0.017243     -0.000278     -0.023762
      1.92419      3.33200      9.52365        -0.008863     -0.014794     -0.023762
      4.86119      1.75583      9.52365        -0.008381      0.015072     -0.023762
    total drift:                               -0.000114      0.000049     -0.011529

  FREE ENERGIE OF THE ION-ELECTRON SYSTEM (eV)
  free  energy   TOTEN  =       -42.75702637 eV

  energy  without entropy=      -42.75702637  energy(sigma->0) =      -42.75702637

 d Force = 0.1382251E-04[ 0.110E-04, 0.166E-04]  d Energy = 0.3407801E-03-0.327E-03
 d Force =-0.3345393E+00[-0.335E+00,-0.335E+00]  d Ewald  =-0.1235196E+01 0.901E+00

 reached required accuracy - stopping structural energy minimisation

 total charge

[...]

 magnetization (x)

# of ion       s       p       d       tot
    1       -0.002  -0.000   0.898   0.896
    2       -0.002  -0.000   0.899   0.897
    3        0.003   0.000   0.000   0.003
    4        0.006   0.023   0.008   0.037
    5        0.014   0.099   0.000   0.113
    6        0.013   0.100   0.000   0.113
    7        0.013   0.103   0.000   0.116
    8        0.010   0.107   0.000   0.117
    9        0.010   0.080   0.000   0.090
   10        0.010   0.097   0.000   0.107
tot          0.076   0.608   1.805   2.489

 BZINTS: Fermi energy: -2.652558; 65.000000 electrons
         Band energy:-522.444395;  BLOECHL correction: -0.014783