 vasp.5.4.4.18Apr17-6-g9f103f2a35 (build May  1 2020 15:48:39) complex
 executed on             LinuxGNU date 2020.06.25  10:11:37

 INCAR:
 POTCAR:   PAW_PBE Ni 06Sep2000
 POTCAR:   PAW_PBE Ge 05Jan2001
 POTCAR:    PAW_PBE P 17Jan2003
 POTCAR:   PAW_PBE Se 06Sep2000

 POTCAR:   PAW_PBE Ni 06Sep2000
   VRHFIN =Ni:

   TITEL  = PAW_PBE Ni 06Sep2000
   POMASS =   58.690; ZVAL   =   10.000    mass and valenz
   ENMAX  =  269.533; ENMIN  =  202.150 eV
   QCUT   =   -4.451; QGAM   =    8.902    optimization parameters

   Description
     l     E      TYP  RCUT    TYP  RCUT
     2   .000     23  2.300
     2   .000     23  2.300
     0   .000     23  2.300
     0   .000     23  2.300
     1  -.200     23  2.300
     1   .000     23  2.300
     3   .000      7   .000

 POTCAR:   PAW_PBE Ge 05Jan2001
   VRHFIN =Ge: s2p2

   TITEL  = PAW_PBE Ge 05Jan2001
   POMASS =   72.610; ZVAL   =    4.000    mass and valenz
   ENMAX  =  173.807; ENMIN  =  130.355 eV
   QCUT   =   -3.574; QGAM   =    7.148    optimization parameters

[...]

 POTCAR:    PAW_PBE P 17Jan2003
   VRHFIN =P : s2p3

   TITEL  = PAW_PBE P 17Jan2003
   POMASS =   30.974; ZVAL   =    5.000    mass and valenz
   ENMAX  =  270.000; ENMIN  =  191.280 eV
   QCUT   =   -4.330; QGAM   =    8.659    optimization parameters

[...]

 POTCAR:   PAW_PBE Se 06Sep2000
   VRHFIN =Se: s2p4

   TITEL  = PAW_PBE Se 06Sep2000
   POMASS =   78.960; ZVAL   =    6.000    mass and valenz
   ENMAX  =  211.534; ENMIN  =  158.651 eV
   QCUT   =   -3.943; QGAM   =    7.886    optimization parameters

   Description
     l     E      TYP  RCUT    TYP  RCUT
     0   .000     23  2.100
     0   .000     23  2.100
     1   .000     23  2.100
     1   .000     23  2.100
     2   .000     23  2.100
     3  -.100      7  2.100

 Optimization of the real space projectors (new method)

 maximal supplied QI-value         = 16.25
 optimisation between [QCUT,QGAM] = [ 11.54, 23.24] = [ 37.28,151.24] Ry
 Optimized for a Real-space Cutoff    1.49 Angstroem

   l    n(q)    QCUT    max X(q) W(low)/X(q) W(high)/X(q)  e(spline)
   2      9    11.539     4.811    0.20E-04    0.14E-04    0.45E-07
   2      9    11.539    15.146    0.24E-03    0.12E-03    0.20E-06
   0     10    11.539    14.357    0.18E-04    0.12E-05    0.14E-07
   0     10    11.539    43.282    0.39E-04    0.17E-04    0.23E-06
   1     10    11.539     5.514    0.99E-05    0.13E-04    0.19E-07
   1     10    11.539     7.697    0.38E-04    0.79E-04    0.91E-07
 Optimization of the real space projectors (new method)

[...]

   l    n(q)    QCUT    max X(q) W(low)/X(q) W(high)/X(q)  e(spline)
   0      8    11.508     6.651    0.19E-04    0.31E-05    0.49E-08
   0      8    11.508    90.285    0.95E-04    0.17E-03    0.51E-07
   1      8    11.508     4.328    0.14E-04    0.32E-04    0.22E-07
   1      8    11.508    54.583    0.16E-03    0.71E-04    0.89E-07
 Optimization of the real space projectors (new method)

 maximal supplied QI-value         = 17.95
 optimisation between [QCUT,QGAM] = [ 11.67, 23.34] = [ 38.13,152.52] Ry
 Optimized for a Real-space Cutoff    1.25 Angstroem

   l    n(q)    QCUT    max X(q) W(low)/X(q) W(high)/X(q)  e(spline)
   0      9    11.669     6.499    0.13E-04    0.81E-05    0.11E-07
   0      9    11.669    52.623    0.18E-03    0.46E-04    0.72E-07
   1      8    11.669     4.229    0.40E-04    0.45E-04    0.31E-07
   1      8    11.669    29.991    0.22E-03    0.36E-03    0.10E-06
   2      8    11.669     3.719    0.19E-03    0.46E-04    0.50E-07

 PAW_PBE Ni 06Sep2000                   :
 PAW_PBE Ge 05Jan2001                   :
  PAW_PBE P 17Jan2003                   :
 PAW_PBE Se 06Sep2000                   :

 POSCAR: Ni2 Ge P Se6
  positions in direct lattice
  velocities in cartesian coordinates
 exchange correlation table for  LEXCH =       42
   RHO(1)=    0.500       N(1)  =     2000
   RHO(2)=  100.500       N(2)  =     4000

 ion  position               nearest neighbor table
   1  0.333  0.333  0.500-   6 2.78   5 2.78   7 2.78   8 2.78  10 2.78   9 2.78
   2  0.667  0.667  0.500-   9 2.78   8 2.78  10 2.78   5 2.78   7 2.78   6 2.78
   3  0.000  0.000  0.448-   4 2.43   8 2.63  10 2.63   9 2.63
   4  0.000  0.000  0.552-   3 2.43   5 2.63   7 2.63   6 2.63
   5  0.626  0.000  0.574-   4 2.63   1 2.78   2 2.78
   6  0.000  0.373  0.574-   4 2.63   1 2.78   2 2.78
   7  0.373  0.626  0.574-   4 2.63   1 2.78   2 2.78
   8  0.374  1.000  0.426-   3 2.63   2 2.78   1 2.78
   9  1.000  0.627  0.426-   3 2.63   2 2.78   1 2.78
  10  0.627  0.374  0.426-   3 2.63   2 2.78   1 2.78

  LATTYP: Found a hexagonal cell.
 ALAT       =     6.9077769333
 C/A-ratio  =     3.3939410937

  Lattice vectors:

 A1 = (   3.4538890000,  -5.9823100000,   0.0000000000)
 A2 = (  -6.9077770000,   0.0000000000,   0.0000000000)
 A3 = (   0.0000000000,   0.0000000000, -23.4445880000)

Analysis of symmetry for initial positions (statically):
 Subroutine PRICEL returns:
 Original cell was already a primitive cell.

 Routine SETGRP: Setting up the symmetry group for a
 hexagonal supercell.

 Subroutine GETGRP returns: Found  3 space group operations
 (whereof  3 operations were pure point group operations)
 out of a pool of 24 trial point group operations.

The static configuration has the point symmetry C_3 .

Analysis of symmetry for dynamics (positions and initial velocities):
 Subroutine PRICEL returns:
 Original cell was already a primitive cell.

[...]

The dynamic configuration has the point symmetry C_3 .

Analysis of constrained symmetry for selective dynamics:
 Subroutine PRICEL returns:
 Original cell was already a primitive cell.

[...]

The constrained configuration has the point symmetry C_3 .

Analysis of structural, dynamic, and magnetic symmetry:
 Subroutine PRICEL returns:
 Original cell was already a primitive cell.

 Routine SETGRP: Setting up the symmetry group for a
 hexagonal supercell.

 Subroutine GETGRP returns: Found  3 space group operations
 (whereof  3 operations were pure point group operations)
 out of a pool of 24 trial point group operations.

The magnetic configuration has the point symmetry C_3 .

 Subroutine INISYM returns: Found  3 space group operations
 (whereof  3 operations are pure point group operations),
 and found     1 'primitive' translations

 KPOINTS: Kpoints from vasprun.xml

Automatic generation of k-mesh.
Space group operators:
 irot       det(A)        alpha          n_x          n_y          n_z        tau_x        tau_y        tau_z
    1     1.000000     0.000000     1.000000     0.000000     0.000000     0.000000     0.000000     0.000000
    2     1.000000   120.000000     0.000000     0.000000     1.000000     0.000000     0.000000     0.000000
    3     1.000000   120.000000     0.000000     0.000000    -1.000000     0.000000     0.000000     0.000000

 Subroutine IBZKPT returns following result:

 Found      5 irreducible k-points:

 Following reciprocal coordinates:
            Coordinates               Weight
  0.000000  0.000000  0.000000      1.000000
  0.200000  0.000000  0.000000      6.000000
  0.400000  0.000000  0.000000      6.000000
  0.400000  0.200000  0.000000      6.000000
 -0.400000  0.200000  0.000000      6.000000

 Following cartesian coordinates:
            Coordinates               Weight
  0.000000  0.000000  0.000000      1.000000
  0.028953 -0.016716  0.000000      6.000000
  0.057906 -0.033432  0.000000      6.000000
  0.057906  0.000000  0.000000      6.000000
 -0.057906  0.066864  0.000000      6.000000

 TETIRR: Found     15 inequivalent tetrahedra from      150

 SYSTEM =  unknown system
 POSCAR =  Ni2 Ge P Se6

 Startparameter for this run:
   NWRITE =      2    write-flag & timer
   PREC   = accura    normal or accurate (medium, high low for compatibility)
   ISTART =      0    job   : 0-new  1-cont  2-samecut
   ICHARG =      2    charge: 1-file 2-atom 10-const
   ISPIN  =      2    spin polarized calculation?
   LNONCOLLINEAR =      F non collinear calculations
   LSORBIT =      F    spin-orbit coupling
   INIWAV =      1    electr: 0-lowe 1-rand  2-diag
   LASPH  =      F    aspherical Exc in radial PAW
   METAGGA=      F    non-selfconsistent MetaGGA calc.

 Electronic Relaxation 1
   ENCUT  =  520.0 eV  38.22 Ry    6.18 a.u.  12.84 12.84 43.59*2*pi/ulx,y,z
   ENINI  =  520.0     initial cutoff
   ENAUG  =  544.6 eV  augmentation charge cutoff
   NELM   =    400;   NELMIN=  2; NELMDL=  0     # of ELM steps
   EDIFF  = 0.1E-03   stopping-criterion for ELM
   LREAL  =      T    real-space projection
   NLSPLINE    = F    spline interpolate recip. space projectors
   LCOMPAT=      F    compatible to vasp.4.4
   GGA_COMPAT  = T    GGA compatible to vasp.4.4-vasp.4.6
   LMAXPAW     = -100 max onsite density
   LMAXMIX     =    2 max onsite mixed and CHGCAR
   VOSKOWN=      0    Vosko Wilk Nusair interpolation
   ROPT   =   -0.00025  -0.00025  -0.00025  -0.00025
 Ionic relaxation
   EDIFFG = 0.1E-02   stopping-criterion for IOM
   NSW    =     99    number of steps for IOM
   NBLOCK =      1;   KBLOCK =     99    inner block; outer block
   IBRION =      2    ionic relax: 0-MD 1-quasi-New 2-CG
   NFREE  =      1    steps in history (QN), initial steepest desc. (CG)
   ISIF   =      3    stress and relaxation
   IWAVPR =     11    prediction:  0-non 1-charg 2-wave 3-comb
   ISYM   =      2    0-nonsym 1-usesym 2-fastsym
   LCORR  =      T    Harris-Foulkes like correction to forces

   POTIM  = 0.5000    time-step for ionic-motion
   TEIN   =    0.0    initial temperature
   TEBEG  =    0.0;   TEEND  =   0.0 temperature during run
   SMASS  =  -3.00    Nose mass-parameter (am)
   estimated Nose-frequenzy (Omega)   =  0.10E-29 period in steps =****** mass=  -0.109E-26a.u.
   SCALEE = 1.0000    scale energy and forces
   NPACO  =    256;   APACO  = 16.0  distance and # of slots for P.C.
   PSTRESS=    0.0 pullay stress

  Mass of Ions in am
   POMASS =  58.69 72.61 30.97 78.96
  Ionic Valenz
   ZVAL   =  10.00  4.00  5.00  6.00
  Atomic Wigner-Seitz radii
  virtual crystal weights
   VCA    =   1.00  1.00  1.00  1.00
   NELECT =      65.0000    total number of electrons
   NUPDOWN=      -1.0000    fix difference up-down

 DOS related values:
   EMIN   =  10.00;   EMAX   =-10.00  energy-range for DOS
   EFERMI =   0.00
   ISMEAR =    -5;   SIGMA  =   0.05  broadening in eV -4-tet -1-fermi 0-gaus

 Electronic relaxation 2 (details)
   IALGO  =     38    algorithm
   LDIAG  =      T    sub-space diagonalisation (order eigenvalues)
   LSUBROT=      F    optimize rotation matrix (better conditioning)
   TURBO    =      0    0=normal 1=particle mesh
   IRESTART =      0    0=no restart 2=restart with 2 vectors
   NREBOOT  =      0    no. of reboots
   NMIN     =      0    reboot dimension
   EREF     =   0.00    reference energy to select bands
   IMIX   =      4    mixing-type and parameters
     AMIX     =   0.40;   BMIX     =  1.00
     AMIX_MAG =   1.60;   BMIX_MAG =  1.00
     AMIN     =   0.01
     WC   =   100.;   INIMIX=   1;  MIXPRE=   1;  MAXMIX= -45

 Intra band minimization:
   WEIMIN = 0.0010     energy-eigenvalue tresh-hold
   EBREAK =  0.52E-06  absolut break condition
[...]

 POSITION                                       TOTAL-FORCE (eV/Angst)
      3.45388      1.99410     11.72054         0.000000      0.000000     -0.036569
      6.90778      3.98821     11.72405        -0.000000      0.000000     -0.051667
      0.00000      0.00000     10.50824        -0.000000      0.000000     -0.205571
      0.00000      0.00000     12.93635         0.000000      0.000000      0.455796
      4.32819      0.00251     13.45138         0.934815     -0.004159     -1.303850
      1.29198      2.23274     13.45138        -0.471009     -0.807494     -1.303850
      4.74152      3.74706     13.45138        -0.463806      0.811653     -1.303850
      6.03348      5.97980      9.99321        -0.559781      0.004410      1.249854
      9.06969      3.74957      9.99321         0.283710      0.482580      1.249854
      5.62015      2.23525      9.99321         0.276071     -0.486990      1.249854
    total drift:                               -0.000028      0.000164     -0.010051

  FREE ENERGIE OF THE ION-ELECTRON SYSTEM (eV)
  free  energy   TOTEN  =       -33.74032263 eV

  energy  without entropy=      -33.74032263  energy(sigma->0) =      -33.74032263

[...]

 d Force = 0.2823738E+00[-0.415E-01, 0.606E+00]  d Energy = 0.3359157E+01-0.308E+01
 d Force =-0.1610323E+03[-0.180E+03,-0.142E+03]  d Ewald  =-0.1947925E+04 0.179E+04

 Steepest descent step on ions:
 trial-energy change:   -3.359157  1 .order   -2.657731   -6.324090    1.008628
  (g-gl).g = 0.632E+01      g.g   = 0.632E+01  gl.gl    = 0.000E+00
 g(Force)  = 0.654E+00   g(Stress)= 0.567E+01 ortho     = 0.000E+00
 gamma     =   0.00000
 trial     =   1.00000
 opt step  =   0.90963  (harmonic =   0.86245) maximal distance =0.05484721
 next E    =   -37.144537   (d E  =  -3.40421)

[...]

 d Force =-0.7629359E-03[-0.591E-02, 0.438E-02]  d Energy = 0.4971847E-01-0.505E-01
 d Force = 0.1723735E+02[ 0.170E+02, 0.174E+02]  d Ewald  = 0.2046890E+03-0.187E+03

[...]

 d Force =-0.1019922E-01[-0.147E-01,-0.574E-02]  d Energy =-0.5104536E-01 0.408E-01
 d Force = 0.1636448E+02[ 0.162E+02, 0.165E+02]  d Ewald  = 0.1927575E+03-0.176E+03

[...]

 d Force = 0.7320169E-02[ 0.571E-02, 0.893E-02]  d Energy = 0.4133331E-01-0.340E-01
 d Force =-0.9920860E+01[-0.999E+01,-0.985E+01]  d Ewald  =-0.1176747E+03 0.108E+03

[...]

 d Force = 0.8739672E-01[ 0.577E-01, 0.117E+00]  d Energy = 0.9182808E-01-0.443E-02
 d Force =-0.2571990E+02[-0.257E+02,-0.257E+02]  d Ewald  = 0.5003201E+02-0.758E+02

 Conjugate gradient step on ions:
 trial-energy change:   -0.091828  1 .order   -0.092090   -0.122781   -0.061399
  (g-gl).g =-0.258E-01      g.g   = 0.126E+00  gl.gl    = 0.632E+01
 g(Force)  = 0.120E+00   g(Stress)= 0.597E-02 ortho     = 0.152E+00
 gamma     =  -0.00409
 trial     =   0.98090
 opt step  =   1.96206  (harmonic =   1.96206) maximal distance =0.06868650
 next E    =   -37.270704   (d E  =  -0.12280)

[...]

 Conjugate gradient step on ions:
 trial-energy change:   -0.004206  1 .order   -0.006324   -0.009450   -0.003199
  (g-gl).g = 0.562E-02      g.g   = 0.792E-02  gl.gl    = 0.126E+00
 g(Force)  = 0.695E-02   g(Stress)= 0.968E-03 ortho     = 0.248E-02
 gamma     =   0.04464
 trial     =   1.17713
 opt step  =   1.77940  (harmonic =   1.77940) maximal distance =0.01030512
 next E    =   -37.276578   (d E  =  -0.00714)

[...]

 Conjugate gradient step on ions:
 trial-energy change:   -0.002712  1 .order   -0.002333   -0.003419   -0.001247
  (g-gl).g = 0.312E-02      g.g   = 0.273E-02  gl.gl    = 0.792E-02
 g(Force)  = 0.186E-02   g(Stress)= 0.866E-03 ortho     =-0.240E-03
 gamma     =   0.39464
 trial     =   1.29759
 opt step  =   2.04307  (harmonic =   2.04307) maximal distance =0.01150627
 next E    =   -37.277476   (d E  =  -0.00269)

[...]

 d Force = 0.1295849E-02[ 0.287E-03, 0.230E-02]  d Energy = 0.1034579E-02 0.261E-03
 d Force =-0.1558144E+02[-0.155E+02,-0.156E+02]  d Ewald  = 0.6801881E+01-0.224E+02

[...]

 d Force =-0.3471484E-02[-0.880E-02, 0.186E-02]  d Energy = 0.3896844E-02-0.737E-02
 d Force =-0.4625190E+02[-0.460E+02,-0.465E+02]  d Ewald  =-0.1828081E+03 0.137E+03

[...]

 d Force =-0.4182290E-01[-0.661E-01,-0.175E-01]  d Energy =-0.3157606E-01-0.102E-01
 d Force =-0.9194492E+02[-0.910E+02,-0.929E+02]  d Ewald  =-0.3659708E+03 0.274E+03

[...]

 d Force = 0.3559179E-01[ 0.170E-01, 0.542E-01]  d Energy = 0.2629031E-01 0.930E-02
 d Force = 0.7205181E+02[ 0.726E+02, 0.715E+02]  d Ewald  = 0.2959630E+03-0.224E+03

[...]

 d Force = 0.6433363E-02[-0.401E-02, 0.169E-01]  d Energy = 0.4660273E-02 0.177E-02
 d Force = 0.1299338E+02[ 0.129E+02, 0.131E+02]  d Ewald  =-0.3379221E+02 0.468E+02

 Steepest descent step on ions:
 trial-energy change:   -0.004660  1 .order   -0.007317   -0.022560    0.007926
  (g-gl).g = 0.909E-02      g.g   = 0.907E-02  gl.gl    = 0.201E-02
 g(Force)  = 0.676E-02   g(Stress)= 0.231E-02 ortho     =-0.871E-03
 gamma     =   0.00000
 trial     =   2.48766
 opt step  =   1.53333  (harmonic =   1.84088) maximal distance =0.01144451
 next E    =   -37.297922   (d E  =  -0.00633)

[...]

 d Force = 0.6647013E-04[-0.139E-02, 0.153E-02]  d Energy = 0.3979937E-02-0.391E-02
 d Force =-0.4911321E+01[-0.492E+01,-0.490E+01]  d Ewald  = 0.1292431E+02-0.178E+02

[...]

 d Force = 0.1319873E-02[-0.463E-03, 0.310E-02]  d Energy = 0.2022026E-02-0.702E-03
 d Force =-0.2565521E+02[-0.256E+02,-0.257E+02]  d Ewald  =-0.2858250E+02 0.293E+01

[...]

 Conjugate gradient step on ions:
 trial-energy change:   -0.001251  1 .order   -0.001065   -0.001348   -0.000781
  (g-gl).g = 0.201E-02      g.g   = 0.194E-02  gl.gl    = 0.151E-02
 g(Force)  = 0.110E-02   g(Stress)= 0.836E-03 ortho     =-0.953E-04
 gamma     =   1.32810
 trial     =   0.74531
 opt step  =   1.77084  (harmonic =   1.77084) maximal distance =0.01144628
 next E    =   -37.312897   (d E  =  -0.00160)

[...]

 Conjugate gradient step on ions:
 trial-energy change:   -0.001139  1 .order   -0.001062   -0.001107   -0.001017
  (g-gl).g = 0.263E-02      g.g   = 0.274E-02  gl.gl    = 0.194E-02
 g(Force)  = 0.107E-02   g(Stress)= 0.167E-02 ortho     = 0.145E-03
 gamma     =   1.35967
 trial     =   0.37754
 opt step  =   1.51015  (harmonic =   4.62754) maximal distance =0.01725785
 next E    =   -37.320171   (d E  =  -0.00679)

[...]

 d Force =-0.1007853E-03[-0.242E-02, 0.222E-02]  d Energy = 0.2572582E-02-0.267E-02
 d Force =-0.4185669E+02[-0.418E+02,-0.419E+02]  d Ewald  =-0.1559851E+03 0.114E+03

[...]

 d Force =-0.1161530E-01[-0.184E-01,-0.487E-02]  d Energy =-0.3441619E-02-0.817E-02
 d Force =-0.8413866E+02[-0.841E+02,-0.842E+02]  d Ewald  =-0.3140916E+03 0.230E+03

[...]

 d Force = 0.9001094E-02[ 0.372E-02, 0.143E-01]  d Energy = 0.1045148E-01-0.145E-02
 d Force = 0.9762552E+01[ 0.975E+01, 0.977E+01]  d Ewald  =-0.2387134E+02 0.336E+02

[...]

 d Force = 0.4467524E-03[ 0.321E-03, 0.572E-03]  d Energy =-0.2917496E-02 0.336E-02
 d Force = 0.1496225E+01[ 0.150E+01, 0.150E+01]  d Ewald  =-0.3648053E+01 0.514E+01

[...]

 d Force = 0.2050895E-02[ 0.108E-02, 0.303E-02]  d Energy = 0.2070699E-02-0.198E-04
 d Force =-0.9060554E+01[-0.908E+01,-0.904E+01]  d Ewald  =-0.3214135E+02 0.231E+02

 Steepest descent step on ions:
 trial-energy change:   -0.002071  1 .order   -0.002999   -0.007034    0.001036
  (g-gl).g = 0.100E-01      g.g   = 0.677E-02  gl.gl    = 0.230E-01
 g(Force)  = 0.292E-02   g(Stress)= 0.385E-02 ortho     =-0.326E-02
 gamma     =   0.00000
 trial     =   1.03859
 opt step  =   0.76673  (harmonic =   0.90522) maximal distance =0.00351896
 next E    =   -37.325739   (d E  =  -0.00222)

[...]

 eigenvalue-minimisations  :  1120
 total energy-change (2. order) : 0.5667991E-03  (-0.1687083E-03)
 number of electron      64.9999990 magnetization       1.1636171
 augmentation part        4.4380399 magnetization       0.5970577

 Broyden mixing:
  rms(total) = 0.69312E-02    rms(broyden)= 0.69238E-02
  rms(prec ) = 0.75057E-02
  weight for this iteration     100.00

 eigenvalues of (default mixing * dielectric matrix)
  average eigenvalue GAMMA=   0.7536
  1.9224  0.7147  0.2633  0.1139

[...]

--------------------------------------- Iteration     43(   6)  ---------------------------------------

[...]

 eigenvalue-minimisations  :   784
 total energy-change (2. order) :-0.3793808E-04  (-0.1729084E-04)
 number of electron      64.9999990 magnetization       1.1636171
 augmentation part        4.4380399 magnetization       0.5970577

 Free energy of the ion-electron system (eV)
  alpha Z        PSCENC =        51.26896966
  Ewald energy   TEWEN  =     11287.80752519
  -Hartree energ DENC   =    -14882.10707027
  -exchange      EXHF   =         0.00000000
  -V(xc)+E(xc)   XCENC  =        49.78046204
  PAW double counting   =      2607.00266643    -2632.54997519
  entropy T*S    EENTRO =         0.00000000
  eigenvalues    EBANDS =      -515.17676835
  atomic energy  EATOM  =      3996.64816900
  Solvation  Ediel_sol  =         0.00000000
  free energy    TOTEN  =       -37.32602149 eV

  energy without entropy =      -37.32602149  energy(sigma->0) =      -37.32602149

 average (electrostatic) potential at core
  the test charge radii are     0.9791  1.1631  0.9587  1.0808
  (the norm of the test charge is              1.0000)
       1 -50.0417       2 -50.0102       3 -39.9649       4 -92.9629       5 -61.6534
       6 -61.6534       7 -61.6534       8 -61.5453       9 -61.5453      10 -61.5453

 E-fermi :  -2.6250     XC(G=0):  -3.2370     alpha+bet : -2.5236

[...]

 spin component 2

[...]

 k-point     5 :      -0.4000    0.2000    0.0000
  band No.  band energies     occupation
      1     -17.4213      1.00000
      2     -16.5682      1.00000
      3     -16.2676      1.00000
      4     -16.0405      1.00000
      5     -15.9418      1.00000
      6     -15.7399      1.00000
      7     -12.5800      1.00000
      8     -10.7628      1.00000
      9      -8.4503      1.00000
     10      -7.9772      1.00000
     11      -7.8030      1.00000
     12      -7.2397      1.00000
     13      -7.1545      1.00000
     14      -6.6336      1.00000
     15      -6.3371      1.00000
     16      -6.1631      1.00000
     17      -6.1317      1.00000
     18      -5.8612      1.00000
     19      -5.8396      1.00000
     20      -5.6238      1.00000
     21      -5.4865      1.00000
     22      -4.9282      1.00000
     23      -4.6733      1.00000
     24      -4.6469      1.00000
     25      -4.4557      1.00000
     26      -4.3329      1.00000
     27      -4.2144      1.00000
     28      -4.0737      1.00000
     29      -4.0240      1.00000
     30      -3.9758      1.00000
     31      -3.9266      1.00000
     32      -2.7340      1.00000
     33      -2.5415      0.00000
     34      -2.3836      0.00000
     35      -1.9052      0.00000
     36      -1.8460      0.00000
     37      -1.1493      0.00000
     38      -0.1942      0.00000
     39       0.1837      0.00000
     40       0.6924      0.00000
     41       0.8980      0.00000
     42       0.9109      0.00000
     43       2.3901      0.00000
     44       2.5307      0.00000
     45       2.6045      0.00000
     46       2.7921      0.00000
     47       2.8567      0.00000
     48       3.4813      0.00000

[...]

 soft charge-density along one line, spin component           2
         0         1         2         3         4         5         6         7         8         9
 total charge-density along one line

------------------------ aborting loop because EDIFF is reached ----------------------------------------

[...]

  FORCE on cell =-STRESS in cart. coord.  units (eV):
  Direction    XX          YY          ZZ          XY          YZ          ZX
  Alpha Z    51.26897    51.26897    51.26897
  Ewald   13511.79010 13511.78755-15735.77234    -0.00236    -0.00060    -0.00109
  Hartree 14254.74904 14254.75021-13628.07320    -0.00048     0.00009     0.00014
  E(xc)    -277.64425  -277.64424  -277.63731     0.00002     0.00001     0.00001
  Local  -28511.97346-28511.97338 28579.13952     0.00245     0.00032     0.00061
  n-local   254.95449   256.84959   259.61497     0.80577     0.58631     0.40624
  augment    70.37500    70.37511    66.20942     0.00012     0.00005     0.00005
  Kinetic   651.06575   640.41258   685.26514    -5.79013    -2.12294    -2.86881
  Fock        0.00000     0.00000     0.00000     0.00000     0.00000     0.00000
  Total       0.20602     0.20602     0.01515     0.00000     0.00000     0.00000
  in kB       0.42128     0.42128     0.03098     0.00000     0.00000     0.00000

 VOLUME and BASIS-vectors are now :
  energy-cutoff  :      520.00
  volume of cell :      783.51
      direct lattice vectors                 reciprocal lattice vectors
     6.227001019  0.000003266  0.000000000     0.160590997 -0.092717137 -0.000000000
     3.113497329  5.392742447  0.000000000    -0.000000097  0.185434464 -0.000000000
     0.000000000  0.000000000 23.332262805    -0.000000000  0.000000000  0.042859109

  length of vectors
     6.227001019  6.227000619 23.332262805     0.185434452  0.185434464  0.042859109

 FORCES acting on ions
    electron-ion (+dipol)            ewald-force                    non-local-force                 convergence-correction
   -.233E-04 -.331E-04 -.161E+02   0.833E-03 0.498E-03 0.160E+02   0.133E-17 0.138E-17 0.153E+00   -.119E-06 -.455E-06 -.701E-02
   0.362E-04 0.262E-04 -.187E+02   -.803E-03 -.481E-03 0.186E+02   0.147E-17 0.152E-17 0.169E+00   0.394E-06 -.415E-06 -.667E-02
   -.530E-04 0.137E-04 0.296E+03   -.190E-03 -.107E-03 -.296E+03   -.791E-17 -.101E-17 -.112E+00   -.248E-07 -.249E-07 0.268E-02
   0.366E-04 0.307E-04 -.271E+03   0.218E-03 0.121E-03 0.267E+03   0.106E-15 0.657E-16 0.422E+01   -.455E-07 -.389E-07 -.172E-02
   -.171E+02 0.165E+01 -.539E+03   0.155E+02 -.165E+01 0.541E+03   0.169E+01 -.185E-01 -.209E+01   0.862E-02 -.185E-01 -.425E-03
   0.999E+01 0.140E+02 -.539E+03   -.916E+01 -.126E+02 0.541E+03   -.860E+00 -.145E+01 -.209E+01   -.204E-01 0.180E-02 -.425E-03
   0.712E+01 -.156E+02 -.539E+03   -.630E+01 0.142E+02 0.541E+03   -.828E+00 0.147E+01 -.209E+01   0.117E-01 0.167E-01 -.425E-03
   0.313E+02 0.965E+00 0.541E+03   -.297E+02 -.972E+00 -.543E+03   -.155E+01 0.401E-02 0.173E+01   -.423E-02 -.203E-01 -.272E-02
   -.148E+02 -.276E+02 0.541E+03   0.140E+02 0.262E+02 -.543E+03   0.780E+00 0.134E+01 0.173E+01   -.155E-01 0.138E-01 -.272E-02
   -.165E+02 0.266E+02 0.541E+03   0.157E+02 -.252E+02 -.543E+03   0.773E+00 -.135E+01 0.173E+01   0.197E-01 0.649E-02 -.272E-02
   0.829E-04 0.566E-04 -.332E+01   -.284E-13 -.107E-13 0.114E-12   -.222E-15 -.222E-15 0.335E+01   0.170E-06 -.952E-06 -.221E-01

 POSITION                                       TOTAL-FORCE (eV/Angst)
      3.11350      1.79758     11.83246         0.000000      0.000000      0.031026
      6.22700      3.59517     11.83332         0.000000      0.000000      0.049612
      0.00000      0.00000     10.45789        -0.000000     -0.000000     -0.043313
      0.00000      0.00000     12.86237        -0.000000     -0.000000     -0.073452
      3.99905      0.00986     13.36816         0.047125     -0.035131      0.011066
      1.12251      1.92454     13.36816        -0.053987     -0.023245      0.011066
      4.21894      3.45836     13.36816         0.006862      0.058377      0.011066
      2.43473      0.00325     10.30168         0.033434     -0.023783      0.000977
      1.89895      3.28257     10.30168        -0.037314     -0.017064      0.000977
      5.00681      2.10691     10.30168         0.003879      0.040846      0.000977
    total drift:                                0.000083      0.000056      0.009656

  FREE ENERGIE OF THE ION-ELECTRON SYSTEM (eV)
  free  energy   TOTEN  =       -37.32602149 eV

  energy  without entropy=      -37.32602149  energy(sigma->0) =      -37.32602149

 d Force =-0.3437166E-03[-0.405E-03,-0.283E-03]  d Energy = 0.4346394E-03-0.778E-03
 d Force = 0.2383818E+01[ 0.238E+01, 0.239E+01]  d Ewald  = 0.8431740E+01-0.605E+01

 reached required accuracy - stopping structural energy minimisation

 total charge

[...]

 magnetization (x)

# of ion       s       p       d       tot
    1       -0.000  -0.001   0.332   0.331
    2       -0.000  -0.001   0.386   0.385
    3       -0.003   0.002   0.002   0.001
    4       -0.001  -0.002   0.000  -0.004
    5        0.003   0.040   0.001   0.043
    6        0.003   0.030   0.002   0.034
    7        0.003   0.046   0.001   0.051
    8        0.004   0.027   0.001   0.032
    9        0.003   0.042   0.001   0.046
   10        0.005   0.040   0.001   0.046
tot          0.016   0.222   0.726   0.964

 BZINTS: Fermi energy: -2.624994; 65.000000 electrons
         Band energy:-515.176768;  BLOECHL correction: -0.012244