 vasp.5.4.4.18Apr17-6-g9f103f2a35 (build May  1 2020 15:48:39) complex
 executed on             LinuxGNU date 2020.06.20  21:58:58

 INCAR:
 POTCAR:   PAW_PBE Ni 06Sep2000
 POTCAR:    PAW_PBE P 17Jan2003
 POTCAR:    PAW_PBE S 17Jan2003

 POTCAR:   PAW_PBE Ni 06Sep2000
   VRHFIN =Ni:

   TITEL  = PAW_PBE Ni 06Sep2000
   POMASS =   58.690; ZVAL   =   10.000    mass and valenz
   ENMAX  =  269.533; ENMIN  =  202.150 eV
   QCUT   =   -4.451; QGAM   =    8.902    optimization parameters

   Description
     l     E      TYP  RCUT    TYP  RCUT
     2   .000     23  2.300
     2   .000     23  2.300
     0   .000     23  2.300
     0   .000     23  2.300
     1  -.200     23  2.300
     1   .000     23  2.300
     3   .000      7   .000

 POTCAR:    PAW_PBE P 17Jan2003
   VRHFIN =P : s2p3

   TITEL  = PAW_PBE P 17Jan2003
   POMASS =   30.974; ZVAL   =    5.000    mass and valenz
   ENMAX  =  270.000; ENMIN  =  191.280 eV
   QCUT   =   -4.330; QGAM   =    8.659    optimization parameters

[...]

 POTCAR:    PAW_PBE S 17Jan2003
   VRHFIN =S : s2p4

   TITEL  = PAW_PBE S 17Jan2003
   POMASS =   32.066; ZVAL   =    6.000    mass and valenz
   ENMAX  =  280.000; ENMIN  =  194.016 eV
   QCUT   =   -4.360; QGAM   =    8.721    optimization parameters

   Description
     l     E      TYP  RCUT    TYP  RCUT
     0   .000     23  1.900
     0   .000     23  1.900
     1   .000     23  1.900
     1   .000     23  1.900
     2   .000     23  1.900

 Optimization of the real space projectors (new method)

 maximal supplied QI-value         = 16.25
 optimisation between [QCUT,QGAM] = [ 11.54, 23.24] = [ 37.28,151.24] Ry
 Optimized for a Real-space Cutoff    1.49 Angstroem

   l    n(q)    QCUT    max X(q) W(low)/X(q) W(high)/X(q)  e(spline)
   2      9    11.539     4.811    0.20E-04    0.14E-04    0.45E-07
   2      9    11.539    15.146    0.24E-03    0.12E-03    0.20E-06
   0     10    11.539    14.357    0.18E-04    0.12E-05    0.14E-07
   0     10    11.539    43.282    0.39E-04    0.17E-04    0.23E-06
   1     10    11.539     5.514    0.99E-05    0.13E-04    0.19E-07
   1     10    11.539     7.697    0.38E-04    0.79E-04    0.91E-07
 Optimization of the real space projectors (new method)

[...]

   l    n(q)    QCUT    max X(q) W(low)/X(q) W(high)/X(q)  e(spline)
   0      8    11.508     6.651    0.19E-04    0.31E-05    0.49E-08
   0      8    11.508    90.285    0.95E-04    0.17E-03    0.51E-07
   1      8    11.508     4.328    0.14E-04    0.32E-04    0.22E-07
   1      8    11.508    54.583    0.16E-03    0.71E-04    0.89E-07
 Optimization of the real space projectors (new method)

 maximal supplied QI-value         = 19.84
 optimisation between [QCUT,QGAM] = [ 11.51, 23.22] = [ 37.09,150.92] Ry
 Optimized for a Real-space Cutoff    1.21 Angstroem

   l    n(q)    QCUT    max X(q) W(low)/X(q) W(high)/X(q)  e(spline)
   0      8    11.508     5.487    0.18E-04    0.22E-05    0.47E-08
   0      8    11.508    85.627    0.96E-04    0.18E-03    0.54E-07
   1      8    11.508     3.530    0.17E-04    0.28E-04    0.21E-07
   1      8    11.508    42.714    0.18E-03    0.63E-04    0.92E-07

 PAW_PBE Ni 06Sep2000                   :
  PAW_PBE P 17Jan2003                   :
  PAW_PBE S 17Jan2003                   :

 POSCAR: Ni2 P2 S6
  positions in direct lattice
  velocities in cartesian coordinates
 exchange correlation table for  LEXCH =       42
   RHO(1)=    0.500       N(1)  =     2000
   RHO(2)=  100.500       N(2)  =     4000

 ion  position               nearest neighbor table
   1  0.333  0.333  0.500-   6 2.78   5 2.78   7 2.78   8 2.78  10 2.78   9 2.78
   2  0.667  0.667  0.500-   9 2.78   8 2.78  10 2.78   5 2.78   7 2.78   6 2.78
   3  0.000  0.000  0.448-   4 2.43   8 2.63  10 2.63   9 2.63
   4  0.000  0.000  0.552-   3 2.43   5 2.63   7 2.63   6 2.63
   5  0.626  0.000  0.574-   4 2.63   1 2.78   2 2.78
   6  0.000  0.373  0.574-   4 2.63   1 2.78   2 2.78
   7  0.373  0.626  0.574-   4 2.63   1 2.78   2 2.78
   8  0.374  1.000  0.426-   3 2.63   2 2.78   1 2.78
   9  1.000  0.627  0.426-   3 2.63   2 2.78   1 2.78
  10  0.627  0.374  0.426-   3 2.63   2 2.78   1 2.78

  LATTYP: Found a hexagonal cell.
 ALAT       =     6.9077769333
 C/A-ratio  =     3.3939410937

  Lattice vectors:

 A1 = (   3.4538890000,  -5.9823100000,   0.0000000000)
 A2 = (  -6.9077770000,   0.0000000000,   0.0000000000)
 A3 = (   0.0000000000,   0.0000000000, -23.4445880000)

Analysis of symmetry for initial positions (statically):
 Subroutine PRICEL returns:
 Original cell was already a primitive cell.

 Routine SETGRP: Setting up the symmetry group for a
 hexagonal supercell.

 Subroutine GETGRP returns: Found  6 space group operations
 (whereof  6 operations were pure point group operations)
 out of a pool of 24 trial point group operations.

The static configuration has the point symmetry S_6 .

Analysis of symmetry for dynamics (positions and initial velocities):
 Subroutine PRICEL returns:
 Original cell was already a primitive cell.

[...]

The dynamic configuration has the point symmetry S_6 .

Analysis of constrained symmetry for selective dynamics:
 Subroutine PRICEL returns:
 Original cell was already a primitive cell.

[...]

The constrained configuration has the point symmetry S_6 .

Analysis of structural, dynamic, and magnetic symmetry:
 Subroutine PRICEL returns:
 Original cell was already a primitive cell.

 Routine SETGRP: Setting up the symmetry group for a
 hexagonal supercell.

 Subroutine GETGRP returns: Found  6 space group operations
 (whereof  6 operations were pure point group operations)
 out of a pool of 24 trial point group operations.

The magnetic configuration has the point symmetry S_6 .

 Subroutine INISYM returns: Found  6 space group operations
 (whereof  6 operations are pure point group operations),
 and found     1 'primitive' translations

 KPOINTS: Kpoints from vasprun.xml

Automatic generation of k-mesh.
Space group operators:
 irot       det(A)        alpha          n_x          n_y          n_z        tau_x        tau_y        tau_z
    1     1.000000     0.000000     1.000000     0.000000     0.000000     0.000000     0.000000     0.000000
    2    -1.000000     0.000000     1.000000     0.000000     0.000000     0.000000     0.000000     0.000000
    3     1.000000   120.000000     0.000000     0.000000     1.000000     0.000000     0.000000     0.000000
    4    -1.000000   120.000000     0.000000     0.000000     1.000000     0.000000     0.000000     0.000000
    5     1.000000   120.000000     0.000000     0.000000    -1.000000     0.000000     0.000000     0.000000
    6    -1.000000   120.000000     0.000000     0.000000    -1.000000     0.000000     0.000000     0.000000

 Subroutine IBZKPT returns following result:

 Found      5 irreducible k-points:

 Following reciprocal coordinates:
            Coordinates               Weight
  0.000000  0.000000  0.000000      1.000000
  0.200000  0.000000  0.000000      6.000000
  0.400000  0.000000  0.000000      6.000000
  0.400000  0.200000  0.000000      6.000000
 -0.400000  0.200000  0.000000      6.000000

 Following cartesian coordinates:
            Coordinates               Weight
  0.000000  0.000000  0.000000      1.000000
  0.028953 -0.016716  0.000000      6.000000
  0.057906 -0.033432  0.000000      6.000000
  0.057906  0.000000  0.000000      6.000000
 -0.057906  0.066864  0.000000      6.000000

 TETIRR: Found     15 inequivalent tetrahedra from      150

 SYSTEM =  unknown system
 POSCAR =  Ni2 P2 S6

 Startparameter for this run:
   NWRITE =      2    write-flag & timer
   PREC   = accura    normal or accurate (medium, high low for compatibility)
   ISTART =      0    job   : 0-new  1-cont  2-samecut
   ICHARG =      2    charge: 1-file 2-atom 10-const
   ISPIN  =      2    spin polarized calculation?
   LNONCOLLINEAR =      F non collinear calculations
   LSORBIT =      F    spin-orbit coupling
   INIWAV =      1    electr: 0-lowe 1-rand  2-diag
   LASPH  =      F    aspherical Exc in radial PAW
   METAGGA=      F    non-selfconsistent MetaGGA calc.

 Electronic Relaxation 1
   ENCUT  =  520.0 eV  38.22 Ry    6.18 a.u.  12.84 12.84 43.59*2*pi/ulx,y,z
   ENINI  =  520.0     initial cutoff
   ENAUG  =  544.6 eV  augmentation charge cutoff
   NELM   =    400;   NELMIN=  2; NELMDL=  0     # of ELM steps
   EDIFF  = 0.1E-03   stopping-criterion for ELM
   LREAL  =      T    real-space projection
   NLSPLINE    = F    spline interpolate recip. space projectors
   LCOMPAT=      F    compatible to vasp.4.4
   GGA_COMPAT  = T    GGA compatible to vasp.4.4-vasp.4.6
   LMAXPAW     = -100 max onsite density
   LMAXMIX     =    2 max onsite mixed and CHGCAR
   VOSKOWN=      0    Vosko Wilk Nusair interpolation
   ROPT   =   -0.00025  -0.00025  -0.00025
 Ionic relaxation
   EDIFFG = 0.1E-02   stopping-criterion for IOM
   NSW    =     99    number of steps for IOM
   NBLOCK =      1;   KBLOCK =     99    inner block; outer block
   IBRION =      2    ionic relax: 0-MD 1-quasi-New 2-CG
   NFREE  =      1    steps in history (QN), initial steepest desc. (CG)
   ISIF   =      3    stress and relaxation
   IWAVPR =     11    prediction:  0-non 1-charg 2-wave 3-comb
   ISYM   =      2    0-nonsym 1-usesym 2-fastsym
   LCORR  =      T    Harris-Foulkes like correction to forces

   POTIM  = 0.5000    time-step for ionic-motion
   TEIN   =    0.0    initial temperature
   TEBEG  =    0.0;   TEEND  =   0.0 temperature during run
   SMASS  =  -3.00    Nose mass-parameter (am)
   estimated Nose-frequenzy (Omega)   =  0.10E-29 period in steps =****** mass=  -0.109E-26a.u.
   SCALEE = 1.0000    scale energy and forces
   NPACO  =    256;   APACO  = 16.0  distance and # of slots for P.C.
   PSTRESS=    0.0 pullay stress

  Mass of Ions in am
   POMASS =  58.69 30.97 32.07
  Ionic Valenz
   ZVAL   =  10.00  5.00  6.00
  Atomic Wigner-Seitz radii
  virtual crystal weights
   VCA    =   1.00  1.00  1.00
   NELECT =      66.0000    total number of electrons
   NUPDOWN=      -1.0000    fix difference up-down

 DOS related values:
   EMIN   =  10.00;   EMAX   =-10.00  energy-range for DOS
   EFERMI =   0.00
   ISMEAR =    -5;   SIGMA  =   0.05  broadening in eV -4-tet -1-fermi 0-gaus

 Electronic relaxation 2 (details)
   IALGO  =     38    algorithm
   LDIAG  =      T    sub-space diagonalisation (order eigenvalues)
   LSUBROT=      F    optimize rotation matrix (better conditioning)
   TURBO    =      0    0=normal 1=particle mesh
   IRESTART =      0    0=no restart 2=restart with 2 vectors
   NREBOOT  =      0    no. of reboots
   NMIN     =      0    reboot dimension
   EREF     =   0.00    reference energy to select bands
   IMIX   =      4    mixing-type and parameters
     AMIX     =   0.40;   BMIX     =  1.00
     AMIX_MAG =   1.60;   BMIX_MAG =  1.00
     AMIN     =   0.01
     WC   =   100.;   INIMIX=   1;  MIXPRE=   1;  MAXMIX= -45

 Intra band minimization:
   WEIMIN = 0.0010     energy-eigenvalue tresh-hold
   EBREAK =  0.52E-06  absolut break condition
   DEPER  =   0.30     relativ break condition

   TIME   =   0.40     timestep for ELM

  volume/ion in A,a.u.               =      96.88       653.80
[...]
  Kinetic   689.76947   690.29321   735.10216    -0.61892     0.13911    -0.34544
  Fock        0.00000     0.00000     0.00000     0.00000     0.00000     0.00000
  Total     -23.22766   -23.22766   -11.84202    -0.00000     0.00000     0.00000
  in kB     -38.41194   -38.41193   -19.58334    -0.00000     0.00000     0.00000

 VOLUME and BASIS-vectors are now :
  energy-cutoff  :      520.00
  volume of cell :      968.84
      direct lattice vectors                 reciprocal lattice vectors
     6.907777000 -0.000000000  0.000000000     0.144764372 -0.083579742  0.000000000
     3.453888000  5.982310000  0.000000000     0.000000000  0.167159509 -0.000000000
     0.000000000  0.000000000 23.444588000    -0.000000000  0.000000000  0.042653767

[...]

 FORCES acting on ions
    electron-ion (+dipol)            ewald-force                    non-local-force                 convergence-correction
   0.219E-03 0.105E-03 0.121E+01   0.672E-03 0.403E-03 -.120E+01   0.000E+00 0.000E+00 -.136E-01   0.638E-05 0.384E-05 0.174E-01
   -.219E-03 -.105E-03 -.121E+01   -.672E-03 -.403E-03 0.120E+01   -.347E-17 0.139E-16 0.136E-01   -.638E-05 -.384E-05 -.174E-01
   -.282E-04 -.851E-05 0.248E+03   -.176E-03 -.974E-04 -.248E+03   -.694E-17 -.694E-17 0.878E+00   0.148E-06 -.427E-06 -.187E+00
   0.282E-04 0.851E-05 -.248E+03   0.176E-03 0.974E-04 0.248E+03   -.104E-16 0.694E-17 -.878E+00   -.148E-06 0.427E-06 0.187E+00
   -.164E+02 0.148E+00 -.436E+03   0.139E+02 -.145E+00 0.438E+03   0.354E+01 -.138E-01 -.479E+01   0.978E-01 0.741E-02 0.480E+00
   0.830E+01 0.141E+02 -.436E+03   -.710E+01 -.120E+02 0.438E+03   -.178E+01 -.305E+01 -.479E+01   -.425E-01 -.884E-01 0.480E+00
   0.804E+01 -.142E+02 -.436E+03   -.685E+01 0.122E+02 0.438E+03   -.176E+01 0.307E+01 -.479E+01   -.553E-01 0.810E-01 0.480E+00
   0.164E+02 -.148E+00 0.436E+03   -.139E+02 0.145E+00 -.438E+03   -.354E+01 0.138E-01 0.479E+01   -.978E-01 -.741E-02 -.480E+00
   -.830E+01 -.141E+02 0.436E+03   0.710E+01 0.120E+02 -.438E+03   0.178E+01 0.305E+01 0.479E+01   0.425E-01 0.884E-01 -.480E+00
   -.804E+01 0.142E+02 0.436E+03   0.685E+01 -.122E+02 -.438E+03   0.176E+01 -.307E+01 0.479E+01   0.553E-01 -.810E-01 -.480E+00
   0.904E-10 0.134E-09 0.129E-09   -.799E-14 0.178E-14 0.568E-13   -.888E-15 0.888E-15 -.355E-14   0.138E-12 0.180E-12 -.129E-11

 POSITION                                       TOTAL-FORCE (eV/Angst)
      3.45388      1.99410     11.72054         0.000000      0.000000      0.008363
      6.90778      3.98821     11.72405         0.000000      0.000000     -0.008363
      0.00000      0.00000     10.50824         0.000000      0.000000      0.181584
      0.00000      0.00000     12.93635         0.000000     -0.000000     -0.181584
      4.32819      0.00251     13.45138         1.231843     -0.002191     -1.700408
      1.29198      2.23274     13.45138        -0.617819     -1.065712     -1.700408
      4.74152      3.74706     13.45138        -0.614024      1.067903     -1.700408
      6.03348      5.97980      9.99321        -1.231843      0.002191      1.700408
      9.06969      3.74957      9.99321         0.617819      1.065712      1.700408
      5.62015      2.23525      9.99321         0.614024     -1.067903      1.700408
    total drift:                                0.000000      0.000000      0.000000

  FREE ENERGIE OF THE ION-ELECTRON SYSTEM (eV)
  free  energy   TOTEN  =       -35.00174673 eV

  energy  without entropy=      -35.00174673  energy(sigma->0) =      -35.00174673

[...]

 d Force = 0.9921627E+00[ 0.802E+00, 0.118E+01]  d Energy = 0.7559816E+01-0.657E+01
 d Force =-0.2325070E+03[-0.262E+03,-0.203E+03]  d Ewald  =-0.2234434E+04 0.200E+04

 Steepest descent step on ions:
 trial-energy change:   -7.559816  1 .order   -6.055487   -7.161489   -4.949485
  (g-gl).g = 0.716E+01      g.g   = 0.716E+01  gl.gl    = 0.000E+00
 g(Force)  = 0.128E+01   g(Stress)= 0.588E+01 ortho     = 0.000E+00
 gamma     =   0.00000
 trial     =   1.00000
 opt step  =   3.23756  (harmonic =   3.23756) maximal distance =0.26558387
 next E    =   -46.594609   (d E  = -11.59286)

[...]

 BZINTS: Fermi energy:  9.029875; 66.000000 electrons
         Band energy: -81.316881;  BLOECHL correction: -0.207698

[...]

 d Force =-0.1436558E+02[-0.303E+02, 0.153E+01]  d Energy =-0.6384002E+02 0.495E+02
 d Force =-0.8174178E+03[-0.110E+04,-0.538E+03]  d Ewald  =-0.9758126E+04 0.894E+04

[...]

 d Force = 0.2152154E+02[-0.259E+01, 0.456E+02]  d Energy = 0.6367743E+02-0.422E+02
 d Force = 0.1037580E+04[ 0.693E+03, 0.138E+04]  d Ewald  = 0.9506315E+04-0.847E+04

[...]

 Conjugate gradient step on ions:
 trial-energy change:   -1.374859  1 .order   -1.262807   -2.077595   -0.448018
  (g-gl).g =-0.150E+01      g.g   = 0.296E+01  gl.gl    = 0.716E+01
 g(Force)  = 0.885E+00   g(Stress)= 0.208E+01 ortho     = 0.447E+01
 gamma     =  -0.20996
 trial     =   1.02523
 opt step  =   1.21456  (harmonic =   1.30710) maximal distance =0.06163267
 next E    =   -43.815902   (d E  =  -1.41693)

[...]

 d Force = 0.1711687E+00[ 0.103E+00, 0.239E+00]  d Energy = 0.1683315E+00 0.284E-02
 d Force = 0.2040731E+02[ 0.193E+02, 0.215E+02]  d Ewald  = 0.1243054E+03-0.104E+03

 Conjugate gradient step on ions:
 trial-energy change:   -0.168331  1 .order   -0.186554   -0.253722   -0.119387
  (g-gl).g = 0.260E+00      g.g   = 0.237E+00  gl.gl    = 0.296E+01
 g(Force)  = 0.209E+00   g(Stress)= 0.281E-01 ortho     = 0.220E-01
 gamma     =   0.08774
 trial     =   1.06310
 opt step  =   2.00789  (harmonic =   2.00789) maximal distance =0.08678338
 next E    =   -44.066653   (d E  =  -0.23961)

[...]

 d Force = 0.2684204E-01[-0.378E-01, 0.915E-01]  d Energy = 0.4650787E-01-0.197E-01
 d Force = 0.1627050E+02[ 0.154E+02, 0.172E+02]  d Ewald  = 0.1074018E+03-0.911E+02

[...]

 d Force =-0.6285555E-02[-0.625E-01, 0.499E-01]  d Energy =-0.2012783E-01 0.138E-01
 d Force = 0.2482288E+02[ 0.248E+02, 0.249E+02]  d Ewald  = 0.4471379E+03-0.422E+03

 Conjugate gradient step on ions:
 trial-energy change:    0.020128  1 .order    0.020887   -0.132445    0.174220
  (g-gl).g = 0.101E+00      g.g   = 0.114E+00  gl.gl    = 0.237E+00
 g(Force)  = 0.569E-01   g(Stress)= 0.571E-01 ortho     =-0.192E-01
 gamma     =   0.42771
 trial     =   1.25206
 opt step  =   0.54532  (harmonic =   0.54075) maximal distance =0.01779305
 next E    =   -44.070793   (d E  =  -0.02891)

[...]

 d Force = 0.1627452E-01[-0.266E-02, 0.352E-01]  d Energy = 0.4885602E-01-0.326E-01
 d Force =-0.1394907E+02[-0.140E+02,-0.139E+02]  d Ewald  =-0.2495947E+03 0.236E+03

[...]

 Conjugate gradient step on ions:
 trial-energy change:   -0.001545  1 .order   -0.001127   -0.001961   -0.000293
  (g-gl).g =-0.515E-02      g.g   = 0.182E-02  gl.gl    = 0.114E+00
 g(Force)  = 0.171E-02   g(Stress)= 0.109E-03 ortho     = 0.111E-02
 gamma     =  -0.04517
 trial     =   1.11071
 opt step  =   1.18562  (harmonic =   1.30582) maximal distance =0.00379221
 next E    =   -44.072171   (d E  =  -0.00155)

[...]

 d Force = 0.2365432E-05[-0.357E-04, 0.404E-04]  d Energy =-0.6293310E-03 0.632E-03
 d Force = 0.1004134E+01[ 0.100E+01, 0.101E+01]  d Ewald  = 0.4579054E+01-0.357E+01

 Steepest descent step on ions:
 trial-energy change:    0.000629  1 .order   -0.000683   -0.002261    0.000896
  (g-gl).g = 0.593E-02      g.g   = 0.569E-02  gl.gl    = 0.182E-02
 g(Force)  = 0.102E-03   g(Stress)= 0.559E-02 ortho     =-0.914E-03
 gamma     =   0.00000
 trial     =   0.39741
 opt step  =   0.28465  (harmonic =   0.28465) maximal distance =0.00024746
 next E    =   -44.073133   (d E  =  -0.00081)

[...]

 eigenvalue-minimisations  :  1008
 total energy-change (2. order) : 0.2038303E-02  (-0.4830757E-03)
 number of electron      65.9999995 magnetization       0.0000005
 augmentation part        6.4536612 magnetization       0.0000009

[...]

 Broyden mixing:
  rms(total) = 0.22799E-02    rms(broyden)= 0.22799E-02
  rms(prec ) = 0.25384E-02
  weight for this iteration     100.00

 eigenvalues of (default mixing * dielectric matrix)
  average eigenvalue GAMMA=   1.0434
  0.3239  0.9470  1.8592

[...]

--------------------------------------- Iteration     14(   5)  ---------------------------------------

[...]

 eigenvalue-minimisations  :   928
 total energy-change (2. order) :-0.1172708E-04  (-0.1703263E-05)
 number of electron      65.9999995 magnetization       0.0000004
 augmentation part        6.4562626 magnetization      -0.0000032

 Free energy of the ion-electron system (eV)
  alpha Z        PSCENC =        41.48653797
  Ewald energy   TEWEN  =     11705.39142532
  -Hartree energ DENC   =    -15492.96157230
  -exchange      EXHF   =         0.00000000
  -V(xc)+E(xc)   XCENC  =       142.06810508
  PAW double counting   =      2565.53365395    -2662.47743267
  entropy T*S    EENTRO =         0.00000000
  eigenvalues    EBANDS =      -527.26112305
  atomic energy  EATOM  =      4184.14832191
  Solvation  Ediel_sol  =         0.00000000
  free energy    TOTEN  =       -44.07208378 eV

  energy without entropy =      -44.07208378  energy(sigma->0) =      -44.07208378

 average (electrostatic) potential at core
  the test charge radii are     0.9791  0.9587  0.9698
  (the norm of the test charge is              1.0000)
       1 -49.5211       2 -49.5211       3 -93.1073       4 -93.1073       5 -94.4872
       6 -94.4872       7 -94.4872       8 -94.4872       9 -94.4872      10 -94.4872

 E-fermi :  -2.3164     XC(G=0):  -3.7998     alpha+bet : -3.0870

[...]

 spin component 2

[...]

 k-point     5 :      -0.4000    0.2000    0.0000
  band No.  band energies     occupation
      1     -18.7632      1.00000
      2     -17.4410      1.00000
      3     -16.5884      1.00000
      4     -16.2615      1.00000
      5     -15.9404      1.00000
      6     -15.8138      1.00000
      7     -12.3999      1.00000
      8     -11.0689      1.00000
      9      -9.1120      1.00000
     10      -8.7133      1.00000
     11      -8.6806      1.00000
     12      -8.2769      1.00000
     13      -7.8495      1.00000
     14      -6.9571      1.00000
     15      -6.4302      1.00000
     16      -6.3507      1.00000
     17      -6.1838      1.00000
     18      -6.1240      1.00000
     19      -6.0183      1.00000
     20      -5.7932      1.00000
     21      -5.5493      1.00000
     22      -4.9700      1.00000
     23      -4.6871      1.00000
     24      -4.6499      1.00000
     25      -4.6264      1.00000
     26      -4.1908      1.00000
     27      -4.0263      1.00000
     28      -4.0119      1.00000
     29      -3.6206      1.00000
     30      -3.6145      1.00000
     31      -3.4912      1.00000
     32      -2.8104      1.00000
     33      -2.5687      1.00000
     34      -2.1762      0.00000
     35      -1.8937      0.00000
     36      -0.6118      0.00000
     37      -0.2063      0.00000
     38       0.4190      0.00000
     39       0.8732      0.00000
     40       0.9517      0.00000
     41       1.1475      0.00000
     42       1.6911      0.00000
     43       2.7763      0.00000
     44       2.9905      0.00000
     45       3.1870      0.00000
     46       3.2320      0.00000
     47       3.4375      0.00000
     48       3.7682      0.00000

[...]

 soft charge-density along one line, spin component           2
         0         1         2         3         4         5         6         7         8         9
 total charge-density along one line

------------------------ aborting loop because EDIFF is reached ----------------------------------------

[...]

  FORCE on cell =-STRESS in cart. coord.  units (eV):
  Direction    XX          YY          ZZ          XY          YZ          ZX
  Alpha Z    41.48654    41.48654    41.48654
  Ewald   14173.47934 14173.47538-16641.56577    -0.00194    -0.00071    -0.00127
  Hartree 14923.17281 14923.17360-14352.86437    -0.00027     0.00007     0.00011
  E(xc)    -276.34555  -276.34560  -276.35246     0.00006     0.00000     0.00001
  Local  -30048.71185-30048.71046 29992.94939     0.00173     0.00042     0.00077
  n-local   476.80736   477.68329   478.90579     0.45860     0.24302     0.35034
  augment   -19.90833   -19.90860   -24.95725     0.00036     0.00009     0.00001
  Kinetic   733.50518   725.01721   782.33951    -4.47032    -0.43419     0.08863
  Fock        0.00000     0.00000     0.00000     0.00000     0.00000     0.00000
  Total      -0.32157    -0.32157    -0.05862     0.00000    -0.00000     0.00000
  in kB      -0.82473    -0.82473    -0.15035     0.00000    -0.00000     0.00000

 VOLUME and BASIS-vectors are now :
  energy-cutoff  :      520.00
  volume of cell :      624.71
      direct lattice vectors                 reciprocal lattice vectors
     5.818915606  0.000000132  0.000000000     0.171853328 -0.099219554  0.000000000
     2.909457405  5.039328596 -0.000000000    -0.000000005  0.198439136 -0.000000000
    -0.000000000  0.000000000 21.304178139    -0.000000000  0.000000000  0.046939149

  length of vectors
     5.818915606  5.818915284 21.304178139     0.198439125  0.198439136  0.046939149

 FORCES acting on ions
    electron-ion (+dipol)            ewald-force                    non-local-force                 convergence-correction
   -.241E-03 -.155E-03 0.716E+00   0.963E-03 0.567E-03 -.720E+00   -.694E-17 0.687E-21 0.947E-02   0.853E-07 0.343E-07 -.151E-03
   0.241E-03 0.155E-03 -.716E+00   -.963E-03 -.567E-03 0.720E+00   0.129E-20 -.687E-21 -.947E-02   -.853E-07 -.343E-07 0.151E-03
   -.487E-04 -.249E-04 0.358E+03   -.297E-03 -.165E-03 -.355E+03   -.308E-17 0.137E-16 -.286E+01   0.467E-08 -.841E-10 -.204E-02
   0.487E-04 0.249E-04 -.358E+03   0.297E-03 0.165E-03 0.355E+03   0.482E-17 -.206E-16 0.286E+01   -.467E-08 0.846E-10 0.204E-02
   0.284E+01 -.643E-01 -.616E+03   -.544E+01 0.681E-01 0.620E+03   0.261E+01 -.607E-02 -.361E+01   -.557E-02 -.351E-04 0.194E-02
   -.148E+01 -.243E+01 -.616E+03   0.278E+01 0.467E+01 0.620E+03   -.131E+01 -.226E+01 -.361E+01   0.275E-02 0.484E-02 0.194E-02
   -.137E+01 0.249E+01 -.616E+03   0.266E+01 -.474E+01 0.620E+03   -.130E+01 0.226E+01 -.361E+01   0.281E-02 -.480E-02 0.194E-02
   -.284E+01 0.643E-01 0.616E+03   0.544E+01 -.681E-01 -.620E+03   -.261E+01 0.607E-02 0.361E+01   0.557E-02 0.351E-04 -.194E-02
   0.148E+01 0.243E+01 0.616E+03   -.278E+01 -.467E+01 -.620E+03   0.131E+01 0.226E+01 0.361E+01   -.275E-02 -.484E-02 -.194E-02
   0.137E+01 -.249E+01 0.616E+03   -.266E+01 0.474E+01 -.620E+03   0.130E+01 -.226E+01 0.361E+01   -.281E-02 0.480E-02 -.194E-02
   0.522E-10 0.863E-10 -.187E-09   0.000E+00 -.711E-14 -.114E-12   0.000E+00 -.444E-15 0.000E+00   -.351E-13 -.685E-12 0.366E-11

 POSITION                                       TOTAL-FORCE (eV/Angst)
      2.90945      1.67977     10.65102        -0.000000      0.000000      0.004690
      5.81892      3.35955     10.65315        -0.000000      0.000000     -0.004690
     -0.00000      0.00000      9.55163        -0.000000      0.000000     -0.003595
     -0.00000      0.00000     11.75255        -0.000000      0.000000      0.003595
      3.80412      0.00052     12.14544         0.004620     -0.001500     -0.007824
      1.00785      1.74461     12.14544        -0.003609     -0.003251     -0.007824
      3.91641      3.29421     12.14544        -0.001011      0.004751     -0.007824
      4.92425      5.03881      9.15874        -0.004620      0.001500      0.007824
      7.72052      3.29472      9.15874         0.003609      0.003251      0.007824
      4.81196      1.74512      9.15874         0.001011     -0.004751      0.007824
    total drift:                                0.000000      0.000000     -0.000000

  FREE ENERGIE OF THE ION-ELECTRON SYSTEM (eV)
  free  energy   TOTEN  =       -44.07208378 eV

  energy  without entropy=      -44.07208378  energy(sigma->0) =      -44.07208378

 d Force = 0.6740880E-05[ 0.338E-05, 0.101E-04]  d Energy = 0.3901032E-03-0.383E-03
 d Force =-0.2841736E+00[-0.284E+00,-0.284E+00]  d Ewald  =-0.1299723E+01 0.102E+01

 reached required accuracy - stopping structural energy minimisation

 total charge

[...]

 magnetization (x)

# of ion       s       p       d       tot
    1        0.000   0.000  -0.000   0.000
    2        0.000   0.000  -0.000   0.000
    3        0.000  -0.000   0.000  -0.000
    4        0.000  -0.000   0.000  -0.000
    5       -0.000  -0.000   0.000  -0.000
    6        0.000  -0.000   0.000  -0.000
    7        0.000  -0.000   0.000  -0.000
    8       -0.000  -0.000   0.000  -0.000
    9        0.000  -0.000   0.000  -0.000
   10        0.000  -0.000   0.000  -0.000
tot          0.000  -0.000  -0.000  -0.000

 BZINTS: Fermi energy: -2.316446; 66.000000 electrons
         Band energy:-527.261123;  BLOECHL correction:  0.000000