 vasp.5.4.4.18Apr17-6-g9f103f2a35 (build May  1 2020 15:48:39) complex
 executed on             LinuxGNU date 2020.07.08  00:43:07

 INCAR:
 POTCAR:   PAW_PBE Fe 06Sep2000
 POTCAR:   PAW_PBE Ge 05Jan2001
 POTCAR:   PAW_PBE Si 05Jan2001
 POTCAR:    PAW_PBE S 17Jan2003

 POTCAR:   PAW_PBE Fe 06Sep2000
   VRHFIN =Fe:  d7 s1

   TITEL  = PAW_PBE Fe 06Sep2000
   POMASS =   55.847; ZVAL   =    8.000    mass and valenz
   ENMAX  =  267.883; ENMIN  =  200.912 eV
   QCUT   =   -4.437; QGAM   =    8.874    optimization parameters

   Description
     l     E      TYP  RCUT    TYP  RCUT
     2   .000     23  2.300
     2   .000     23  2.300
     0   .000     23  2.300
     0   .000     23  2.300
     1  -.200     23  2.300
     1   .000     23  2.300
     3   .000      7   .000

 POTCAR:   PAW_PBE Ge 05Jan2001
   VRHFIN =Ge: s2p2

   TITEL  = PAW_PBE Ge 05Jan2001
   POMASS =   72.610; ZVAL   =    4.000    mass and valenz
   ENMAX  =  173.807; ENMIN  =  130.355 eV
   QCUT   =   -3.574; QGAM   =    7.148    optimization parameters

[...]

 POTCAR:   PAW_PBE Si 05Jan2001
   VRHFIN =Si: s2p2

[...]

 POTCAR:    PAW_PBE S 17Jan2003
   VRHFIN =S : s2p4

   TITEL  = PAW_PBE S 17Jan2003
   POMASS =   32.066; ZVAL   =    6.000    mass and valenz
   ENMAX  =  280.000; ENMIN  =  194.016 eV
   QCUT   =   -4.360; QGAM   =    8.721    optimization parameters

   Description
     l     E      TYP  RCUT    TYP  RCUT
     0   .000     23  1.900
     0   .000     23  1.900
     1   .000     23  1.900
     1   .000     23  1.900
     2   .000     23  1.900

 Optimization of the real space projectors (new method)

 maximal supplied QI-value         = 16.25
 optimisation between [QCUT,QGAM] = [ 11.54, 23.24] = [ 37.28,151.24] Ry
 Optimized for a Real-space Cutoff    1.53 Angstroem

   l    n(q)    QCUT    max X(q) W(low)/X(q) W(high)/X(q)  e(spline)
   2     10    11.539     4.378    0.86E-05    0.15E-04    0.46E-07
   2     10    11.539    23.237    0.11E-03    0.14E-03    0.22E-06
   0     11    11.539    17.641    0.19E-04    0.14E-05    0.18E-07
   0     11    11.539    50.908    0.43E-04    0.16E-04    0.30E-06
   1     10    11.539     6.148    0.11E-04    0.38E-05    0.26E-07
   1     10    11.539     8.345    0.44E-04    0.25E-04    0.11E-06
 Optimization of the real space projectors (new method)

[...]

   l    n(q)    QCUT    max X(q) W(low)/X(q) W(high)/X(q)  e(spline)
   0      8    11.508     8.708    0.18E-04    0.44E-05    0.47E-08
   0      8    11.508   106.241    0.70E-04    0.15E-03    0.51E-07
   1      8    11.508     5.901    0.63E-05    0.23E-04    0.21E-07
   1      8    11.508    73.241    0.15E-03    0.36E-04    0.79E-07
 Optimization of the real space projectors (new method)

 maximal supplied QI-value         = 19.84
 optimisation between [QCUT,QGAM] = [ 11.51, 23.22] = [ 37.09,150.92] Ry
 Optimized for a Real-space Cutoff    1.21 Angstroem

   l    n(q)    QCUT    max X(q) W(low)/X(q) W(high)/X(q)  e(spline)
   0      8    11.508     5.487    0.18E-04    0.22E-05    0.47E-08
   0      8    11.508    85.627    0.96E-04    0.18E-03    0.54E-07
   1      8    11.508     3.530    0.17E-04    0.28E-04    0.21E-07
   1      8    11.508    42.714    0.18E-03    0.63E-04    0.92E-07

 PAW_PBE Fe 06Sep2000                   :
 PAW_PBE Ge 05Jan2001                   :
 PAW_PBE Si 05Jan2001                   :
  PAW_PBE S 17Jan2003                   :

 POSCAR: Fe2 Ge Si S6
  positions in direct lattice
  velocities in cartesian coordinates
 exchange correlation table for  LEXCH =       42
   RHO(1)=    0.500       N(1)  =     2000
   RHO(2)=  100.500       N(2)  =     4000

 ion  position               nearest neighbor table
   1  0.333  0.333  0.500-   6 2.78   5 2.78   7 2.78   8 2.78  10 2.78   9 2.78
   2  0.667  0.667  0.500-   9 2.78   8 2.78  10 2.78   5 2.78   7 2.78   6 2.78
   3  0.000  0.000  0.448-   4 2.43   8 2.63  10 2.63   9 2.63
   4  0.000  0.000  0.552-   3 2.43   5 2.63   7 2.63   6 2.63
   5  0.626  0.000  0.574-   4 2.63   1 2.78   2 2.78
   6  0.000  0.373  0.574-   4 2.63   1 2.78   2 2.78
   7  0.373  0.626  0.574-   4 2.63   1 2.78   2 2.78
   8  0.374  1.000  0.426-   3 2.63   2 2.78   1 2.78
   9  1.000  0.627  0.426-   3 2.63   2 2.78   1 2.78
  10  0.627  0.374  0.426-   3 2.63   2 2.78   1 2.78

  LATTYP: Found a hexagonal cell.
 ALAT       =     6.9077769333
 C/A-ratio  =     3.3939410937

  Lattice vectors:

 A1 = (   3.4538890000,  -5.9823100000,   0.0000000000)
 A2 = (  -6.9077770000,   0.0000000000,   0.0000000000)
 A3 = (   0.0000000000,   0.0000000000, -23.4445880000)

Analysis of symmetry for initial positions (statically):
 Subroutine PRICEL returns:
 Original cell was already a primitive cell.

 Routine SETGRP: Setting up the symmetry group for a
 hexagonal supercell.

 Subroutine GETGRP returns: Found  3 space group operations
 (whereof  3 operations were pure point group operations)
 out of a pool of 24 trial point group operations.

The static configuration has the point symmetry C_3 .

Analysis of symmetry for dynamics (positions and initial velocities):
 Subroutine PRICEL returns:
 Original cell was already a primitive cell.

[...]

The dynamic configuration has the point symmetry C_3 .

Analysis of constrained symmetry for selective dynamics:
 Subroutine PRICEL returns:
 Original cell was already a primitive cell.

[...]

The constrained configuration has the point symmetry C_3 .

Analysis of structural, dynamic, and magnetic symmetry:
 Subroutine PRICEL returns:
 Original cell was already a primitive cell.

 Routine SETGRP: Setting up the symmetry group for a
 hexagonal supercell.

 Subroutine GETGRP returns: Found  3 space group operations
 (whereof  3 operations were pure point group operations)
 out of a pool of 24 trial point group operations.

The magnetic configuration has the point symmetry C_3 .

 Subroutine INISYM returns: Found  3 space group operations
 (whereof  3 operations are pure point group operations),
 and found     1 'primitive' translations

 KPOINTS: Kpoints from vasprun.xml

Automatic generation of k-mesh.
Space group operators:
 irot       det(A)        alpha          n_x          n_y          n_z        tau_x        tau_y        tau_z
    1     1.000000     0.000000     1.000000     0.000000     0.000000     0.000000     0.000000     0.000000
    2     1.000000   120.000000     0.000000     0.000000     1.000000     0.000000     0.000000     0.000000
    3     1.000000   120.000000     0.000000     0.000000    -1.000000     0.000000     0.000000     0.000000

 Subroutine IBZKPT returns following result:

 Found      5 irreducible k-points:

 Following reciprocal coordinates:
            Coordinates               Weight
  0.000000  0.000000  0.000000      1.000000
  0.200000  0.000000  0.000000      6.000000
  0.400000  0.000000  0.000000      6.000000
  0.400000  0.200000  0.000000      6.000000
 -0.400000  0.200000  0.000000      6.000000

 Following cartesian coordinates:
            Coordinates               Weight
  0.000000  0.000000  0.000000      1.000000
  0.028953 -0.016716  0.000000      6.000000
  0.057906 -0.033432  0.000000      6.000000
  0.057906  0.000000  0.000000      6.000000
 -0.057906  0.066864  0.000000      6.000000

 TETIRR: Found     15 inequivalent tetrahedra from      150

 SYSTEM =  unknown system
 POSCAR =  Fe2 Ge Si S6

 Startparameter for this run:
   NWRITE =      2    write-flag & timer
   PREC   = accura    normal or accurate (medium, high low for compatibility)
   ISTART =      0    job   : 0-new  1-cont  2-samecut
   ICHARG =      2    charge: 1-file 2-atom 10-const
   ISPIN  =      2    spin polarized calculation?
   LNONCOLLINEAR =      F non collinear calculations
   LSORBIT =      F    spin-orbit coupling
   INIWAV =      1    electr: 0-lowe 1-rand  2-diag
   LASPH  =      F    aspherical Exc in radial PAW
   METAGGA=      F    non-selfconsistent MetaGGA calc.

 Electronic Relaxation 1
   ENCUT  =  520.0 eV  38.22 Ry    6.18 a.u.  12.84 12.84 43.59*2*pi/ulx,y,z
   ENINI  =  520.0     initial cutoff
   ENAUG  =  511.4 eV  augmentation charge cutoff
   NELM   =    400;   NELMIN=  2; NELMDL=  0     # of ELM steps
   EDIFF  = 0.1E-03   stopping-criterion for ELM
   LREAL  =      T    real-space projection
   NLSPLINE    = F    spline interpolate recip. space projectors
   LCOMPAT=      F    compatible to vasp.4.4
   GGA_COMPAT  = T    GGA compatible to vasp.4.4-vasp.4.6
   LMAXPAW     = -100 max onsite density
   LMAXMIX     =    2 max onsite mixed and CHGCAR
   VOSKOWN=      0    Vosko Wilk Nusair interpolation
   ROPT   =   -0.00025  -0.00025  -0.00025  -0.00025
 Ionic relaxation
   EDIFFG = 0.1E-02   stopping-criterion for IOM
   NSW    =     99    number of steps for IOM
   NBLOCK =      1;   KBLOCK =     99    inner block; outer block
   IBRION =      2    ionic relax: 0-MD 1-quasi-New 2-CG
   NFREE  =      1    steps in history (QN), initial steepest desc. (CG)
   ISIF   =      3    stress and relaxation
   IWAVPR =     11    prediction:  0-non 1-charg 2-wave 3-comb
   ISYM   =      2    0-nonsym 1-usesym 2-fastsym
   LCORR  =      T    Harris-Foulkes like correction to forces

   POTIM  = 0.5000    time-step for ionic-motion
   TEIN   =    0.0    initial temperature
   TEBEG  =    0.0;   TEEND  =   0.0 temperature during run
   SMASS  =  -3.00    Nose mass-parameter (am)
   estimated Nose-frequenzy (Omega)   =  0.10E-29 period in steps =****** mass=  -0.109E-26a.u.
   SCALEE = 1.0000    scale energy and forces
   NPACO  =    256;   APACO  = 16.0  distance and # of slots for P.C.
   PSTRESS=    0.0 pullay stress

  Mass of Ions in am
   POMASS =  55.85 72.61 28.09 32.07
  Ionic Valenz
   ZVAL   =   8.00  4.00  4.00  6.00
  Atomic Wigner-Seitz radii
  virtual crystal weights
   VCA    =   1.00  1.00  1.00  1.00
   NELECT =      60.0000    total number of electrons
   NUPDOWN=      -1.0000    fix difference up-down

 DOS related values:
   EMIN   =  10.00;   EMAX   =-10.00  energy-range for DOS
   EFERMI =   0.00
   ISMEAR =    -5;   SIGMA  =   0.05  broadening in eV -4-tet -1-fermi 0-gaus

 Electronic relaxation 2 (details)
   IALGO  =     38    algorithm
   LDIAG  =      T    sub-space diagonalisation (order eigenvalues)
   LSUBROT=      F    optimize rotation matrix (better conditioning)
   TURBO    =      0    0=normal 1=particle mesh
   IRESTART =      0    0=no restart 2=restart with 2 vectors
   NREBOOT  =      0    no. of reboots
   NMIN     =      0    reboot dimension
   EREF     =   0.00    reference energy to select bands
   IMIX   =      4    mixing-type and parameters
     AMIX     =   0.40;   BMIX     =  1.00
     AMIX_MAG =   1.60;   BMIX_MAG =  1.00
     AMIN     =   0.01
     WC   =   100.;   INIMIX=   1;  MIXPRE=   1;  MAXMIX= -45

 Intra band minimization:
   WEIMIN = 0.0010     energy-eigenvalue tresh-hold
   EBREAK =  0.52E-06  absolut break condition
   DEPER  =   0.30     relativ break condition

   TIME   =   0.40     timestep for ELM

  volume/ion in A,a.u.               =      96.88       653.80
  Fermi-wavevector in a.u.,A,eV,Ry     =   0.647702  1.223979  5.707889  0.419518
  Thomas-Fermi vector in A             =   1.716096

 Write flags
[...]

[...]

 FORCES acting on ions
    electron-ion (+dipol)            ewald-force                    non-local-force                 convergence-correction
   0.184E-03 0.841E-04 0.798E+00   0.461E-03 0.278E-03 -.899E+00   0.000E+00 0.000E+00 0.539E-01   -.257E-06 -.154E-06 -.333E-02
   -.181E-03 -.992E-04 -.104E+01   -.461E-03 -.278E-03 0.899E+00   0.000E+00 0.000E+00 0.859E-01   0.263E-06 0.149E-06 -.347E-02
   -.572E-04 0.475E-04 0.175E+03   -.141E-03 -.779E-04 -.172E+03   -.156E-16 0.000E+00 -.304E+01   0.703E-07 0.413E-07 -.466E-02
   0.234E-04 0.427E-05 -.177E+03   0.141E-03 0.779E-04 0.172E+03   -.278E-16 0.000E+00 0.613E+01   -.692E-07 -.416E-07 0.309E-02
   -.168E+02 0.162E+00 -.381E+03   0.139E+02 -.154E+00 0.384E+03   0.445E+01 -.130E-01 -.476E+01   0.103E-02 -.161E-02 0.104E-01
   0.852E+01 0.144E+02 -.381E+03   -.706E+01 -.119E+02 0.384E+03   -.224E+01 -.385E+01 -.476E+01   -.191E-02 -.881E-04 0.104E-01
   0.824E+01 -.146E+02 -.381E+03   -.679E+01 0.121E+02 0.384E+03   -.222E+01 0.386E+01 -.476E+01   0.880E-03 0.170E-02 0.104E-01
   0.166E+02 -.159E+00 0.381E+03   -.139E+02 0.154E+00 -.384E+03   -.382E+01 0.126E-01 0.470E+01   -.152E-02 -.171E-02 -.106E-01
   -.846E+01 -.143E+02 0.381E+03   0.706E+01 0.119E+02 -.384E+03   0.192E+01 0.331E+01 0.470E+01   -.722E-03 0.217E-02 -.106E-01
   -.818E+01 0.145E+02 0.381E+03   0.679E+01 -.121E+02 -.384E+03   0.190E+01 -.332E+01 0.470E+01   0.224E-02 -.460E-03 -.106E-01
   -.351E-04 0.787E-04 -.303E+01   0.888E-15 0.178E-14 -.171E-12   0.666E-15 0.000E+00 0.304E+01   0.355E-07 0.197E-07 -.906E-02

 POSITION                                       TOTAL-FORCE (eV/Angst)
      3.45388      1.99410     11.72054         0.000000      0.000000     -0.051136
      6.90778      3.98821     11.72405         0.000000      0.000000     -0.061165
      0.00000      0.00000     10.50824         0.000000     -0.000000     -0.538510
      0.00000      0.00000     12.93635         0.000000      0.000000      0.828818
      4.32819      0.00251     13.45138         1.537645     -0.005290     -1.440788
      1.29198      2.23274     13.45138        -0.773404     -1.328995     -1.440788
      4.74152      3.74706     13.45138        -0.764241      1.334285     -1.440788
      6.03348      5.97980      9.99321        -1.034309      0.004579      1.381452
      9.06969      3.74957      9.99321         0.521120      0.893448      1.381452
      5.62015      2.23525      9.99321         0.513189     -0.898027      1.381452
    total drift:                               -0.000035      0.000079     -0.000480

  FREE ENERGIE OF THE ION-ELECTRON SYSTEM (eV)
  free  energy   TOTEN  =       -42.77093467 eV

  energy  without entropy=      -42.77093467  energy(sigma->0) =      -42.77093467

[...]

 Broyden mixing:
  rms(total) = 0.31227E+00    rms(broyden)= 0.23253E+00
  rms(prec ) = 0.26938E+00
  weight for this iteration     100.00
  WARNING: grid for Broyden might be to small

[...]

 d Force = 0.6325505E+00[ 0.261E+00, 0.100E+01]  d Energy = 0.6309176E+01-0.568E+01
 d Force =-0.1598315E+03[-0.184E+03,-0.136E+03]  d Ewald  =-0.2133031E+04 0.197E+04

 Steepest descent step on ions:
 trial-energy change:   -6.309176  1 .order   -5.461760   -8.882255   -2.041266
  (g-gl).g = 0.888E+01      g.g   = 0.888E+01  gl.gl    = 0.000E+00
 g(Force)  = 0.111E+01   g(Stress)= 0.778E+01 ortho     = 0.000E+00
 gamma     =   0.00000
 trial     =   1.00000
 opt step  =   1.16022  (harmonic =   1.29839) maximal distance =0.08606546
 next E    =   -49.247125   (d E  =  -6.47619)

[...]

 d Force = 0.1415263E-01[-0.161E-01, 0.444E-01]  d Energy = 0.1685227E+00-0.154E+00
 d Force =-0.3186081E+02[-0.327E+02,-0.310E+02]  d Ewald  =-0.4339248E+03 0.402E+03

[...]

 d Force = 0.2063809E-02[-0.716E-04, 0.420E-02]  d Energy =-0.7550919E-01 0.776E-01
 d Force = 0.8189389E+01[ 0.814E+01, 0.824E+01]  d Ewald  = 0.1109114E+03-0.103E+03

[...]

 d Force =-0.3523846E-03[-0.750E-03, 0.453E-04]  d Energy = 0.7442826E-01-0.748E-01
 d Force =-0.3646665E+01[-0.366E+01,-0.364E+01]  d Ewald  =-0.4950808E+02 0.459E+02

[...]

 d Force = 0.2119555E+00[ 0.168E+00, 0.256E+00]  d Energy = 0.4242556E+00-0.212E+00
 d Force =-0.5498053E+02[-0.556E+02,-0.543E+02]  d Ewald  = 0.1263284E+03-0.181E+03

 Conjugate gradient step on ions:
 trial-energy change:   -0.424256  1 .order   -0.260242   -0.296575   -0.223909
  (g-gl).g = 0.421E+00      g.g   = 0.295E+00  gl.gl    = 0.888E+01
 g(Force)  = 0.252E+00   g(Stress)= 0.423E-01 ortho     =-0.126E+00
 gamma     =   0.04740
 trial     =   1.02765
 opt step  =   4.11060  (harmonic =   4.19418) maximal distance =0.22827698
 next E    =   -49.852764   (d E  =  -0.60521)

[...]

 d Force =-0.1171717E+00[-0.732E+00, 0.498E+00]  d Energy =-0.2622646E+00 0.145E+00
 d Force =-0.1661121E+03[-0.171E+03,-0.162E+03]  d Ewald  = 0.3875202E+03-0.554E+03

[...]

 d Force = 0.2220658E+00[-0.364E-01, 0.480E+00]  d Energy = 0.3810008E+00-0.159E+00
 d Force = 0.1163875E+03[ 0.115E+03, 0.118E+03]  d Ewald  =-0.2456454E+03 0.362E+03

[...]

 Conjugate gradient step on ions:
 trial-energy change:   -0.049569  1 .order   -0.050797   -0.093297   -0.008296
  (g-gl).g = 0.521E-01      g.g   = 0.736E-01  gl.gl    = 0.295E+00
 g(Force)  = 0.639E-01   g(Stress)= 0.972E-02 ortho     = 0.652E-02
 gamma     =   0.17679
 trial     =   1.24829
 opt step  =   1.38307  (harmonic =   1.37013) maximal distance =0.03359164
 next E    =   -49.840560   (d E  =  -0.05002)

[...]

 d Force = 0.6978035E-02[-0.763E-02, 0.216E-01]  d Energy = 0.8983433E-02-0.201E-02
 d Force =-0.2679796E+02[-0.269E+02,-0.267E+02]  d Ewald  =-0.1512919E+03 0.124E+03

[...]

 d Force = 0.9359241E-03[-0.668E-03, 0.254E-02]  d Energy = 0.3070326E-02-0.213E-02
 d Force = 0.8948742E+01[ 0.893E+01, 0.897E+01]  d Ewald  = 0.5063883E+02-0.417E+02

[...]

 Conjugate gradient step on ions:
 trial-energy change:   -0.002317  1 .order   -0.002334   -0.002898   -0.001771
  (g-gl).g = 0.440E-02      g.g   = 0.413E-02  gl.gl    = 0.412E-02
 g(Force)  = 0.352E-02   g(Stress)= 0.609E-03 ortho     =-0.278E-03
 gamma     =   1.06965
 trial     =   0.75645
 opt step  =   1.94490  (harmonic =   1.94490) maximal distance =0.01579009
 next E    =   -49.860455   (d E  =  -0.00373)

[...]

 d Force = 0.2207262E-02[ 0.661E-03, 0.375E-02]  d Energy = 0.4801903E-02-0.259E-02
 d Force =-0.3295443E+02[-0.330E+02,-0.330E+02]  d Ewald  =-0.1494389E+03 0.116E+03

[...]

 d Force =-0.3967925E-02[-0.928E-02, 0.135E-02]  d Energy =-0.2950759E-02-0.102E-02
 d Force =-0.6631473E+02[-0.663E+02,-0.663E+02]  d Ewald  =-0.3017927E+03 0.235E+03

[...]

 Steepest descent step on ions:
 trial-energy change:   -0.001833  1 .order   -0.005544   -0.009200   -0.001888
  (g-gl).g = 0.183E-01      g.g   = 0.141E-01  gl.gl    = 0.128E-01
 g(Force)  = 0.790E-02   g(Stress)= 0.620E-02 ortho     =-0.319E-02
 gamma     =   0.00000
 trial     =   0.65274
 opt step  =   0.82131  (harmonic =   0.82131) maximal distance =0.00610877
 next E    =   -49.879406   (d E  =  -0.00579)

[...]

 d Force = 0.2834840E-02[ 0.164E-02, 0.402E-02]  d Energy = 0.3061820E-02-0.227E-03
 d Force =-0.6657061E+01[-0.666E+01,-0.666E+01]  d Ewald  = 0.4479145E+01-0.111E+02

 Conjugate gradient step on ions:
 trial-energy change:   -0.003062  1 .order   -0.003346   -0.004678   -0.002014
  (g-gl).g = 0.532E-02      g.g   = 0.640E-02  gl.gl    = 0.141E-01
 g(Force)  = 0.411E-02   g(Stress)= 0.229E-02 ortho     = 0.109E-02
 gamma     =   0.37717
 trial     =   0.68645
 opt step  =   1.20542  (harmonic =   1.20542) maximal distance =0.00875284
 next E    =   -49.880023   (d E  =  -0.00411)

[...]

 eigenvalue-minimisations  :   896
 total energy-change (2. order) : 0.1555982E-03  (-0.5494702E-04)
 number of electron      60.0000002 magnetization       2.0000000
 augmentation part        2.4929415 magnetization       1.5770644

 Broyden mixing:
  rms(total) = 0.45988E-02    rms(broyden)= 0.45987E-02
  rms(prec ) = 0.49564E-02
  weight for this iteration     100.00

 eigenvalues of (default mixing * dielectric matrix)
  average eigenvalue GAMMA=   0.7226
  1.7992  0.7041  0.2617  0.1254

[...]

--------------------------------------- Iteration     26(   6)  ---------------------------------------

[...]

 eigenvalue-minimisations  :   720
 total energy-change (2. order) :-0.7743829E-05  (-0.1385889E-04)
 number of electron      60.0000002 magnetization       2.0000000
 augmentation part        2.4929415 magnetization       1.5770644

 Free energy of the ion-electron system (eV)
  alpha Z        PSCENC =        34.79532721
  Ewald energy   TEWEN  =      9901.28813542
  -Hartree energ DENC   =    -12688.06230114
  -exchange      EXHF   =         0.00000000
  -V(xc)+E(xc)   XCENC  =        63.16725045
  PAW double counting   =      1779.60534788    -1740.80133178
  entropy T*S    EENTRO =         0.00000000
  eigenvalues    EBANDS =      -470.14940518
  atomic energy  EATOM  =      3070.27752154
  Solvation  Ediel_sol  =         0.00000000
  free energy    TOTEN  =       -49.87945561 eV

  energy without entropy =      -49.87945561  energy(sigma->0) =      -49.87945561

 average (electrostatic) potential at core
  the test charge radii are     1.0103  1.1631  0.9892  0.9698
  (the norm of the test charge is              1.0000)
       1 -51.8780       2 -51.8787       3 -39.5363       4 -92.5836       5 -94.1349
       6 -94.1349       7 -94.1348       8 -94.3840       9 -94.3840      10 -94.3840

 E-fermi :  -2.6548     XC(G=0):  -3.3436     alpha+bet : -3.0310

[...]

 spin component 2

[...]

 k-point     5 :      -0.4000    0.2000    0.0000
  band No.  band energies     occupation
      1     -16.5811      1.00000
      2     -16.3205      1.00000
      3     -15.8705      1.00000
      4     -15.7177      1.00000
      5     -15.4791      1.00000
      6     -15.3145      1.00000
      7     -11.1447      1.00000
      8      -9.5905      1.00000
      9      -8.1647      1.00000
     10      -7.6239      1.00000
     11      -7.5911      1.00000
     12      -7.0834      1.00000
     13      -6.7699      1.00000
     14      -6.5457      1.00000
     15      -6.3710      1.00000
     16      -5.9788      1.00000
     17      -5.8738      1.00000
     18      -5.8086      1.00000
     19      -5.6775      1.00000
     20      -5.3508      1.00000
     21      -5.2847      1.00000
     22      -4.4346      1.00000
     23      -4.4300      1.00000
     24      -4.1663      1.00000
     25      -4.0553      1.00000
     26      -3.1277      1.00000
     27      -3.0186      1.00000
     28      -2.8490      1.00000
     29      -2.7571      1.00000
     30      -2.3957      0.00000
     31      -2.3816      0.00000
     32      -1.5150      0.00000
     33      -1.2442      0.00000
     34      -0.9925      0.00000
     35      -0.7623      0.00000
     36      -0.7084      0.00000
     37       0.7101      0.00000
     38       1.2051      0.00000
     39       1.2499      0.00000
     40       2.0333      0.00000
     41       2.2023      0.00000
     42       2.3071      0.00000
     43       3.2315      0.00000
     44       3.3044      0.00000
     45       3.4078      0.00000
     46       3.5788      0.00000
     47       4.0101      0.00000
     48       4.5547      0.00000

[...]

 soft charge-density along one line, spin component           2
         0         1         2         3         4         5         6         7         8         9
 total charge-density along one line

------------------------ aborting loop because EDIFF is reached ----------------------------------------

[...]

  FORCE on cell =-STRESS in cart. coord.  units (eV):
  Direction    XX          YY          ZZ          XY          YZ          ZX
  Alpha Z    34.79533    34.79533    34.79533
  Ewald   11865.38115 11865.37871-13829.47388    -0.00199    -0.00054    -0.00096
  Hartree 12346.32707 12346.32777-12005.81088    -0.00032     0.00005     0.00007
  E(xc)    -236.85414  -236.85417  -235.71290     0.00004     0.00000     0.00001
  Local  -25103.26038-25103.26001 24917.99984     0.00182     0.00030     0.00056
  n-local   437.58105   437.60518   444.76251     0.02022     0.63294     0.71442
  augment   -28.69334   -28.69319   -38.31010     0.00013     0.00004     0.00001
  Kinetic   686.57754   683.05300   711.66523    -2.12531     1.61662     1.81795
  Fock        0.00000     0.00000     0.00000     0.00000     0.00000     0.00000
  Total       0.10345     0.10345    -0.08486     0.00000    -0.00000    -0.00000
  in kB       0.25304     0.25304    -0.20757     0.00000    -0.00000    -0.00000

 VOLUME and BASIS-vectors are now :
  energy-cutoff  :      520.00
  volume of cell :      655.03
      direct lattice vectors                 reciprocal lattice vectors
     5.889684422 -0.000000329 -0.000000000     0.169788378 -0.098027373  0.000000000
     2.944842222  5.100615964 -0.000000000     0.000000011  0.196054746 -0.000000000
    -0.000000000  0.000000000 21.804512766     0.000000000  0.000000000  0.045862066

  length of vectors
     5.889684422  5.889684111 21.804512766     0.196054736  0.196054746  0.045862066

 FORCES acting on ions
    electron-ion (+dipol)            ewald-force                    non-local-force                 convergence-correction
   -.935E-04 -.683E-04 -.159E+02   0.659E-03 0.392E-03 0.161E+02   0.455E-17 -.363E-18 -.140E+00   0.169E-05 -.170E-05 -.266E-01
   0.111E-03 0.463E-04 -.131E+02   -.657E-03 -.391E-03 0.132E+02   0.592E-17 0.670E-17 -.918E-01   0.762E-06 -.172E-05 -.322E-01
   -.375E-04 -.296E-04 0.284E+03   -.209E-03 -.118E-03 -.279E+03   0.115E-15 -.360E-16 -.452E+01   -.123E-06 -.439E-07 0.800E-02
   0.439E-04 0.124E-05 -.252E+03   0.212E-03 0.119E-03 0.245E+03   -.161E-15 0.583E-16 0.640E+01   0.962E-08 0.170E-07 -.254E-01
   -.185E+02 0.355E+00 -.532E+03   0.150E+02 -.376E+00 0.537E+03   0.351E+01 0.172E-01 -.437E+01   -.939E-03 -.284E-02 -.463E-01
   0.957E+01 0.159E+02 -.532E+03   -.784E+01 -.128E+02 0.537E+03   -.174E+01 -.305E+01 -.437E+01   -.199E-02 0.223E-02 -.463E-01
   0.896E+01 -.162E+02 -.532E+03   -.719E+01 0.132E+02 0.537E+03   -.177E+01 0.303E+01 -.437E+01   0.293E-02 0.605E-03 -.463E-01
   0.314E+02 -.430E+00 0.531E+03   -.270E+02 0.443E+00 -.535E+03   -.435E+01 -.309E-02 0.402E+01   -.107E-02 -.615E-02 0.212E-01
   -.161E+02 -.270E+02 0.531E+03   0.139E+02 0.232E+02 -.535E+03   0.217E+01 0.377E+01 0.402E+01   -.479E-02 0.400E-02 0.212E-01
   -.153E+02 0.274E+02 0.531E+03   0.131E+02 -.236E+02 -.535E+03   0.218E+01 -.377E+01 0.402E+01   0.586E-02 0.215E-02 0.212E-01
   0.519E-04 -.455E-04 -.466E+00   0.178E-14 0.711E-14 0.114E-12   0.222E-14 0.444E-15 0.607E+00   0.245E-05 -.339E-05 -.152E+00

 POSITION                                       TOTAL-FORCE (eV/Angst)
      2.94484      1.70020     10.97602         0.000000      0.000000     -0.012662
      5.88969      3.40041     10.96825        -0.000000      0.000000      0.043568
     -0.00000      0.00000      9.77313         0.000000     -0.000000     -0.026537
     -0.00000      0.00000     12.08098        -0.000000      0.000000      0.046064
      3.76409     -0.00051     12.42273         0.011164     -0.005879     -0.015778
      1.06236      1.84108     12.42273        -0.010673     -0.006729     -0.015778
      4.00809      3.26005     12.42273        -0.000491      0.012607     -0.015778
      2.30307      0.00047      9.57820        -0.000383      0.003520     -0.001033
      1.79371      3.10586      9.57820         0.003240     -0.001428     -0.001033
      4.73774      1.99428      9.57820        -0.002856     -0.002092     -0.001033
    total drift:                                0.000054     -0.000049     -0.009930

  FREE ENERGIE OF THE ION-ELECTRON SYSTEM (eV)
  free  energy   TOTEN  =       -49.87945561 eV

  energy  without entropy=      -49.87945561  energy(sigma->0) =      -49.87945561

 d Force = 0.5559078E-03[-0.132E-03, 0.124E-02]  d Energy = 0.4784311E-03 0.775E-04
 d Force =-0.5032771E+01[-0.503E+01,-0.503E+01]  d Ewald  = 0.3396509E+01-0.843E+01

 reached required accuracy - stopping structural energy minimisation

 total charge

[...]

 magnetization (x)

# of ion       s       p       d       tot
    1        0.011   0.012   1.017   1.039
    2        0.011   0.012   1.014   1.036
    3       -0.007   0.013   0.001   0.006
    4       -0.001   0.011   0.000   0.010
    5       -0.001  -0.021   0.000  -0.022
    6       -0.001  -0.001   0.000  -0.002
    7       -0.001  -0.016   0.000  -0.017
    8       -0.002  -0.029   0.000  -0.031
    9       -0.001  -0.009   0.000  -0.010
   10       -0.002  -0.024   0.000  -0.026
tot          0.006  -0.053   2.031   1.985

 BZINTS: Fermi energy: -2.654802; 60.000000 electrons
         Band energy:-470.149405;  BLOECHL correction:  0.000000