 vasp.5.4.4.18Apr17-6-g9f103f2a35 (build May  1 2020 15:48:39) complex
 executed on             LinuxGNU date 2020.07.07  05:11:49

 INCAR:
 POTCAR:   PAW_PBE Fe 06Sep2000
 POTCAR:   PAW_PBE Ge 05Jan2001
 POTCAR:   PAW_PBE Si 05Jan2001
 POTCAR:   PAW_PBE Se 06Sep2000

 POTCAR:   PAW_PBE Fe 06Sep2000
   VRHFIN =Fe:  d7 s1

   TITEL  = PAW_PBE Fe 06Sep2000
   POMASS =   55.847; ZVAL   =    8.000    mass and valenz
   ENMAX  =  267.883; ENMIN  =  200.912 eV
   QCUT   =   -4.437; QGAM   =    8.874    optimization parameters

   Description
     l     E      TYP  RCUT    TYP  RCUT
     2   .000     23  2.300
     2   .000     23  2.300
     0   .000     23  2.300
     0   .000     23  2.300
     1  -.200     23  2.300
     1   .000     23  2.300
     3   .000      7   .000

 POTCAR:   PAW_PBE Ge 05Jan2001
   VRHFIN =Ge: s2p2

   TITEL  = PAW_PBE Ge 05Jan2001
   POMASS =   72.610; ZVAL   =    4.000    mass and valenz
   ENMAX  =  173.807; ENMIN  =  130.355 eV
   QCUT   =   -3.574; QGAM   =    7.148    optimization parameters

[...]

 POTCAR:   PAW_PBE Si 05Jan2001
   VRHFIN =Si: s2p2

   TITEL  = PAW_PBE Si 05Jan2001
   POMASS =   28.085; ZVAL   =    4.000    mass and valenz
   ENMAX  =  245.345; ENMIN  =  184.009 eV
   QCUT   =   -4.246; QGAM   =    8.493    optimization parameters

[...]

 POTCAR:   PAW_PBE Se 06Sep2000
   VRHFIN =Se: s2p4

   TITEL  = PAW_PBE Se 06Sep2000
   POMASS =   78.960; ZVAL   =    6.000    mass and valenz
   ENMAX  =  211.534; ENMIN  =  158.651 eV
   QCUT   =   -3.943; QGAM   =    7.886    optimization parameters

   Description
     l     E      TYP  RCUT    TYP  RCUT
     0   .000     23  2.100
     0   .000     23  2.100
     1   .000     23  2.100
     1   .000     23  2.100
     2   .000     23  2.100
     3  -.100      7  2.100

 Optimization of the real space projectors (new method)

 maximal supplied QI-value         = 16.25
 optimisation between [QCUT,QGAM] = [ 11.54, 23.24] = [ 37.28,151.24] Ry
 Optimized for a Real-space Cutoff    1.53 Angstroem

   l    n(q)    QCUT    max X(q) W(low)/X(q) W(high)/X(q)  e(spline)
   2     10    11.539     4.378    0.86E-05    0.15E-04    0.46E-07
   2     10    11.539    23.237    0.11E-03    0.14E-03    0.22E-06
   0     11    11.539    17.641    0.19E-04    0.14E-05    0.18E-07
   0     11    11.539    50.908    0.43E-04    0.16E-04    0.30E-06
   1     10    11.539     6.148    0.11E-04    0.38E-05    0.26E-07
   1     10    11.539     8.345    0.44E-04    0.25E-04    0.11E-06
 Optimization of the real space projectors (new method)

[...]

   l    n(q)    QCUT    max X(q) W(low)/X(q) W(high)/X(q)  e(spline)
   0      8    11.508     8.708    0.18E-04    0.44E-05    0.47E-08
   0      8    11.508   106.241    0.70E-04    0.15E-03    0.51E-07
   1      8    11.508     5.901    0.63E-05    0.23E-04    0.21E-07
   1      8    11.508    73.241    0.15E-03    0.36E-04    0.79E-07
 Optimization of the real space projectors (new method)

 maximal supplied QI-value         = 17.95
 optimisation between [QCUT,QGAM] = [ 11.67, 23.34] = [ 38.13,152.52] Ry
 Optimized for a Real-space Cutoff    1.25 Angstroem

   l    n(q)    QCUT    max X(q) W(low)/X(q) W(high)/X(q)  e(spline)
   0      9    11.669     6.499    0.13E-04    0.81E-05    0.11E-07
   0      9    11.669    52.623    0.18E-03    0.46E-04    0.72E-07
   1      8    11.669     4.229    0.40E-04    0.45E-04    0.31E-07
   1      8    11.669    29.991    0.22E-03    0.36E-03    0.10E-06
   2      8    11.669     3.719    0.19E-03    0.46E-04    0.50E-07

 PAW_PBE Fe 06Sep2000                   :
 PAW_PBE Ge 05Jan2001                   :
 PAW_PBE Si 05Jan2001                   :
 PAW_PBE Se 06Sep2000                   :

 POSCAR: Fe2 Ge Si Se6
  positions in direct lattice
  velocities in cartesian coordinates
 exchange correlation table for  LEXCH =       42
   RHO(1)=    0.500       N(1)  =     2000
   RHO(2)=  100.500       N(2)  =     4000

 ion  position               nearest neighbor table
   1  0.333  0.333  0.500-   6 2.78   5 2.78   7 2.78   8 2.78  10 2.78   9 2.78
   2  0.667  0.667  0.500-   9 2.78   8 2.78  10 2.78   5 2.78   7 2.78   6 2.78
   3  0.000  0.000  0.448-   4 2.43   8 2.63  10 2.63   9 2.63
   4  0.000  0.000  0.552-   3 2.43   5 2.63   7 2.63   6 2.63
   5  0.626  0.000  0.574-   4 2.63   1 2.78   2 2.78
   6  0.000  0.373  0.574-   4 2.63   1 2.78   2 2.78
   7  0.373  0.626  0.574-   4 2.63   1 2.78   2 2.78
   8  0.374  1.000  0.426-   3 2.63   2 2.78   1 2.78
   9  1.000  0.627  0.426-   3 2.63   2 2.78   1 2.78
  10  0.627  0.374  0.426-   3 2.63   2 2.78   1 2.78

  LATTYP: Found a hexagonal cell.
 ALAT       =     6.9077769333
 C/A-ratio  =     3.3939410937

  Lattice vectors:

 A1 = (   3.4538890000,  -5.9823100000,   0.0000000000)
 A2 = (  -6.9077770000,   0.0000000000,   0.0000000000)
 A3 = (   0.0000000000,   0.0000000000, -23.4445880000)

Analysis of symmetry for initial positions (statically):
 Subroutine PRICEL returns:
 Original cell was already a primitive cell.

 Routine SETGRP: Setting up the symmetry group for a
 hexagonal supercell.

 Subroutine GETGRP returns: Found  3 space group operations
 (whereof  3 operations were pure point group operations)
 out of a pool of 24 trial point group operations.

The static configuration has the point symmetry C_3 .

Analysis of symmetry for dynamics (positions and initial velocities):
 Subroutine PRICEL returns:
 Original cell was already a primitive cell.

[...]

The dynamic configuration has the point symmetry C_3 .

Analysis of constrained symmetry for selective dynamics:
 Subroutine PRICEL returns:
 Original cell was already a primitive cell.

[...]

The constrained configuration has the point symmetry C_3 .

Analysis of structural, dynamic, and magnetic symmetry:
 Subroutine PRICEL returns:
 Original cell was already a primitive cell.

 Routine SETGRP: Setting up the symmetry group for a
 hexagonal supercell.

 Subroutine GETGRP returns: Found  3 space group operations
 (whereof  3 operations were pure point group operations)
 out of a pool of 24 trial point group operations.

The magnetic configuration has the point symmetry C_3 .

 Subroutine INISYM returns: Found  3 space group operations
 (whereof  3 operations are pure point group operations),
 and found     1 'primitive' translations

 KPOINTS: Kpoints from vasprun.xml

Automatic generation of k-mesh.
Space group operators:
 irot       det(A)        alpha          n_x          n_y          n_z        tau_x        tau_y        tau_z
    1     1.000000     0.000000     1.000000     0.000000     0.000000     0.000000     0.000000     0.000000
    2     1.000000   120.000000     0.000000     0.000000     1.000000     0.000000     0.000000     0.000000
    3     1.000000   120.000000     0.000000     0.000000    -1.000000     0.000000     0.000000     0.000000

 Subroutine IBZKPT returns following result:

 Found      5 irreducible k-points:

 Following reciprocal coordinates:
            Coordinates               Weight
  0.000000  0.000000  0.000000      1.000000
  0.200000  0.000000  0.000000      6.000000
  0.400000  0.000000  0.000000      6.000000
  0.400000  0.200000  0.000000      6.000000
 -0.400000  0.200000  0.000000      6.000000

 Following cartesian coordinates:
            Coordinates               Weight
  0.000000  0.000000  0.000000      1.000000
  0.028953 -0.016716  0.000000      6.000000
  0.057906 -0.033432  0.000000      6.000000
  0.057906  0.000000  0.000000      6.000000
 -0.057906  0.066864  0.000000      6.000000

 TETIRR: Found     15 inequivalent tetrahedra from      150

 SYSTEM =  unknown system
 POSCAR =  Fe2 Ge Si Se6

 Startparameter for this run:
   NWRITE =      2    write-flag & timer
   PREC   = accura    normal or accurate (medium, high low for compatibility)
   ISTART =      0    job   : 0-new  1-cont  2-samecut
   ICHARG =      2    charge: 1-file 2-atom 10-const
   ISPIN  =      2    spin polarized calculation?
   LNONCOLLINEAR =      F non collinear calculations
   LSORBIT =      F    spin-orbit coupling
   INIWAV =      1    electr: 0-lowe 1-rand  2-diag
   LASPH  =      F    aspherical Exc in radial PAW
   METAGGA=      F    non-selfconsistent MetaGGA calc.

 Electronic Relaxation 1
   ENCUT  =  520.0 eV  38.22 Ry    6.18 a.u.  12.84 12.84 43.59*2*pi/ulx,y,z
   ENINI  =  520.0     initial cutoff
   ENAUG  =  511.4 eV  augmentation charge cutoff
   NELM   =    400;   NELMIN=  2; NELMDL=  0     # of ELM steps
   EDIFF  = 0.1E-03   stopping-criterion for ELM
   LREAL  =      T    real-space projection
   NLSPLINE    = F    spline interpolate recip. space projectors
   LCOMPAT=      F    compatible to vasp.4.4
   GGA_COMPAT  = T    GGA compatible to vasp.4.4-vasp.4.6
   LMAXPAW     = -100 max onsite density
   LMAXMIX     =    2 max onsite mixed and CHGCAR
   VOSKOWN=      0    Vosko Wilk Nusair interpolation
   ROPT   =   -0.00025  -0.00025  -0.00025  -0.00025
 Ionic relaxation
   EDIFFG = 0.1E-02   stopping-criterion for IOM
   NSW    =     99    number of steps for IOM
   NBLOCK =      1;   KBLOCK =     99    inner block; outer block
   IBRION =      2    ionic relax: 0-MD 1-quasi-New 2-CG
   NFREE  =      1    steps in history (QN), initial steepest desc. (CG)
   ISIF   =      3    stress and relaxation
   IWAVPR =     11    prediction:  0-non 1-charg 2-wave 3-comb
   ISYM   =      2    0-nonsym 1-usesym 2-fastsym
   LCORR  =      T    Harris-Foulkes like correction to forces

   POTIM  = 0.5000    time-step for ionic-motion
   TEIN   =    0.0    initial temperature
   TEBEG  =    0.0;   TEEND  =   0.0 temperature during run
   SMASS  =  -3.00    Nose mass-parameter (am)
   estimated Nose-frequenzy (Omega)   =  0.10E-29 period in steps =****** mass=  -0.109E-26a.u.
   SCALEE = 1.0000    scale energy and forces
   NPACO  =    256;   APACO  = 16.0  distance and # of slots for P.C.
   PSTRESS=    0.0 pullay stress

  Mass of Ions in am
   POMASS =  55.85 72.61 28.09 78.96
  Ionic Valenz
   ZVAL   =   8.00  4.00  4.00  6.00
  Atomic Wigner-Seitz radii
  virtual crystal weights
   VCA    =   1.00  1.00  1.00  1.00
   NELECT =      60.0000    total number of electrons
   NUPDOWN=      -1.0000    fix difference up-down

 DOS related values:
   EMIN   =  10.00;   EMAX   =-10.00  energy-range for DOS
   EFERMI =   0.00
   ISMEAR =    -5;   SIGMA  =   0.05  broadening in eV -4-tet -1-fermi 0-gaus

 Electronic relaxation 2 (details)
   IALGO  =     38    algorithm
   LDIAG  =      T    sub-space diagonalisation (order eigenvalues)
   LSUBROT=      F    optimize rotation matrix (better conditioning)
   TURBO    =      0    0=normal 1=particle mesh
   IRESTART =      0    0=no restart 2=restart with 2 vectors
   NREBOOT  =      0    no. of reboots
   NMIN     =      0    reboot dimension
   EREF     =   0.00    reference energy to select bands
   IMIX   =      4    mixing-type and parameters
     AMIX     =   0.40;   BMIX     =  1.00
     AMIX_MAG =   1.60;   BMIX_MAG =  1.00
     AMIN     =   0.01
     WC   =   100.;   INIMIX=   1;  MIXPRE=   1;  MAXMIX= -45

 Intra band minimization:
   WEIMIN = 0.0010     energy-eigenvalue tresh-hold
   EBREAK =  0.52E-06  absolut break condition
[...]
     0.000000000  0.000000000 23.444588000    -0.000000000  0.000000000  0.042653767

[...]

 FORCES acting on ions
    electron-ion (+dipol)            ewald-force                    non-local-force                 convergence-correction
   0.196E-03 0.722E-04 0.798E+00   0.461E-03 0.278E-03 -.899E+00   -.694E-17 0.000E+00 0.440E-01   0.474E-05 0.275E-05 0.337E-02
   -.179E-03 -.119E-03 -.103E+01   -.461E-03 -.278E-03 0.899E+00   0.694E-17 0.000E+00 0.650E-01   -.450E-05 -.259E-05 0.346E-02
   -.333E-04 -.994E-05 0.175E+03   -.141E-03 -.779E-04 -.172E+03   -.104E-16 -.347E-17 -.250E+01   -.624E-06 -.326E-06 -.484E-02
   0.308E-04 0.197E-04 -.177E+03   0.141E-03 0.779E-04 0.172E+03   0.139E-16 0.000E+00 0.501E+01   0.660E-06 0.339E-06 0.832E-02
   -.151E+02 0.132E+00 -.382E+03   0.139E+02 -.154E+00 0.384E+03   0.235E+01 -.789E-02 -.244E+01   0.141E-01 0.220E-01 0.337E-01
   0.767E+01 0.130E+02 -.382E+03   -.706E+01 -.119E+02 0.384E+03   -.118E+01 -.203E+01 -.244E+01   0.120E-01 -.232E-01 0.337E-01
   0.744E+01 -.132E+02 -.382E+03   -.679E+01 0.121E+02 0.384E+03   -.117E+01 0.204E+01 -.244E+01   -.261E-01 0.118E-02 0.337E-01
   0.153E+02 -.177E+00 0.382E+03   -.139E+02 0.154E+00 -.384E+03   -.198E+01 0.734E-02 0.239E+01   -.139E-01 0.220E-01 -.286E-01
   -.781E+01 -.132E+02 0.382E+03   0.706E+01 0.119E+02 -.384E+03   0.995E+00 0.171E+01 0.239E+01   0.260E-01 0.105E-02 -.286E-01
   -.750E+01 0.133E+02 0.382E+03   0.679E+01 -.121E+02 -.384E+03   0.983E+00 -.172E+01 0.239E+01   -.121E-01 -.230E-01 -.286E-01
   0.217E-04 -.308E-04 -.249E+01   0.888E-15 0.178E-14 -.171E-12   0.333E-15 0.222E-15 0.246E+01   0.314E-06 0.192E-06 0.255E-01

 POSITION                                       TOTAL-FORCE (eV/Angst)
      3.45388      1.99410     11.72054        -0.000000      0.000000     -0.054014
      6.90778      3.98821     11.72405        -0.000000      0.000000     -0.057979
      0.00000      0.00000     10.50824        -0.000000      0.000000     -0.098488
      0.00000      0.00000     12.93635        -0.000000      0.000000      0.414973
      4.32819      0.00251     13.45138         1.104111     -0.007264     -0.918079
      1.29198      2.23274     13.45138        -0.558346     -0.952556     -0.918079
      4.74152      3.74706     13.45138        -0.545764      0.959820     -0.918079
      6.03348      5.97980      9.99321        -0.538692      0.005487      0.849915
      9.06969      3.74957      9.99321         0.274098      0.463778      0.849915
      5.62015      2.23525      9.99321         0.264594     -0.469264      0.849915
    total drift:                                0.000022     -0.000031      0.000657

  FREE ENERGIE OF THE ION-ELECTRON SYSTEM (eV)
  free  energy   TOTEN  =       -40.58556364 eV

  energy  without entropy=      -40.58556364  energy(sigma->0) =      -40.58556364

[...]

 d Force = 0.2256483E+00[ 0.281E-01, 0.423E+00]  d Energy = 0.2787948E+01-0.256E+01
 d Force =-0.9881925E+02[-0.110E+03,-0.880E+02]  d Ewald  =-0.1540168E+04 0.144E+04

 Steepest descent step on ions:
 trial-energy change:   -2.787948  1 .order   -2.449016   -4.570322   -0.327711
  (g-gl).g = 0.457E+01      g.g   = 0.457E+01  gl.gl    = 0.000E+00
 g(Force)  = 0.454E+00   g(Stress)= 0.412E+01 ortho     = 0.000E+00
 gamma     =   0.00000
 trial     =   1.00000
 opt step  =   1.05136  (harmonic =   1.07724) maximal distance =0.05600093
 next E    =   -43.381973   (d E  =  -2.79641)

[...]

 d Force = 0.1525916E-04[-0.133E-02, 0.136E-02]  d Energy = 0.3313239E-02-0.330E-02
 d Force =-0.5885742E+01[-0.592E+01,-0.585E+01]  d Ewald  =-0.9256469E+02 0.867E+02

[...]

 d Force = 0.2911541E-03[ 0.161E-03, 0.421E-03]  d Energy = 0.1417534E-02-0.113E-02
 d Force = 0.1852815E+01[ 0.185E+01, 0.186E+01]  d Ewald  = 0.2910339E+02-0.273E+02

[...]

 d Force = 0.1253878E+00[ 0.114E+00, 0.137E+00]  d Energy = 0.2533817E+00-0.128E+00
 d Force =-0.4159818E+02[-0.419E+02,-0.413E+02]  d Ewald  = 0.1339354E+03-0.176E+03

 Conjugate gradient step on ions:
 trial-energy change:   -0.253382  1 .order   -0.173215   -0.180172   -0.166258
  (g-gl).g = 0.251E+00      g.g   = 0.183E+00  gl.gl    = 0.457E+01
 g(Force)  = 0.137E+00   g(Stress)= 0.454E-01 ortho     =-0.684E-01
 gamma     =   0.05494
 trial     =   1.00706
 opt step  =   4.02824  (harmonic =  13.04070) maximal distance =0.16491131
 next E    =   -44.544791   (d E  =  -1.16655)

[...]

 d Force = 0.5540806E-02[-0.326E+00, 0.337E+00]  d Energy =-0.1016394E+00 0.107E+00
 d Force =-0.1240295E+03[-0.126E+03,-0.122E+03]  d Ewald  = 0.4092790E+03-0.533E+03

[...]

 d Force = 0.7656946E-01[-0.460E-01, 0.199E+00]  d Energy = 0.2092600E+00-0.133E+00
 d Force = 0.7984432E+02[ 0.791E+02, 0.806E+02]  d Ewald  =-0.2410529E+03 0.321E+03

[...]

 Conjugate gradient step on ions:
 trial-energy change:   -0.042681  1 .order   -0.043724   -0.078495   -0.008954
  (g-gl).g = 0.360E-01      g.g   = 0.605E-01  gl.gl    = 0.183E+00
 g(Force)  = 0.471E-01   g(Stress)= 0.134E-01 ortho     = 0.107E-01
 gamma     =   0.19726
 trial     =   1.25272
 opt step  =   1.43250  (harmonic =   1.41401) maximal distance =0.04393106
 next E    =   -43.782566   (d E  =  -0.04332)

[...]

 d Force = 0.2468695E-02[ 0.205E-02, 0.289E-02]  d Energy = 0.6842494E-03 0.178E-02
 d Force =-0.2979580E+01[-0.298E+01,-0.298E+01]  d Ewald  = 0.1246848E+02-0.154E+02

[...]

 d Force = 0.6146704E-02[-0.569E-02, 0.180E-01]  d Energy = 0.8579575E-02-0.243E-02
 d Force =-0.2841736E+02[-0.285E+02,-0.283E+02]  d Ewald  =-0.9953246E+02 0.711E+02

 Conjugate gradient step on ions:
 trial-energy change:   -0.008580  1 .order   -0.009229   -0.030135    0.011677
  (g-gl).g = 0.250E-01      g.g   = 0.235E-01  gl.gl    = 0.605E-01
 g(Force)  = 0.929E-02   g(Stress)= 0.142E-01 ortho     =-0.220E-03
 gamma     =   0.41240
 trial     =   1.28868
 opt step  =   0.90362  (harmonic =   0.92879) maximal distance =0.01793453
 next E    =   -43.792952   (d E  =  -0.01034)

[...]

 d Force = 0.6592412E-03[-0.386E-03, 0.170E-02]  d Energy = 0.2028184E-02-0.137E-02
 d Force = 0.8540667E+01[ 0.853E+01, 0.855E+01]  d Ewald  = 0.2990314E+02-0.214E+02

[...]

 Conjugate gradient step on ions:
 trial-energy change:   -0.000254  1 .order   -0.000300   -0.000300   -0.000301
  (g-gl).g = 0.677E-02      g.g   = 0.672E-02  gl.gl    = 0.106E-02
 g(Force)  = 0.117E-02   g(Stress)= 0.555E-02 ortho     = 0.628E-05
 gamma     =   6.37718
 trial     =   0.04431
 opt step  =   0.17724  (harmonic =   0.17724) maximal distance =0.00469784
 next E    =   -43.798841   (d E  =  -0.00121)

[...]

 Conjugate gradient step on ions:
 trial-energy change:   -0.000463  1 .order   -0.000455   -0.000404   -0.000506
  (g-gl).g =-0.887E-03      g.g   = 0.370E-02  gl.gl    = 0.672E-02
 g(Force)  = 0.184E-02   g(Stress)= 0.186E-02 ortho     = 0.332E-02
 gamma     =  -0.13202
 trial     =   0.12407
 opt step  =   0.49627  (harmonic =   0.49627) maximal distance =0.00215967
 next E    =   -43.801109   (d E  =  -0.00243)

[...]

 d Force = 0.4705202E-03[ 0.369E-03, 0.572E-03]  d Energy = 0.9090687E-03-0.439E-03
 d Force = 0.1180617E+01[ 0.118E+01, 0.118E+01]  d Ewald  = 0.1326931E+02-0.121E+02

[...]

 Conjugate gradient step on ions:
 trial-energy change:   -0.000231  1 .order   -0.000167   -0.000191   -0.000142
  (g-gl).g =-0.563E-03      g.g   = 0.117E-02  gl.gl    = 0.370E-02
 g(Force)  = 0.108E-02   g(Stress)= 0.873E-04 ortho     = 0.134E-02
 gamma     =  -0.15244
 trial     =   0.19851
 opt step  =   0.76866  (harmonic =   0.76866) maximal distance =0.00183210
 next E    =   -43.800420   (d E  =  -0.00037)

[...]

 eigenvalue-minimisations  :  1184
 total energy-change (2. order) :-0.3292639E-03  (-0.2832933E-03)
 number of electron      60.0000006 magnetization       1.9999999
 augmentation part        0.7071437 magnetization       1.7115510

[...]

 Broyden mixing:
  rms(total) = 0.10939E-01    rms(broyden)= 0.10938E-01
  rms(prec ) = 0.12160E-01
  weight for this iteration     100.00

 eigenvalues of (default mixing * dielectric matrix)
  average eigenvalue GAMMA=   0.2399
  0.3542  0.1257

[...]

--------------------------------------- Iteration     22(   4)  ---------------------------------------

[...]

 eigenvalue-minimisations  :   688
 total energy-change (2. order) : 0.2099374E-04  (-0.4128256E-04)
 number of electron      60.0000006 magnetization       1.9999999
 augmentation part        0.7229426 magnetization       1.7109663

 Free energy of the ion-electron system (eV)
  alpha Z        PSCENC =        47.09236091
  Ewald energy   TEWEN  =      8409.66656339
  -Hartree energ DENC   =    -11080.21280169
  -exchange      EXHF   =         0.00000000
  -V(xc)+E(xc)   XCENC  =       -17.15146358
  PAW double counting   =      1810.97923136    -1706.54973814
  entropy T*S    EENTRO =         0.00000000
  eigenvalues    EBANDS =      -461.09751495
  atomic energy  EATOM  =      2953.47265105
  Solvation  Ediel_sol  =         0.00000000
  free energy    TOTEN  =       -43.80071164 eV

  energy without entropy =      -43.80071164  energy(sigma->0) =      -43.80071164

 average (electrostatic) potential at core
  the test charge radii are     1.0103  1.1631  0.9892  1.0808
  (the norm of the test charge is              1.0000)
       1 -51.7530       2 -51.7536       3 -39.5254       4 -92.7125       5 -61.1599
       6 -61.1599       7 -61.1599       8 -61.2560       9 -61.2559      10 -61.2559

 E-fermi :  -2.6372     XC(G=0):  -3.7537     alpha+bet : -2.7833

[...]

 spin component 2

[...]

 k-point     5 :      -0.4000    0.2000    0.0000
  band No.  band energies     occupation
      1     -16.4056      1.00000
      2     -16.2952      1.00000
      3     -15.8853      1.00000
      4     -15.7333      1.00000
      5     -15.6278      1.00000
      6     -15.4612      1.00000
      7     -11.3262      1.00000
      8      -9.5417      1.00000
      9      -7.8111      1.00000
     10      -7.3138      1.00000
     11      -7.2719      1.00000
     12      -6.7986      1.00000
     13      -6.4337      1.00000
     14      -6.2269      1.00000
     15      -5.9639      1.00000
     16      -5.6011      1.00000
     17      -5.5379      1.00000
     18      -5.4745      1.00000
     19      -5.4446      1.00000
     20      -5.0602      1.00000
     21      -5.0497      1.00000
     22      -4.2362      1.00000
     23      -4.1611      1.00000
     24      -4.0292      1.00000
     25      -3.9661      1.00000
     26      -3.2388      1.00000
     27      -2.9304      1.00000
     28      -2.7833      1.00000
     29      -2.7090      1.00000
     30      -2.3819      0.00000
     31      -2.3554      0.00000
     32      -1.5898      0.00000
     33      -1.3726      0.00000
     34      -1.1799      0.00000
     35      -0.9458      0.00000
     36      -0.8620      0.00000
     37       0.0783      0.00000
     38       0.6821      0.00000
     39       0.8910      0.00000
     40       1.5487      0.00000
     41       1.6715      0.00000
     42       1.8734      0.00000
     43       2.6773      0.00000
     44       2.8105      0.00000
     45       2.8901      0.00000
     46       2.9179      0.00000
     47       3.3763      0.00000
     48       3.6335      0.00000

[...]

 soft charge-density along one line, spin component           2
         0         1         2         3         4         5         6         7         8         9
 total charge-density along one line

------------------------ aborting loop because EDIFF is reached ----------------------------------------

[...]

  FORCE on cell =-STRESS in cart. coord.  units (eV):
  Direction    XX          YY          ZZ          XY          YZ          ZX
  Alpha Z    47.09236    47.09236    47.09236
  Ewald   10260.50969 10260.50744-12111.35307    -0.00187    -0.00050    -0.00091
  Hartree 10747.88455 10747.88531-10412.74817    -0.00027     0.00006     0.00010
  E(xc)    -242.39190  -242.39193  -241.26138     0.00005     0.00001     0.00001
  Local  -21736.44933-21736.44910 21775.79815     0.00171     0.00026     0.00048
  n-local   250.44716   250.17590   258.04228    -0.09080     0.42004     0.40831
  augment    49.73374    49.73374    39.99986     0.00024    -0.00013     0.00004
  Kinetic   625.26629   621.82374   644.72979    -2.36306     1.41802     1.67299
  Fock        0.00000     0.00000     0.00000     0.00000     0.00000     0.00000
  Total       0.23501     0.23501     0.29981     0.00000    -0.00000     0.00000
  in kB       0.51178     0.51178     0.65290     0.00000    -0.00000     0.00000

 VOLUME and BASIS-vectors are now :
  energy-cutoff  :      520.00
  volume of cell :      735.72
      direct lattice vectors                 reciprocal lattice vectors
     6.235792442 -0.000000315 -0.000000000     0.160364537 -0.092586514  0.000000000
     3.117896143  5.400354254 -0.000000000     0.000000009  0.185173032  0.000000000
    -0.000000000 -0.000000000 21.847433710     0.000000000  0.000000000  0.045771966

  length of vectors
     6.235792442  6.235792045 21.847433710     0.185173020  0.185173032  0.045771966

 FORCES acting on ions
    electron-ion (+dipol)            ewald-force                    non-local-force                 convergence-correction
   0.123E-03 0.663E-04 -.616E+01   0.584E-03 0.350E-03 0.605E+01   -.167E-18 -.104E-18 0.994E-01   0.701E-06 -.166E-05 -.770E-02
   -.114E-03 -.499E-04 -.584E+01   -.581E-03 -.348E-03 0.575E+01   0.150E-18 0.108E-18 0.104E+00   -.106E-05 0.238E-05 0.384E-02
   -.446E-04 -.191E-04 0.229E+03   -.175E-03 -.982E-04 -.226E+03   0.165E-16 0.107E-16 -.360E+01   0.188E-06 0.107E-06 -.300E-01
   0.393E-04 0.225E-04 -.230E+03   0.186E-03 0.104E-03 0.225E+03   -.712E-16 -.401E-16 0.519E+01   0.947E-07 0.695E-07 0.160E-01
   -.188E+02 0.652E+00 -.470E+03   0.166E+02 -.666E+00 0.472E+03   0.228E+01 -.963E-02 -.249E+01   0.486E-02 -.470E-03 0.466E-01
   0.999E+01 0.160E+02 -.470E+03   -.886E+01 -.140E+02 0.472E+03   -.115E+01 -.197E+01 -.249E+01   -.284E-02 -.397E-02 0.466E-01
   0.886E+01 -.166E+02 -.470E+03   -.771E+01 0.147E+02 0.472E+03   -.113E+01 0.198E+01 -.249E+01   -.202E-02 0.444E-02 0.466E-01
   0.264E+02 0.101E+00 0.473E+03   -.241E+02 -.969E-01 -.476E+03   -.223E+01 -.714E-02 0.243E+01   -.147E-01 -.401E-02 -.707E-01
   -.131E+02 -.229E+02 0.473E+03   0.120E+02 0.209E+02 -.476E+03   0.111E+01 0.193E+01 0.243E+01   0.385E-02 0.147E-01 -.707E-01
   -.133E+02 0.228E+02 0.473E+03   0.121E+02 -.208E+02 -.476E+03   0.112E+01 -.193E+01 0.243E+01   0.108E-01 -.107E-01 -.707E-01
   0.478E-04 -.384E-04 -.154E+01   -.124E-13 -.355E-14 0.568E-13   0.444E-15 -.222E-15 0.160E+01   -.199E-06 0.782E-06 -.901E-01

 POSITION                                       TOTAL-FORCE (eV/Angst)
      3.11789      1.80012     10.93239         0.000000      0.000000     -0.019510
      6.23580      3.60024     10.92928        -0.000000      0.000000      0.012227
     -0.00000     -0.00000      9.79237         0.000000      0.000000     -0.153192
     -0.00000     -0.00000     12.11829         0.000000      0.000000     -0.005757
      3.93606      0.00283     12.45443         0.009320     -0.023778      0.010486
      1.15232      1.99022     12.45443        -0.025252      0.003818      0.010486
      4.26532      3.40731     12.45443         0.015933      0.019960      0.010486
      2.41660      0.00108      9.43610         0.049604     -0.007355      0.044925
      1.91053      3.30697      9.43610        -0.031172     -0.039281      0.044925
      5.02655      2.09230      9.43610        -0.018432      0.046636      0.044925
    total drift:                                0.000048     -0.000038     -0.030878

  FREE ENERGIE OF THE ION-ELECTRON SYSTEM (eV)
  free  energy   TOTEN  =       -43.80071164 eV

  energy  without entropy=      -43.80071164  energy(sigma->0) =      -43.80071164

 d Force = 0.4709915E-03[ 0.461E-03, 0.481E-03]  d Energy = 0.4316152E-03 0.394E-04
 d Force =-0.1721759E+01[-0.172E+01,-0.172E+01]  d Ewald  =-0.1513166E+01-0.209E+00

 reached required accuracy - stopping structural energy minimisation

 total charge

[...]

 magnetization (x)

# of ion       s       p       d       tot
    1        0.011   0.013   1.097   1.121
    2        0.012   0.013   1.104   1.128
    3       -0.005   0.004  -0.001  -0.002
    4       -0.002   0.004   0.000   0.002
    5       -0.001  -0.038  -0.000  -0.039
    6       -0.001  -0.017  -0.001  -0.019
    7       -0.001  -0.033  -0.000  -0.034
    8       -0.002  -0.048  -0.000  -0.050
    9       -0.002  -0.026  -0.001  -0.028
   10       -0.002  -0.043  -0.001  -0.045
tot          0.008  -0.172   2.198   2.035

 BZINTS: Fermi energy: -2.637192; 60.000000 electrons
         Band energy:-461.097515;  BLOECHL correction:  0.000000