 vasp.5.4.4.18Apr17-6-g9f103f2a35 (build May  1 2020 15:48:39) complex
 executed on             LinuxGNU date 2020.07.09  09:49:21

 INCAR:
 POTCAR:   PAW_PBE Mn 06Sep2000
 POTCAR:    PAW_PBE P 17Jan2003
 POTCAR:    PAW_PBE S 17Jan2003

 POTCAR:   PAW_PBE Mn 06Sep2000
   VRHFIN =Mn: d6 s1

   TITEL  = PAW_PBE Mn 06Sep2000
   POMASS =   54.938; ZVAL   =    7.000    mass and valenz
   ENMAX  =  269.865; ENMIN  =  202.399 eV
   QCUT   =   -4.454; QGAM   =    8.907    optimization parameters

   Description
     l     E      TYP  RCUT    TYP  RCUT
     2   .000     23  2.300
     2   .000     23  2.300
     0   .000     23  2.300
     0   .000     23  2.300
     1  -.200     23  2.300
     1  1.500     23  2.300
     3   .000      7   .000

 POTCAR:    PAW_PBE P 17Jan2003
   VRHFIN =P : s2p3

   TITEL  = PAW_PBE P 17Jan2003
   POMASS =   30.974; ZVAL   =    5.000    mass and valenz
   ENMAX  =  270.000; ENMIN  =  191.280 eV
   QCUT   =   -4.330; QGAM   =    8.659    optimization parameters

[...]

 POTCAR:    PAW_PBE S 17Jan2003
   VRHFIN =S : s2p4

   TITEL  = PAW_PBE S 17Jan2003
   POMASS =   32.066; ZVAL   =    6.000    mass and valenz
   ENMAX  =  280.000; ENMIN  =  194.016 eV
   QCUT   =   -4.360; QGAM   =    8.721    optimization parameters

   Description
     l     E      TYP  RCUT    TYP  RCUT
     0   .000     23  1.900
     0   .000     23  1.900
     1   .000     23  1.900
     1   .000     23  1.900
     2   .000     23  1.900

 Optimization of the real space projectors (new method)

 maximal supplied QI-value         = 16.25
 optimisation between [QCUT,QGAM] = [ 11.54, 23.24] = [ 37.28,151.24] Ry
 Optimized for a Real-space Cutoff    1.53 Angstroem

   l    n(q)    QCUT    max X(q) W(low)/X(q) W(high)/X(q)  e(spline)
   2     10    11.539     4.144    0.87E-05    0.14E-04    0.48E-07
   2     10    11.539    35.116    0.12E-03    0.13E-03    0.25E-06
   0     11    11.539    20.431    0.20E-04    0.18E-05    0.19E-07
   0     11    11.539    61.159    0.37E-04    0.19E-04    0.29E-06
   1     10    11.539     6.695    0.11E-04    0.24E-05    0.29E-07
   1     10    11.539     8.642    0.41E-04    0.18E-04    0.11E-06
 Optimization of the real space projectors (new method)

[...]

   l    n(q)    QCUT    max X(q) W(low)/X(q) W(high)/X(q)  e(spline)
   0      8    11.508     6.651    0.19E-04    0.31E-05    0.49E-08
   0      8    11.508    90.285    0.95E-04    0.17E-03    0.51E-07
   1      8    11.508     4.328    0.14E-04    0.32E-04    0.22E-07
   1      8    11.508    54.583    0.16E-03    0.71E-04    0.89E-07
 Optimization of the real space projectors (new method)

 maximal supplied QI-value         = 19.84
 optimisation between [QCUT,QGAM] = [ 11.51, 23.22] = [ 37.09,150.92] Ry
 Optimized for a Real-space Cutoff    1.21 Angstroem

   l    n(q)    QCUT    max X(q) W(low)/X(q) W(high)/X(q)  e(spline)
   0      8    11.508     5.487    0.18E-04    0.22E-05    0.47E-08
   0      8    11.508    85.627    0.96E-04    0.18E-03    0.54E-07
   1      8    11.508     3.530    0.17E-04    0.28E-04    0.21E-07
   1      8    11.508    42.714    0.18E-03    0.63E-04    0.92E-07

 PAW_PBE Mn 06Sep2000                   :
  PAW_PBE P 17Jan2003                   :
  PAW_PBE S 17Jan2003                   :

 POSCAR: Mn2 P2 S6
  positions in direct lattice
  velocities in cartesian coordinates
 exchange correlation table for  LEXCH =       42
   RHO(1)=    0.500       N(1)  =     2000
   RHO(2)=  100.500       N(2)  =     4000

 ion  position               nearest neighbor table
   1  0.333  0.333  0.500-   6 2.78   5 2.78   7 2.78   8 2.78  10 2.78   9 2.78
   2  0.667  0.667  0.500-   9 2.78   8 2.78  10 2.78   5 2.78   7 2.78   6 2.78
   3  0.000  0.000  0.448-   4 2.43   8 2.63  10 2.63   9 2.63
   4  0.000  0.000  0.552-   3 2.43   5 2.63   7 2.63   6 2.63
   5  0.626  0.000  0.574-   4 2.63   1 2.78   2 2.78
   6  0.000  0.373  0.574-   4 2.63   1 2.78   2 2.78
   7  0.373  0.626  0.574-   4 2.63   1 2.78   2 2.78
   8  0.374  1.000  0.426-   3 2.63   2 2.78   1 2.78
   9  1.000  0.627  0.426-   3 2.63   2 2.78   1 2.78
  10  0.627  0.374  0.426-   3 2.63   2 2.78   1 2.78

  LATTYP: Found a hexagonal cell.
 ALAT       =     6.9077769333
 C/A-ratio  =     3.3939410937

  Lattice vectors:

 A1 = (   3.4538890000,  -5.9823100000,   0.0000000000)
 A2 = (  -6.9077770000,   0.0000000000,   0.0000000000)
 A3 = (   0.0000000000,   0.0000000000, -23.4445880000)

Analysis of symmetry for initial positions (statically):
 Subroutine PRICEL returns:
 Original cell was already a primitive cell.

 Routine SETGRP: Setting up the symmetry group for a
 hexagonal supercell.

 Subroutine GETGRP returns: Found  6 space group operations
 (whereof  6 operations were pure point group operations)
 out of a pool of 24 trial point group operations.

The static configuration has the point symmetry S_6 .

Analysis of symmetry for dynamics (positions and initial velocities):
 Subroutine PRICEL returns:
 Original cell was already a primitive cell.

[...]

The dynamic configuration has the point symmetry S_6 .

Analysis of constrained symmetry for selective dynamics:
 Subroutine PRICEL returns:
 Original cell was already a primitive cell.

[...]

The constrained configuration has the point symmetry S_6 .

Analysis of structural, dynamic, and magnetic symmetry:
 Subroutine PRICEL returns:
 Original cell was already a primitive cell.

 Routine SETGRP: Setting up the symmetry group for a
 hexagonal supercell.

 Subroutine GETGRP returns: Found  6 space group operations
 (whereof  6 operations were pure point group operations)
 out of a pool of 24 trial point group operations.

The magnetic configuration has the point symmetry S_6 .

 Subroutine INISYM returns: Found  6 space group operations
 (whereof  6 operations are pure point group operations),
 and found     1 'primitive' translations

 KPOINTS: Kpoints from vasprun.xml

Automatic generation of k-mesh.
Space group operators:
 irot       det(A)        alpha          n_x          n_y          n_z        tau_x        tau_y        tau_z
    1     1.000000     0.000000     1.000000     0.000000     0.000000     0.000000     0.000000     0.000000
    2    -1.000000     0.000000     1.000000     0.000000     0.000000     0.000000     0.000000     0.000000
    3     1.000000   120.000000     0.000000     0.000000     1.000000     0.000000     0.000000     0.000000
    4    -1.000000   120.000000     0.000000     0.000000     1.000000     0.000000     0.000000     0.000000
    5     1.000000   120.000000     0.000000     0.000000    -1.000000     0.000000     0.000000     0.000000
    6    -1.000000   120.000000     0.000000     0.000000    -1.000000     0.000000     0.000000     0.000000

 Subroutine IBZKPT returns following result:

 Found      5 irreducible k-points:

 Following reciprocal coordinates:
            Coordinates               Weight
  0.000000  0.000000  0.000000      1.000000
  0.200000  0.000000  0.000000      6.000000
  0.400000  0.000000  0.000000      6.000000
  0.400000  0.200000  0.000000      6.000000
 -0.400000  0.200000  0.000000      6.000000

 Following cartesian coordinates:
            Coordinates               Weight
  0.000000  0.000000  0.000000      1.000000
  0.028953 -0.016716  0.000000      6.000000
  0.057906 -0.033432  0.000000      6.000000
  0.057906  0.000000  0.000000      6.000000
 -0.057906  0.066864  0.000000      6.000000

 TETIRR: Found     15 inequivalent tetrahedra from      150

 SYSTEM =  unknown system
 POSCAR =  Mn2 P2 S6

 Startparameter for this run:
   NWRITE =      2    write-flag & timer
   PREC   = accura    normal or accurate (medium, high low for compatibility)
   ISTART =      0    job   : 0-new  1-cont  2-samecut
   ICHARG =      2    charge: 1-file 2-atom 10-const
   ISPIN  =      2    spin polarized calculation?
   LNONCOLLINEAR =      F non collinear calculations
   LSORBIT =      F    spin-orbit coupling
   INIWAV =      1    electr: 0-lowe 1-rand  2-diag
   LASPH  =      F    aspherical Exc in radial PAW
   METAGGA=      F    non-selfconsistent MetaGGA calc.

 Electronic Relaxation 1
   ENCUT  =  520.0 eV  38.22 Ry    6.18 a.u.  12.84 12.84 43.59*2*pi/ulx,y,z
   ENINI  =  520.0     initial cutoff
   ENAUG  =  500.7 eV  augmentation charge cutoff
   NELM   =    400;   NELMIN=  2; NELMDL=  0     # of ELM steps
   EDIFF  = 0.1E-03   stopping-criterion for ELM
   LREAL  =      T    real-space projection
   NLSPLINE    = F    spline interpolate recip. space projectors
   LCOMPAT=      F    compatible to vasp.4.4
   GGA_COMPAT  = T    GGA compatible to vasp.4.4-vasp.4.6
   LMAXPAW     = -100 max onsite density
   LMAXMIX     =    2 max onsite mixed and CHGCAR
   VOSKOWN=      0    Vosko Wilk Nusair interpolation
   ROPT   =   -0.00025  -0.00025  -0.00025
 Ionic relaxation
   EDIFFG = 0.1E-02   stopping-criterion for IOM
   NSW    =     99    number of steps for IOM
   NBLOCK =      1;   KBLOCK =     99    inner block; outer block
   IBRION =      2    ionic relax: 0-MD 1-quasi-New 2-CG
   NFREE  =      1    steps in history (QN), initial steepest desc. (CG)
   ISIF   =      3    stress and relaxation
   IWAVPR =     11    prediction:  0-non 1-charg 2-wave 3-comb
   ISYM   =      2    0-nonsym 1-usesym 2-fastsym
   LCORR  =      T    Harris-Foulkes like correction to forces

   POTIM  = 0.5000    time-step for ionic-motion
   TEIN   =    0.0    initial temperature
   TEBEG  =    0.0;   TEEND  =   0.0 temperature during run
   SMASS  =  -3.00    Nose mass-parameter (am)
   estimated Nose-frequenzy (Omega)   =  0.10E-29 period in steps =****** mass=  -0.109E-26a.u.
   SCALEE = 1.0000    scale energy and forces
   NPACO  =    256;   APACO  = 16.0  distance and # of slots for P.C.
   PSTRESS=    0.0 pullay stress

  Mass of Ions in am
   POMASS =  54.94 30.97 32.07
  Ionic Valenz
   ZVAL   =   7.00  5.00  6.00
  Atomic Wigner-Seitz radii
  virtual crystal weights
   VCA    =   1.00  1.00  1.00
   NELECT =      60.0000    total number of electrons
   NUPDOWN=      -1.0000    fix difference up-down

 DOS related values:
   EMIN   =  10.00;   EMAX   =-10.00  energy-range for DOS
   EFERMI =   0.00
   ISMEAR =    -5;   SIGMA  =   0.05  broadening in eV -4-tet -1-fermi 0-gaus

 Electronic relaxation 2 (details)
   IALGO  =     38    algorithm
   LDIAG  =      T    sub-space diagonalisation (order eigenvalues)
   LSUBROT=      F    optimize rotation matrix (better conditioning)
   TURBO    =      0    0=normal 1=particle mesh
   IRESTART =      0    0=no restart 2=restart with 2 vectors
   NREBOOT  =      0    no. of reboots
   NMIN     =      0    reboot dimension
   EREF     =   0.00    reference energy to select bands
   IMIX   =      4    mixing-type and parameters
     AMIX     =   0.40;   BMIX     =  1.00
     AMIX_MAG =   1.60;   BMIX_MAG =  1.00
     AMIN     =   0.01
     WC   =   100.;   INIMIX=   1;  MIXPRE=   1;  MAXMIX= -45

 Intra band minimization:
   WEIMIN = 0.0010     energy-eigenvalue tresh-hold
   EBREAK =  0.52E-06  absolut break condition
   DEPER  =   0.30     relativ break condition

   TIME   =   0.40     timestep for ELM

  volume/ion in A,a.u.               =      96.88       653.80
[...]
      3.45388      1.99410     11.72054        -0.000000     -0.000000      0.006252
      6.90778      3.98821     11.72405        -0.000000      0.000000     -0.006252
      0.00000      0.00000     10.50824        -0.000000     -0.000000     -0.000695
      0.00000      0.00000     12.93635        -0.000000      0.000000      0.000695
      4.32819      0.00251     13.45138         0.757738     -0.003771     -1.689724
      1.29198      2.23274     13.45138        -0.382134     -0.654335     -1.689724
      4.74152      3.74706     13.45138        -0.375603      0.658105     -1.689724
      6.03348      5.97980      9.99321        -0.757738      0.003771      1.689724
      9.06969      3.74957      9.99321         0.382134      0.654335      1.689724
      5.62015      2.23525      9.99321         0.375603     -0.658105      1.689724
    total drift:                                0.000000      0.000000      0.000000

  FREE ENERGIE OF THE ION-ELECTRON SYSTEM (eV)
  free  energy   TOTEN  =       -46.21935490 eV

  energy  without entropy=      -46.21935490  energy(sigma->0) =      -46.21935490

[...]

 d Force = 0.6558431E+00[ 0.409E+00, 0.903E+00]  d Energy = 0.5723203E+01-0.507E+01
 d Force =-0.1928887E+03[-0.217E+03,-0.168E+03]  d Ewald  =-0.1559898E+04 0.137E+04

 Steepest descent step on ions:
 trial-energy change:   -5.723203  1 .order   -6.005864   -8.150650   -3.861079
  (g-gl).g = 0.815E+01      g.g   = 0.815E+01  gl.gl    = 0.000E+00
 g(Force)  = 0.993E+00   g(Stress)= 0.716E+01 ortho     = 0.000E+00
 gamma     =   0.00000
 trial     =   1.00000
 opt step  =   1.90011  (harmonic =   1.90011) maximal distance =0.15489074
 next E    =   -53.962914   (d E  =  -7.74356)

[...]

 d Force =-0.4953295E+00[-0.136E+01, 0.368E+00]  d Energy =-0.2925703E+01 0.243E+01
 d Force =-0.2251874E+03[-0.254E+03,-0.196E+03]  d Ewald  =-0.1970085E+04 0.174E+04

[...]

 d Force = 0.4592394E+00[-0.296E+00, 0.121E+01]  d Energy = 0.3465914E+01-0.301E+01
 d Force = 0.2053923E+03[ 0.185E+03, 0.226E+03]  d Ewald  = 0.1571643E+04-0.137E+04

[...]

 d Force = 0.4008062E-01[ 0.196E-01, 0.606E-01]  d Energy = 0.1209512E+00-0.809E-01
 d Force =-0.3915781E+02[-0.400E+02,-0.383E+02]  d Ewald  =-0.3167636E+03 0.278E+03

[...]

 d Force =-0.4837661E-02[-0.577E-02,-0.391E-02]  d Energy = 0.6356168E-02-0.112E-01
 d Force = 0.7895161E+01[ 0.786E+01, 0.793E+01]  d Ewald  = 0.6317954E+02-0.553E+02

[...]

 d Force = 0.1235669E+00[-0.486E-01, 0.296E+00]  d Energy = 0.1265265E+00-0.296E-02
 d Force = 0.1438074E+02[ 0.146E+02, 0.142E+02]  d Ewald  =-0.1583944E+03 0.173E+03

 Conjugate gradient step on ions:
 trial-energy change:   -0.126526  1 .order   -0.123796   -0.307039    0.059446
  (g-gl).g = 0.241E+00      g.g   = 0.286E+00  gl.gl    = 0.815E+01
 g(Force)  = 0.271E+00   g(Stress)= 0.155E-01 ortho     = 0.454E-01
 gamma     =   0.02954
 trial     =   1.06787
 opt step  =   0.90095  (harmonic =   0.89465) maximal distance =0.05586825
 next E    =   -52.741238   (d E  =  -0.13116)

[...]

 d Force = 0.3535414E-02[-0.393E-03, 0.746E-02]  d Energy = 0.4014636E-02-0.479E-03
 d Force =-0.2249900E+01[-0.224E+01,-0.226E+01]  d Ewald  = 0.2489490E+02-0.271E+02

[...]

 d Force = 0.3762944E-01[ 0.277E-01, 0.475E-01]  d Energy = 0.4704090E-01-0.941E-02
 d Force = 0.7765836E+01[ 0.753E+01, 0.800E+01]  d Ewald  = 0.1072014E+03-0.994E+02

 Conjugate gradient step on ions:
 trial-energy change:   -0.047041  1 .order   -0.042398   -0.055149   -0.029647
  (g-gl).g = 0.565E-01      g.g   = 0.547E-01  gl.gl    = 0.286E+00
 g(Force)  = 0.454E-01   g(Stress)= 0.933E-02 ortho     =-0.699E-02
 gamma     =   0.19739
 trial     =   1.03448
 opt step  =   1.49991  (harmonic =   2.23711) maximal distance =0.03110074
 next E    =   -52.794750   (d E  =  -0.05413)

[...]

 d Force = 0.1170372E-01[ 0.553E-02, 0.179E-01]  d Energy = 0.1654600E-01-0.484E-02
 d Force = 0.6377528E+01[ 0.618E+01, 0.658E+01]  d Ewald  = 0.9420679E+02-0.878E+02

[...]

 d Force = 0.6865414E-02[-0.549E-02, 0.192E-01]  d Energy = 0.1072485E-01-0.386E-02
 d Force = 0.4059717E+01[ 0.420E+01, 0.392E+01]  d Ewald  =-0.6384244E+02 0.679E+02

[...]

 d Force = 0.4993679E-03[ 0.168E-03, 0.831E-03]  d Energy = 0.4559537E-03 0.434E-04
 d Force =-0.6324130E+00[-0.629E+00,-0.636E+00]  d Ewald  = 0.9678295E+01-0.103E+02

[...]

 d Force = 0.1941099E-02[ 0.111E-02, 0.277E-02]  d Energy = 0.1799922E-01-0.161E-01
 d Force = 0.2057060E+02[ 0.206E+02, 0.205E+02]  d Ewald  =-0.8652878E+02 0.107E+03

[...]

 Broyden mixing:
  rms(total) = 0.23794E+00    rms(broyden)= 0.62038E-01
  rms(prec ) = 0.63941E-01
  weight for this iteration     100.00
  WARNING: grid for Broyden might be to small

[...]

 Broyden mixing:
  rms(total) = 0.75416E-01    rms(broyden)= 0.59794E-01
  rms(prec ) = 0.60771E-01
  weight for this iteration     100.00
  WARNING: grid for Broyden might be to small

[...]

 d Force = 0.4106756E-01[-0.921E-01, 0.174E+00]  d Energy =-0.2622360E-01 0.673E-01
 d Force = 0.1797339E+03[ 0.184E+03, 0.175E+03]  d Ewald  =-0.6957896E+03 0.876E+03

[...]

 Conjugate gradient step on ions:
 trial-energy change:   -0.001997  1 .order   -0.001951   -0.001952   -0.001949
  (g-gl).g =-0.715E-02      g.g   = 0.448E+00  gl.gl    = 0.466E+00
 g(Force)  = 0.103E+00   g(Stress)= 0.345E+00 ortho     = 0.861E-01
 gamma     =  -0.01533
 trial     =   0.00437
 opt step  =   0.01747  (harmonic =   2.95987) maximal distance =0.00042277
 next E    =   -53.696313   (d E  =  -0.66149)

[...]

 d Force =-0.3047263E-01[-0.303E-01,-0.307E-01]  d Energy = 0.1147497E-01-0.419E-01
 d Force = 0.2275436E+01[ 0.229E+01, 0.226E+01]  d Ewald  =-0.1551552E+03 0.157E+03

[...]

 Conjugate gradient step on ions:
 trial-energy change:   -0.069980  1 .order   -0.072986   -0.079440   -0.066532
  (g-gl).g = 0.262E+00      g.g   = 0.277E+00  gl.gl    = 0.448E+00
 g(Force)  = 0.238E+00   g(Stress)= 0.393E-01 ortho     = 0.417E-02
 gamma     =   0.58406
 trial     =   0.28443
 opt step  =   1.13771  (harmonic =   1.75047) maximal distance =0.06481672
 next E    =   -53.570529   (d E  =  -0.24445)

[...]

 d Force = 0.5780271E-02[-0.123E-01, 0.238E-01]  d Energy = 0.9681272E-02-0.390E-02
 d Force =-0.1084046E+02[-0.111E+02,-0.106E+02]  d Ewald  = 0.7047539E+02-0.813E+02

[...]

 d Force = 0.1794289E-02[ 0.671E-03, 0.292E-02]  d Energy = 0.1483229E-02 0.311E-03
 d Force =-0.1008601E+01[-0.101E+01,-0.101E+01]  d Ewald  = 0.2793669E+02-0.289E+02

[...]

 d Force = 0.1369154E-02[ 0.104E-02, 0.169E-02]  d Energy = 0.2205755E-02-0.837E-03
 d Force = 0.5381519E+01[ 0.538E+01, 0.538E+01]  d Ewald  =-0.1838265E+02 0.238E+02

 Conjugate gradient step on ions:
 trial-energy change:   -0.002206  1 .order   -0.001961   -0.002016   -0.001906
  (g-gl).g =-0.826E-02      g.g   = 0.382E-02  gl.gl    = 0.983E-01
 g(Force)  = 0.346E-02   g(Stress)= 0.356E-03 ortho     = 0.219E-02
 gamma     =  -0.08410
 trial     =   0.55503
 opt step  =   2.22014  (harmonic =  10.15015) maximal distance =0.00968865
 next E    =   -53.577048   (d E  =  -0.01843)

[...]

 d Force =-0.7478306E-04[-0.328E-02, 0.313E-02]  d Energy = 0.2345246E-02-0.242E-02
 d Force = 0.1618039E+02[ 0.162E+02, 0.162E+02]  d Ewald  =-0.5537613E+02 0.716E+02

[...]

 Conjugate gradient step on ions:
 trial-energy change:   -0.000674  1 .order   -0.000835   -0.001343   -0.000328
  (g-gl).g = 0.514E-02      g.g   = 0.444E-02  gl.gl    = 0.382E-02
 g(Force)  = 0.153E-02   g(Stress)= 0.291E-02 ortho     =-0.489E-03
 gamma     =   1.34692
 trial     =   0.35475
 opt step  =   0.46958  (harmonic =   0.46958) maximal distance =0.00183404
 next E    =   -53.564054   (d E  =  -0.00089)

[...]

 eigenvalue-minimisations  :  1104
 total energy-change (2. order) :-0.2331349E-03  (-0.8251449E-03)
 number of electron      59.9999992 magnetization      10.0000135
 augmentation part        0.6516151 magnetization       5.9196289

[...]

 Broyden mixing:
  rms(total) = 0.37012E-02    rms(broyden)= 0.37012E-02
  rms(prec ) = 0.40092E-02
  weight for this iteration     100.00

 eigenvalues of (default mixing * dielectric matrix)
  average eigenvalue GAMMA=   0.7473
  0.7473

[...]

--------------------------------------- Iteration     40(   3)  ---------------------------------------

[...]

 eigenvalue-minimisations  :   800
 total energy-change (2. order) : 0.4018482E-05  (-0.5270761E-05)
 number of electron      59.9999992 magnetization      10.0000119
 augmentation part        0.6531536 magnetization       5.9198349

 Free energy of the ion-electron system (eV)
  alpha Z        PSCENC =        29.76734227
  Ewald energy   TEWEN  =      8915.02779565
  -Hartree energ DENC   =    -11469.12601204
  -exchange      EXHF   =         0.00000000
  -V(xc)+E(xc)   XCENC  =        62.35533527
  PAW double counting   =      1403.35558460    -1336.95960468
  entropy T*S    EENTRO =         0.00000000
  eigenvalues    EBANDS =      -515.38306106
  atomic energy  EATOM  =      2857.39865925
  Solvation  Ediel_sol  =         0.00000000
  free energy    TOTEN  =       -53.56396074 eV

  energy without entropy =      -53.56396074  energy(sigma->0) =      -53.56396074

 average (electrostatic) potential at core
  the test charge radii are     1.0210  0.9587  0.9698
  (the norm of the test charge is              1.0000)
       1 -52.4921       2 -52.4921       3 -93.5958       4 -93.5958       5 -94.3565
       6 -94.3565       7 -94.3564       8 -94.3565       9 -94.3565      10 -94.3564

 E-fermi :  -2.6891     XC(G=0):  -3.4614     alpha+bet : -2.8568

[...]

 spin component 2

[...]

 k-point     5 :      -0.4000    0.2000    0.0000
  band No.  band energies     occupation
      1     -18.8301      1.00000
      2     -17.6540      1.00000
      3     -16.2714      1.00000
      4     -16.0710      1.00000
      5     -15.8466      1.00000
      6     -15.7656      1.00000
      7     -12.5676      1.00000
      8     -11.0542      1.00000
      9      -8.9957      1.00000
     10      -8.6732      1.00000
     11      -8.5170      1.00000
     12      -8.2166      1.00000
     13      -7.8381      1.00000
     14      -6.7448      1.00000
     15      -6.2923      1.00000
     16      -6.0370      1.00000
     17      -5.8094      1.00000
     18      -5.7113      1.00000
     19      -5.6968      1.00000
     20      -5.6162      1.00000
     21      -5.0102      1.00000
     22      -4.8027      1.00000
     23      -4.6383      1.00000
     24      -4.5289      1.00000
     25      -4.3226      1.00000
     26      -2.4933      0.00000
     27      -1.9088      0.00000
     28      -1.6709      0.00000
     29      -1.2655      0.00000
     30      -1.0244      0.00000
     31      -1.0212      0.00000
     32      -0.9617      0.00000
     33      -0.8085      0.00000
     34      -0.6320      0.00000
     35      -0.3776      0.00000
     36      -0.3528      0.00000
     37       0.2436      0.00000
     38       0.5697      0.00000
     39       0.6493      0.00000
     40       0.9484      0.00000
     41       1.3234      0.00000
     42       1.7779      0.00000
     43       2.5252      0.00000
     44       2.8225      0.00000
     45       3.0137      0.00000
     46       3.1121      0.00000
     47       3.2125      0.00000
     48       3.3376      0.00000

[...]

 soft charge-density along one line, spin component           2
         0         1         2         3         4         5         6         7         8         9
 total charge-density along one line

------------------------ aborting loop because EDIFF is reached ----------------------------------------

[...]

  FORCE on cell =-STRESS in cart. coord.  units (eV):
  Direction    XX          YY          ZZ          XY          YZ          ZX
  Alpha Z    29.76734    29.76734    29.76734
  Ewald   10769.25048 10769.24666-12623.47168    -0.00092    -0.00055    -0.00099
  Hartree 11206.92892 11206.92913-10944.23553     0.00010     0.00004     0.00007
  E(xc)    -234.74377  -234.74377  -234.47162     0.00001    -0.00000     0.00001
  Local  -22919.56829-22919.56642 22584.71737     0.00038     0.00028     0.00052
  n-local   499.38857   502.86028   498.35165     1.53380    -0.03533    -0.15441
  augment   -60.29706   -60.29703   -62.84530     0.00001     0.00000     0.00002
  Kinetic   709.30457   705.38236   752.19166    -3.05434     0.14350     0.08863
  Fock        0.00000     0.00000     0.00000     0.00000     0.00000     0.00000
  Total      -0.19535    -0.19535     0.00389    -0.00000     0.00000     0.00000
  in kB      -0.44528    -0.44528     0.00886    -0.00000     0.00000     0.00000

 VOLUME and BASIS-vectors are now :
  energy-cutoff  :      520.00
  volume of cell :      702.88
      direct lattice vectors                 reciprocal lattice vectors
     6.058264520  0.000000448 -0.000000000     0.165063780 -0.095299596  0.000000000
     3.029131579  5.246610987 -0.000000000    -0.000000014  0.190599235 -0.000000000
    -0.000000000  0.000000000 22.113289077     0.000000000  0.000000000  0.045221676

  length of vectors
     6.058264520  6.058264188 22.113289077     0.190599225  0.190599235  0.045221676

 FORCES acting on ions
    electron-ion (+dipol)            ewald-force                    non-local-force                 convergence-correction
   -.153E-04 -.996E-05 -.595E+00   0.528E-03 0.303E-03 0.599E+00   -.426E-18 -.347E-17 -.583E-02   0.191E-07 0.197E-08 0.296E-05
   0.153E-04 0.996E-05 0.595E+00   -.528E-03 -.303E-03 -.599E+00   0.426E-18 0.174E-17 0.583E-02   -.191E-07 -.197E-08 -.296E-05
   -.486E-04 -.244E-04 0.270E+03   -.282E-03 -.157E-03 -.266E+03   0.598E-17 -.693E-17 -.339E+01   0.663E-07 0.322E-07 -.248E-02
   0.486E-04 0.244E-04 -.270E+03   0.282E-03 0.157E-03 0.266E+03   -.337E-16 0.693E-17 0.339E+01   -.663E-07 -.322E-07 0.248E-02
   0.419E+02 0.436E-01 -.493E+03   -.447E+02 -.509E-01 0.496E+03   0.291E+01 0.761E-02 -.311E+01   0.726E-02 -.316E-03 0.247E-01
   -.209E+02 -.363E+02 -.493E+03   0.223E+02 0.388E+02 0.496E+03   -.145E+01 -.253E+01 -.311E+01   -.390E-02 -.613E-02 0.247E-01
   -.210E+02 0.362E+02 -.493E+03   0.224E+02 -.387E+02 0.496E+03   -.146E+01 0.252E+01 -.311E+01   -.336E-02 0.645E-02 0.247E-01
   -.419E+02 -.436E-01 0.493E+03   0.447E+02 0.509E-01 -.496E+03   -.291E+01 -.761E-02 0.311E+01   -.726E-02 0.316E-03 -.247E-01
   0.209E+02 0.363E+02 0.493E+03   -.223E+02 -.388E+02 -.496E+03   0.145E+01 0.253E+01 0.311E+01   0.390E-02 0.613E-02 -.247E-01
   0.210E+02 -.362E+02 0.493E+03   -.224E+02 0.387E+02 -.496E+03   0.146E+01 -.252E+01 0.311E+01   0.336E-02 -.645E-02 -.247E-01
   0.283E-10 -.678E-10 0.171E-09   0.213E-13 -.711E-14 0.114E-12   0.222E-15 -.444E-15 -.444E-15   0.132E-12 0.401E-12 -.177E-10

 POSITION                                       TOTAL-FORCE (eV/Angst)
      3.02913      1.74887     11.05828        -0.000000     -0.000000     -0.002166
      6.05827      3.49774     11.05501        -0.000000     -0.000000      0.002166
     -0.00000      0.00000      9.94744        -0.000000     -0.000000      0.005358
     -0.00000      0.00000     12.16585        -0.000000     -0.000000     -0.005358
      4.07149     -0.00095     12.68362         0.046540      0.000929     -0.007989
      0.99257      1.72107     12.68362        -0.022465     -0.040770     -0.007989
      4.02334      3.52649     12.68362        -0.024075      0.039840     -0.007989
      1.98677      0.00095      9.42966        -0.046540     -0.000929      0.007989
      2.03656      3.52554      9.42966         0.022465      0.040770      0.007989
      5.06405      1.72012      9.42966         0.024075     -0.039840      0.007989
    total drift:                                0.000000     -0.000000      0.000000

  FREE ENERGIE OF THE ION-ELECTRON SYSTEM (eV)
  free  energy   TOTEN  =       -53.56396074 eV

  energy  without entropy=      -53.56396074  energy(sigma->0) =      -53.56396074

 d Force =-0.1008907E-03[-0.985E-04,-0.103E-03]  d Energy = 0.1215390E-03-0.222E-03
 d Force = 0.1395122E+01[ 0.140E+01, 0.139E+01]  d Ewald  =-0.1259554E+02 0.140E+02

 reached required accuracy - stopping structural energy minimisation

 total charge

[...]

 magnetization (x)

# of ion       s       p       d       tot
    1        0.031   0.025   4.217   4.273
    2        0.031   0.025   4.217   4.273
    3        0.003   0.025   0.000   0.028
    4        0.003   0.025   0.000   0.028
    5        0.011   0.065   0.000   0.076
    6        0.009   0.052   0.000   0.060
    7        0.010   0.063   0.000   0.073
    8        0.011   0.065   0.000   0.076
    9        0.009   0.052   0.000   0.060
   10        0.010   0.063   0.000   0.073
tot          0.128   0.460   8.435   9.023

 BZINTS: Fermi energy: -2.689070; 60.000000 electrons
         Band energy:-515.383061;  BLOECHL correction:  0.000000