 vasp.5.4.4.18Apr17-6-g9f103f2a35 (build May  1 2020 15:48:39) complex
 executed on             LinuxGNU date 2020.06.23  16:17:52

 INCAR:
 POTCAR:   PAW_PBE Co 06Sep2000
 POTCAR:   PAW_PBE Si 05Jan2001
 POTCAR:    PAW_PBE P 17Jan2003
 POTCAR:   PAW_PBE Se 06Sep2000

 POTCAR:   PAW_PBE Co 06Sep2000
   VRHFIN =Co: d8 s1

   TITEL  = PAW_PBE Co 06Sep2000
   POMASS =   58.933; ZVAL   =    9.000    mass and valenz
   ENMAX  =  267.969; ENMIN  =  200.977 eV
   QCUT   =   -4.438; QGAM   =    8.876    optimization parameters

   Description
     l     E      TYP  RCUT    TYP  RCUT
     2   .000     23  2.300
     2   .000     23  2.300
     0   .000     23  2.300
     0   .000     23  2.300
     1  -.200     23  2.300
     1   .000     23  2.300
     3   .000      7   .000

 POTCAR:   PAW_PBE Si 05Jan2001
   VRHFIN =Si: s2p2

   TITEL  = PAW_PBE Si 05Jan2001
   POMASS =   28.085; ZVAL   =    4.000    mass and valenz
   ENMAX  =  245.345; ENMIN  =  184.009 eV
   QCUT   =   -4.246; QGAM   =    8.493    optimization parameters

[...]

 POTCAR:    PAW_PBE P 17Jan2003
   VRHFIN =P : s2p3

   TITEL  = PAW_PBE P 17Jan2003
   POMASS =   30.974; ZVAL   =    5.000    mass and valenz
   ENMAX  =  270.000; ENMIN  =  191.280 eV
   QCUT   =   -4.330; QGAM   =    8.659    optimization parameters

[...]

 POTCAR:   PAW_PBE Se 06Sep2000
   VRHFIN =Se: s2p4

   TITEL  = PAW_PBE Se 06Sep2000
   POMASS =   78.960; ZVAL   =    6.000    mass and valenz
   ENMAX  =  211.534; ENMIN  =  158.651 eV
   QCUT   =   -3.943; QGAM   =    7.886    optimization parameters

   Description
     l     E      TYP  RCUT    TYP  RCUT
     0   .000     23  2.100
     0   .000     23  2.100
     1   .000     23  2.100
     1   .000     23  2.100
     2   .000     23  2.100
     3  -.100      7  2.100

 Optimization of the real space projectors (new method)

 maximal supplied QI-value         = 16.25
 optimisation between [QCUT,QGAM] = [ 11.54, 23.24] = [ 37.28,151.24] Ry
 Optimized for a Real-space Cutoff    1.53 Angstroem

   l    n(q)    QCUT    max X(q) W(low)/X(q) W(high)/X(q)  e(spline)
   2     10    11.539     4.599    0.83E-05    0.15E-04    0.45E-07
   2     10    11.539    18.158    0.10E-03    0.14E-03    0.24E-06
   0     11    11.539    15.740    0.19E-04    0.12E-05    0.17E-07
   0     11    11.539    47.662    0.48E-04    0.15E-04    0.31E-06
   1     10    11.539     5.777    0.11E-04    0.46E-05    0.25E-07
   1     10    11.539     8.007    0.46E-04    0.29E-04    0.11E-06
 Optimization of the real space projectors (new method)

[...]

   l    n(q)    QCUT    max X(q) W(low)/X(q) W(high)/X(q)  e(spline)
   0      8    11.508     6.651    0.19E-04    0.31E-05    0.49E-08
   0      8    11.508    90.285    0.95E-04    0.17E-03    0.51E-07
   1      8    11.508     4.328    0.14E-04    0.32E-04    0.22E-07
   1      8    11.508    54.583    0.16E-03    0.71E-04    0.89E-07
 Optimization of the real space projectors (new method)

 maximal supplied QI-value         = 17.95
 optimisation between [QCUT,QGAM] = [ 11.67, 23.34] = [ 38.13,152.52] Ry
 Optimized for a Real-space Cutoff    1.25 Angstroem

   l    n(q)    QCUT    max X(q) W(low)/X(q) W(high)/X(q)  e(spline)
   0      9    11.669     6.499    0.13E-04    0.81E-05    0.11E-07
   0      9    11.669    52.623    0.18E-03    0.46E-04    0.72E-07
   1      8    11.669     4.229    0.40E-04    0.45E-04    0.31E-07
   1      8    11.669    29.991    0.22E-03    0.36E-03    0.10E-06
   2      8    11.669     3.719    0.19E-03    0.46E-04    0.50E-07

 PAW_PBE Co 06Sep2000                   :
 PAW_PBE Si 05Jan2001                   :
  PAW_PBE P 17Jan2003                   :
 PAW_PBE Se 06Sep2000                   :

 POSCAR: Co2 Si P Se6
  positions in direct lattice
  velocities in cartesian coordinates
 exchange correlation table for  LEXCH =       42
   RHO(1)=    0.500       N(1)  =     2000
   RHO(2)=  100.500       N(2)  =     4000

 ion  position               nearest neighbor table
   1  0.333  0.333  0.500-   6 2.78   5 2.78   7 2.78   8 2.78  10 2.78   9 2.78
   2  0.667  0.667  0.500-   9 2.78   8 2.78  10 2.78   5 2.78   7 2.78   6 2.78
   3  0.000  0.000  0.448-   4 2.43   8 2.63  10 2.63   9 2.63
   4  0.000  0.000  0.552-   3 2.43   5 2.63   7 2.63   6 2.63
   5  0.626  0.000  0.574-   4 2.63   1 2.78   2 2.78
   6  0.000  0.373  0.574-   4 2.63   1 2.78   2 2.78
   7  0.373  0.626  0.574-   4 2.63   1 2.78   2 2.78
   8  0.374  1.000  0.426-   3 2.63   2 2.78   1 2.78
   9  1.000  0.627  0.426-   3 2.63   2 2.78   1 2.78
  10  0.627  0.374  0.426-   3 2.63   2 2.78   1 2.78

  LATTYP: Found a hexagonal cell.
 ALAT       =     6.9077769333
 C/A-ratio  =     3.3939410937

  Lattice vectors:

 A1 = (   3.4538890000,  -5.9823100000,   0.0000000000)
 A2 = (  -6.9077770000,   0.0000000000,   0.0000000000)
 A3 = (   0.0000000000,   0.0000000000, -23.4445880000)

Analysis of symmetry for initial positions (statically):
 Subroutine PRICEL returns:
 Original cell was already a primitive cell.

 Routine SETGRP: Setting up the symmetry group for a
 hexagonal supercell.

 Subroutine GETGRP returns: Found  3 space group operations
 (whereof  3 operations were pure point group operations)
 out of a pool of 24 trial point group operations.

The static configuration has the point symmetry C_3 .

Analysis of symmetry for dynamics (positions and initial velocities):
 Subroutine PRICEL returns:
 Original cell was already a primitive cell.

[...]

The dynamic configuration has the point symmetry C_3 .

Analysis of constrained symmetry for selective dynamics:
 Subroutine PRICEL returns:
 Original cell was already a primitive cell.

[...]

The constrained configuration has the point symmetry C_3 .

Analysis of structural, dynamic, and magnetic symmetry:
 Subroutine PRICEL returns:
 Original cell was already a primitive cell.

 Routine SETGRP: Setting up the symmetry group for a
 hexagonal supercell.

 Subroutine GETGRP returns: Found  3 space group operations
 (whereof  3 operations were pure point group operations)
 out of a pool of 24 trial point group operations.

The magnetic configuration has the point symmetry C_3 .

 Subroutine INISYM returns: Found  3 space group operations
 (whereof  3 operations are pure point group operations),
 and found     1 'primitive' translations

 KPOINTS: Kpoints from vasprun.xml

Automatic generation of k-mesh.
Space group operators:
 irot       det(A)        alpha          n_x          n_y          n_z        tau_x        tau_y        tau_z
    1     1.000000     0.000000     1.000000     0.000000     0.000000     0.000000     0.000000     0.000000
    2     1.000000   120.000000     0.000000     0.000000     1.000000     0.000000     0.000000     0.000000
    3     1.000000   120.000000     0.000000     0.000000    -1.000000     0.000000     0.000000     0.000000

 Subroutine IBZKPT returns following result:

 Found      5 irreducible k-points:

 Following reciprocal coordinates:
            Coordinates               Weight
  0.000000  0.000000  0.000000      1.000000
  0.200000  0.000000  0.000000      6.000000
  0.400000  0.000000  0.000000      6.000000
  0.400000  0.200000  0.000000      6.000000
 -0.400000  0.200000  0.000000      6.000000

 Following cartesian coordinates:
            Coordinates               Weight
  0.000000  0.000000  0.000000      1.000000
  0.028953 -0.016716  0.000000      6.000000
  0.057906 -0.033432  0.000000      6.000000
  0.057906  0.000000  0.000000      6.000000
 -0.057906  0.066864  0.000000      6.000000

 TETIRR: Found     15 inequivalent tetrahedra from      150

 SYSTEM =  unknown system
 POSCAR =  Co2 Si P Se6

 Startparameter for this run:
   NWRITE =      2    write-flag & timer
   PREC   = accura    normal or accurate (medium, high low for compatibility)
   ISTART =      0    job   : 0-new  1-cont  2-samecut
   ICHARG =      2    charge: 1-file 2-atom 10-const
   ISPIN  =      2    spin polarized calculation?
   LNONCOLLINEAR =      F non collinear calculations
   LSORBIT =      F    spin-orbit coupling
   INIWAV =      1    electr: 0-lowe 1-rand  2-diag
   LASPH  =      F    aspherical Exc in radial PAW
   METAGGA=      F    non-selfconsistent MetaGGA calc.

 Electronic Relaxation 1
   ENCUT  =  520.0 eV  38.22 Ry    6.18 a.u.  12.84 12.84 43.59*2*pi/ulx,y,z
   ENINI  =  520.0     initial cutoff
   ENAUG  =  477.8 eV  augmentation charge cutoff
   NELM   =    400;   NELMIN=  2; NELMDL=  0     # of ELM steps
   EDIFF  = 0.1E-03   stopping-criterion for ELM
   LREAL  =      T    real-space projection
   NLSPLINE    = F    spline interpolate recip. space projectors
   LCOMPAT=      F    compatible to vasp.4.4
   GGA_COMPAT  = T    GGA compatible to vasp.4.4-vasp.4.6
   LMAXPAW     = -100 max onsite density
   LMAXMIX     =    2 max onsite mixed and CHGCAR
   VOSKOWN=      0    Vosko Wilk Nusair interpolation
   ROPT   =   -0.00025  -0.00025  -0.00025  -0.00025
 Ionic relaxation
   EDIFFG = 0.1E-02   stopping-criterion for IOM
   NSW    =     99    number of steps for IOM
   NBLOCK =      1;   KBLOCK =     99    inner block; outer block
   IBRION =      2    ionic relax: 0-MD 1-quasi-New 2-CG
   NFREE  =      1    steps in history (QN), initial steepest desc. (CG)
   ISIF   =      3    stress and relaxation
   IWAVPR =     11    prediction:  0-non 1-charg 2-wave 3-comb
   ISYM   =      2    0-nonsym 1-usesym 2-fastsym
   LCORR  =      T    Harris-Foulkes like correction to forces

   POTIM  = 0.5000    time-step for ionic-motion
   TEIN   =    0.0    initial temperature
   TEBEG  =    0.0;   TEEND  =   0.0 temperature during run
   SMASS  =  -3.00    Nose mass-parameter (am)
   estimated Nose-frequenzy (Omega)   =  0.10E-29 period in steps =****** mass=  -0.109E-26a.u.
   SCALEE = 1.0000    scale energy and forces
   NPACO  =    256;   APACO  = 16.0  distance and # of slots for P.C.
   PSTRESS=    0.0 pullay stress

  Mass of Ions in am
   POMASS =  58.93 28.09 30.97 78.96
  Ionic Valenz
   ZVAL   =   9.00  4.00  5.00  6.00
  Atomic Wigner-Seitz radii
  virtual crystal weights
   VCA    =   1.00  1.00  1.00  1.00
   NELECT =      63.0000    total number of electrons
   NUPDOWN=      -1.0000    fix difference up-down

 DOS related values:
   EMIN   =  10.00;   EMAX   =-10.00  energy-range for DOS
   EFERMI =   0.00
   ISMEAR =    -5;   SIGMA  =   0.05  broadening in eV -4-tet -1-fermi 0-gaus

 Electronic relaxation 2 (details)
   IALGO  =     38    algorithm
   LDIAG  =      T    sub-space diagonalisation (order eigenvalues)
   LSUBROT=      F    optimize rotation matrix (better conditioning)
   TURBO    =      0    0=normal 1=particle mesh
   IRESTART =      0    0=no restart 2=restart with 2 vectors
   NREBOOT  =      0    no. of reboots
   NMIN     =      0    reboot dimension
   EREF     =   0.00    reference energy to select bands
   IMIX   =      4    mixing-type and parameters
     AMIX     =   0.40;   BMIX     =  1.00
     AMIX_MAG =   1.60;   BMIX_MAG =  1.00
     AMIN     =   0.01
     WC   =   100.;   INIMIX=   1;  MIXPRE=   1;  MAXMIX= -45

 Intra band minimization:
   WEIMIN = 0.0010     energy-eigenvalue tresh-hold
   EBREAK =  0.52E-06  absolut break condition
[...]
   -.165E-03 -.925E-04 0.671E+01   -.562E-03 -.337E-03 -.698E+01   -.347E-17 -.694E-17 0.225E+00   -.151E-06 0.209E-06 0.557E-01
   -.351E-04 -.232E-04 0.192E+03   -.141E-03 -.779E-04 -.191E+03   0.000E+00 -.139E-16 -.919E+00   -.419E-06 -.372E-05 0.444E-01
   0.372E-04 0.326E-04 -.226E+03   0.176E-03 0.974E-04 0.224E+03   -.104E-16 0.000E+00 0.159E+01   -.161E-06 -.869E-07 0.575E-02
   -.116E+02 0.148E+00 -.407E+03   0.106E+02 -.146E+00 0.408E+03   0.201E+01 -.706E-02 -.240E+01   -.303E-02 -.738E-03 -.107E-01
   0.594E+01 0.999E+01 -.407E+03   -.542E+01 -.910E+01 0.408E+03   -.101E+01 -.173E+01 -.240E+01   0.877E-03 0.299E-02 -.107E-01
   0.568E+01 -.101E+02 -.407E+03   -.517E+01 0.925E+01 0.408E+03   -.997E+00 0.174E+01 -.240E+01   0.215E-02 -.226E-02 -.107E-01
   0.184E+02 -.161E+00 0.413E+03   -.172E+02 0.153E+00 -.414E+03   -.236E+01 0.973E-02 0.258E+01   0.339E-02 0.489E-02 0.818E-01
   -.933E+01 -.158E+02 0.413E+03   0.874E+01 0.148E+02 -.414E+03   0.119E+01 0.204E+01 0.258E+01   0.254E-02 -.538E-02 0.818E-01
   -.905E+01 0.160E+02 0.413E+03   0.847E+01 -.150E+02 -.414E+03   0.117E+01 -.205E+01 0.258E+01   -.596E-02 0.485E-03 0.818E-01
   0.245E-04 0.323E-04 -.201E+01   -.711E-14 0.178E-14 -.568E-13   0.222E-15 0.000E+00 0.163E+01   -.299E-04 -.590E-05 0.369E+00

 POSITION                                       TOTAL-FORCE (eV/Angst)
      3.45388      1.99410     11.72054         0.000000      0.000000      0.018363
      6.90778      3.98821     11.72405         0.000000      0.000000      0.013813
      0.00000      0.00000     10.50824         0.000000      0.000000      0.192224
      0.00000      0.00000     12.93635         0.000000      0.000000     -0.146658
      4.32819      0.00251     13.45138         0.971305     -0.004940     -1.304638
      1.29198      2.23274     13.45138        -0.489930     -0.838705     -1.304638
      4.74152      3.74706     13.45138        -0.481374      0.843644     -1.304638
      6.03348      5.97980      9.99321        -1.184523      0.006200      1.278724
      9.06969      3.74957      9.99321         0.597631      1.022727      1.278724
      5.62015      2.23525      9.99321         0.586892     -1.028927      1.278724
    total drift:                               -0.000005      0.000026     -0.004653

  FREE ENERGIE OF THE ION-ELECTRON SYSTEM (eV)
  free  energy   TOTEN  =       -37.47846043 eV

  energy  without entropy=      -37.47846043  energy(sigma->0) =      -37.47846043

[...]

 d Force = 0.3838394E+00[ 0.140E-01, 0.754E+00]  d Energy = 0.5109981E+01-0.473E+01
 d Force =-0.1634887E+03[-0.185E+03,-0.142E+03]  d Ewald  =-0.1863306E+04 0.170E+04

 Steepest descent step on ions:
 trial-energy change:   -5.109981  1 .order   -3.666185   -7.178667   -0.153703
  (g-gl).g = 0.718E+01      g.g   = 0.718E+01  gl.gl    = 0.000E+00
 g(Force)  = 0.825E+00   g(Stress)= 0.635E+01 ortho     = 0.000E+00
 gamma     =   0.00000
 trial     =   1.00000
 opt step  =   1.00975  (harmonic =   1.02188) maximal distance =0.06229020
 next E    =   -42.589192   (d E  =  -5.11073)

[...]

 d Force =-0.3873589E-05[-0.931E-04, 0.853E-04]  d Energy = 0.4318502E-03-0.436E-03
 d Force =-0.1928409E+01[-0.193E+01,-0.193E+01]  d Ewald  =-0.2163134E+02 0.197E+02

[...]

 d Force = 0.6291305E-01[ 0.365E-01, 0.893E-01]  d Energy = 0.1047418E+00-0.418E-01
 d Force =-0.5898332E+02[-0.590E+02,-0.590E+02]  d Ewald  = 0.2563774E+03-0.315E+03

 Conjugate gradient step on ions:
 trial-energy change:   -0.104742  1 .order   -0.103019   -0.162646   -0.043391
  (g-gl).g = 0.142E+00      g.g   = 0.162E+00  gl.gl    = 0.718E+01
 g(Force)  = 0.899E-01   g(Stress)= 0.720E-01 ortho     = 0.203E-01
 gamma     =   0.01972
 trial     =   1.00195
 opt step  =   1.32891  (harmonic =   1.36651) maximal distance =0.02912467
 next E    =   -42.700755   (d E  =  -0.11188)

[...]

 Conjugate gradient step on ions:
 trial-energy change:   -0.066458  1 .order   -0.064743   -0.103031   -0.026455
  (g-gl).g = 0.121E+00      g.g   = 0.130E+00  gl.gl    = 0.162E+00
 g(Force)  = 0.106E+00   g(Stress)= 0.241E-01 ortho     =-0.104E-04
 gamma     =   0.74892
 trial     =   0.79325
 opt step  =   1.02671  (harmonic =   1.06730) maximal distance =0.04859079
 next E    =   -42.769902   (d E  =  -0.07039)

[...]

 d Force = 0.8917343E-02[ 0.686E-02, 0.110E-01]  d Energy = 0.1051998E-01-0.160E-02
 d Force = 0.9408024E+01[ 0.943E+01, 0.938E+01]  d Ewald  =-0.6427616E+02 0.737E+02

 Conjugate gradient step on ions:
 trial-energy change:   -0.010520  1 .order   -0.010270   -0.013821   -0.006719
  (g-gl).g =-0.365E-02      g.g   = 0.167E-01  gl.gl    = 0.130E+00
 g(Force)  = 0.136E-01   g(Stress)= 0.306E-02 ortho     = 0.875E-02
 gamma     =  -0.02810
 trial     =   0.83994
 opt step  =   1.63466  (harmonic =   1.63466) maximal distance =0.02049509
 next E    =   -42.784686   (d E  =  -0.01345)

[...]

 d Force = 0.4688930E-02[ 0.289E-02, 0.649E-02]  d Energy = 0.3256225E-02 0.143E-02
 d Force = 0.8949252E+01[ 0.897E+01, 0.893E+01]  d Ewald  =-0.6116631E+02 0.701E+02

[...]

 d Force = 0.6756809E-02[ 0.623E-02, 0.728E-02]  d Energy = 0.6324025E-02 0.433E-03
 d Force = 0.4045548E+01[ 0.405E+01, 0.404E+01]  d Ewald  = 0.5434758E+00 0.350E+01

[...]

 Conjugate gradient step on ions:
 trial-energy change:   -0.008541  1 .order   -0.008326   -0.009026   -0.007626
  (g-gl).g = 0.197E-01      g.g   = 0.234E-01  gl.gl    = 0.174E-01
 g(Force)  = 0.140E-01   g(Stress)= 0.941E-02 ortho     = 0.152E-02
 gamma     =   1.13128
 trial     =   0.35887
 opt step  =   1.43548  (harmonic =   2.31320) maximal distance =0.05073268
 next E    =   -42.829228   (d E  =  -0.02909)

[...]

 d Force =-0.1190843E-01[-0.389E-01, 0.151E-01]  d Energy =-0.2083709E-01 0.893E-02
 d Force =-0.2847841E+02[-0.277E+02,-0.292E+02]  d Ewald  = 0.1505657E+02-0.435E+02

[...]

 d Force = 0.1364510E-01[-0.350E-02, 0.308E-01]  d Energy = 0.2257886E-01-0.893E-02
 d Force = 0.2249860E+02[ 0.230E+02, 0.220E+02]  d Ewald  =-0.1188035E+02 0.344E+02

[...]

 d Force = 0.1667314E-01[-0.374E-03, 0.337E-01]  d Energy = 0.1566490E-01 0.101E-02
 d Force =-0.2151257E+02[-0.196E+02,-0.234E+02]  d Ewald  = 0.1734961E+02-0.389E+02

[...]

 d Force =-0.2467377E-03[-0.261E-03,-0.232E-03]  d Energy = 0.3119866E-04-0.278E-03
 d Force =-0.4233483E+00[-0.423E+00,-0.424E+00]  d Ewald  =-0.3661233E+01 0.324E+01

[...]

 Conjugate gradient step on ions:
 trial-energy change:   -0.005985  1 .order   -0.005416   -0.007465   -0.003366
  (g-gl).g = 0.117E-01      g.g   = 0.107E-01  gl.gl    = 0.336E-01
 g(Force)  = 0.645E-02   g(Stress)= 0.426E-02 ortho     =-0.185E-02
 gamma     =   0.34895
 trial     =   0.74134
 opt step  =   1.02426  (harmonic =   1.35028) maximal distance =0.01433264
 next E    =   -42.886573   (d E  =  -0.00666)

[...]

 d Force = 0.9915448E-03[ 0.754E-03, 0.123E-02]  d Energy = 0.1301070E-02-0.310E-03
 d Force = 0.1609499E+00[ 0.168E+00, 0.154E+00]  d Ewald  = 0.2013413E+01-0.185E+01

[...]

 d Force = 0.8159196E-03[ 0.512E-03, 0.112E-02]  d Energy = 0.4599922E-03 0.356E-03
 d Force =-0.2991145E+00[-0.297E+00,-0.301E+00]  d Ewald  = 0.5717758E+00-0.871E+00

 Conjugate gradient step on ions:
 trial-energy change:   -0.000460  1 .order   -0.001215   -0.001658   -0.000772
  (g-gl).g =-0.170E-02      g.g   = 0.261E-02  gl.gl    = 0.107E-01
 g(Force)  = 0.183E-02   g(Stress)= 0.779E-03 ortho     = 0.333E-02
 gamma     =  -0.15844
 trial     =   0.79793
 opt step  =   1.49289  (harmonic =   1.49289) maximal distance =0.00534501
 next E    =   -42.888751   (d E  =  -0.00155)

[...]

 eigenvalue-minimisations  :  1032
 total energy-change (2. order) : 0.3245605E-03  (-0.2424657E-03)
 number of electron      63.0000000 magnetization       0.8182332
 augmentation part        2.7870687 magnetization       0.2667407

 Broyden mixing:
  rms(total) = 0.56969E-02    rms(broyden)= 0.56967E-02
  rms(prec ) = 0.65158E-02
  weight for this iteration     100.00

 eigenvalues of (default mixing * dielectric matrix)
  average eigenvalue GAMMA=   0.7391
  1.9491  0.6254  0.2241  0.1579

[...]

--------------------------------------- Iteration     24(   6)  ---------------------------------------

[...]

 eigenvalue-minimisations  :   720
 total energy-change (2. order) :-0.3334619E-04  (-0.1274561E-04)
 number of electron      63.0000000 magnetization       0.8182332
 augmentation part        2.7870687 magnetization       0.2667407

 Free energy of the ion-electron system (eV)
  alpha Z        PSCENC =        51.93061240
  Ewald energy   TEWEN  =      9076.25953608
  -Hartree energ DENC   =    -12184.28807980
  -exchange      EXHF   =         0.00000000
  -V(xc)+E(xc)   XCENC  =        19.01528453
  PAW double counting   =      2159.26242706    -2150.27549591
  entropy T*S    EENTRO =         0.00000000
  eigenvalues    EBANDS =      -478.63213271
  atomic energy  EATOM  =      3463.84081127
  Solvation  Ediel_sol  =         0.00000000
  free energy    TOTEN  =       -42.88703709 eV

  energy without entropy =      -42.88703709  energy(sigma->0) =      -42.88703709

 average (electrostatic) potential at core
  the test charge radii are     1.0452  0.9892  0.9587  1.0808
  (the norm of the test charge is              1.0000)
       1 -48.7816       2 -48.7813       3 -92.7305       4 -91.9801       5 -61.4007
       6 -61.4007       7 -61.4006       8 -61.0169       9 -61.0169      10 -61.0169

 E-fermi :  -2.3443     XC(G=0):  -3.4798     alpha+bet : -2.9063

[...]

 spin component 2

[...]

 k-point     5 :      -0.4000    0.2000    0.0000
  band No.  band energies     occupation
      1     -16.6123      1.00000
      2     -16.4030      1.00000
      3     -15.9488      1.00000
      4     -15.7115      1.00000
      5     -15.4834      1.00000
      6     -15.3398      1.00000
      7     -12.5602      1.00000
      8      -9.6901      1.00000
      9      -8.0731      1.00000
     10      -7.4980      1.00000
     11      -7.4044      1.00000
     12      -6.8893      1.00000
     13      -6.6823      1.00000
     14      -6.3300      1.00000
     15      -6.3214      1.00000
     16      -5.8965      1.00000
     17      -5.7542      1.00000
     18      -5.5944      1.00000
     19      -5.4154      1.00000
     20      -5.2736      1.00000
     21      -5.1606      1.00000
     22      -4.5275      1.00000
     23      -4.2200      1.00000
     24      -4.0783      1.00000
     25      -3.8770      1.00000
     26      -3.8659      1.00000
     27      -3.4368      1.00000
     28      -3.2842      1.00000
     29      -3.2553      1.00000
     30      -3.1576      1.00000
     31      -3.1364      1.00000
     32      -2.2708     -0.02426
     33      -1.6882      0.00000
     34      -1.5665      0.00000
     35      -1.2272      0.00000
     36      -0.9867      0.00000
     37      -0.2000      0.00000
     38       0.0666      0.00000
     39       0.3684      0.00000
     40       1.2888      0.00000
     41       1.6352      0.00000
     42       1.7533      0.00000
     43       2.9730      0.00000
     44       3.0519      0.00000
     45       3.1178      0.00000
     46       3.2955      0.00000
     47       3.5314      0.00000
     48       3.9906      0.00000

[...]

 soft charge-density along one line, spin component           2
         0         1         2         3         4         5         6         7         8         9
 total charge-density along one line

------------------------ aborting loop because EDIFF is reached ----------------------------------------

[...]

  FORCE on cell =-STRESS in cart. coord.  units (eV):
  Direction    XX          YY          ZZ          XY          YZ          ZX
  Alpha Z    51.93061    51.93061    51.93061
  Ewald   11165.32528 11165.32279-13254.39140    -0.00224    -0.00059    -0.00107
  Hartree 11752.52968 11752.53067-11322.89234    -0.00037     0.00008     0.00012
  E(xc)    -259.08257  -259.08257  -258.91926     0.00002     0.00001     0.00001
  Local  -23689.72981-23689.72956 23768.44020     0.00216     0.00032     0.00059
  n-local   279.03560   279.60710   286.21087     0.11009     0.33234     0.36209
  augment    53.60456    53.60471    50.00362     0.00002     0.00003     0.00006
  Kinetic   650.61471   642.13823   679.79800    -4.88814     0.73001     0.29359
  Fock        0.00000     0.00000     0.00000     0.00000     0.00000     0.00000
  Total       0.27502     0.27502     0.18029     0.00000    -0.00000     0.00000
  in kB       0.63053     0.63053     0.41335     0.00000    -0.00000     0.00000

 VOLUME and BASIS-vectors are now :
  energy-cutoff  :      520.00
  volume of cell :      698.82
      direct lattice vectors                 reciprocal lattice vectors
     6.184236497 -0.000000088 -0.000000000     0.161701447 -0.093358371 -0.000000000
     3.092117987  5.355705618 -0.000000000     0.000000003  0.186716758  0.000000000
     0.000000000 -0.000000000 21.098936611     0.000000000  0.000000000  0.047395754

  length of vectors
     6.184236497  6.184236114 21.098936611     0.186716747  0.186716758  0.047395754

 FORCES acting on ions
    electron-ion (+dipol)            ewald-force                    non-local-force                 convergence-correction
   -.892E-04 -.569E-04 0.478E+02   0.730E-03 0.437E-03 -.485E+02   0.694E-17 0.272E-16 0.640E+00   -.237E-06 0.691E-06 -.185E-02
   0.817E-04 0.650E-04 0.492E+02   -.764E-03 -.456E-03 -.500E+02   0.139E-16 -.559E-18 0.666E+00   -.944E-06 0.477E-06 0.781E-03
   -.319E-04 -.278E-04 0.195E+03   -.147E-03 -.816E-04 -.192E+03   -.139E-16 0.210E-17 -.250E+01   0.597E-07 0.215E-07 0.153E-01
   0.527E-04 0.192E-04 -.366E+03   0.237E-03 0.133E-03 0.368E+03   0.277E-16 0.293E-16 -.189E+01   0.148E-06 0.103E-06 -.265E-01
   -.238E+02 -.742E-02 -.495E+03   0.221E+02 0.563E-02 0.497E+03   0.174E+01 0.326E-02 -.234E+01   -.788E-02 -.201E-04 -.429E-01
   0.119E+02 0.206E+02 -.495E+03   -.110E+02 -.191E+02 0.497E+03   -.867E+00 -.151E+01 -.234E+01   0.392E-02 0.683E-02 -.429E-01
   0.119E+02 -.206E+02 -.495E+03   -.110E+02 0.191E+02 0.497E+03   -.872E+00 0.150E+01 -.234E+01   0.396E-02 -.681E-02 -.429E-01
   0.305E+02 0.300E-01 0.520E+03   -.290E+02 -.282E-01 -.523E+03   -.152E+01 -.569E-02 0.263E+01   0.901E-02 0.178E-03 0.484E-01
   -.152E+02 -.264E+02 0.520E+03   0.145E+02 0.251E+02 -.523E+03   0.755E+00 0.132E+01 0.263E+01   -.435E-02 -.789E-02 0.484E-01
   -.153E+02 0.264E+02 0.520E+03   0.145E+02 -.251E+02 -.523E+03   0.765E+00 -.131E+01 0.263E+01   -.466E-02 0.771E-02 0.484E-01
   0.149E-03 -.406E-04 0.218E+01   -.213E-13 0.142E-13 0.114E-12   0.444E-15 0.222E-15 -.219E+01   -.110E-05 0.122E-05 0.407E-02

 POSITION                                       TOTAL-FORCE (eV/Angst)
      3.09212      1.78523     10.48976         0.000000      0.000000     -0.062977
      6.18424      3.57047     10.48753         0.000000      0.000000     -0.055166
      0.00000     -0.00000      9.67871         0.000000      0.000000     -0.037415
      0.00000     -0.00000     11.93065         0.000000      0.000000      0.088858
      3.71842     -0.00079     11.92565         0.056242      0.002052      0.047212
      1.23223      2.13586     11.92565        -0.026344     -0.049733      0.047212
      4.32571      3.22064     11.92565        -0.029899      0.047681      0.047212
      2.22592      0.00099      9.04370        -0.019668     -0.004373     -0.024979
      1.98001      3.42750      9.04370         0.006047      0.019220     -0.024979
      5.07041      1.92721      9.04370         0.013621     -0.014847     -0.024979
    total drift:                                0.000148     -0.000039     -0.011787

  FREE ENERGIE OF THE ION-ELECTRON SYSTEM (eV)
  free  energy   TOTEN  =       -42.88703709 eV

  energy  without entropy=      -42.88703709  energy(sigma->0) =      -42.88703709

 d Force = 0.2162514E-03[-0.134E-04, 0.446E-03]  d Energy =-0.6225565E-03 0.839E-03
 d Force =-0.2575726E+00[-0.256E+00,-0.259E+00]  d Ewald  = 0.5080775E+00-0.766E+00

 reached required accuracy - stopping structural energy minimisation

 total charge

[...]

 magnetization (x)

# of ion       s       p       d       tot
    1        0.000   0.003   0.194   0.197
    2        0.000   0.003   0.194   0.196
    3        0.001   0.005   0.000   0.006
    4        0.031   0.003   0.000   0.034
    5        0.004   0.073   0.000   0.077
    6        0.002   0.047   0.000   0.050
    7        0.004   0.068   0.000   0.072
    8        0.003   0.006   0.001   0.010
    9        0.002   0.005   0.001   0.008
   10        0.002   0.006   0.001   0.009
tot          0.051   0.218   0.391   0.659

 BZINTS: Fermi energy: -2.344313; 63.000000 electrons
         Band energy:-478.632133;  BLOECHL correction: -0.008820