 vasp.5.4.4.18Apr17-6-g9f103f2a35 (build May  1 2020 15:48:39) complex
 executed on             LinuxGNU date 2020.07.04  05:10:56

 INCAR:
 POTCAR:   PAW_PBE Fe 06Sep2000
 POTCAR:   PAW_PBE Ge 05Jan2001
 POTCAR:    PAW_PBE P 17Jan2003
 POTCAR:   PAW_PBE Te 08Apr2002

 POTCAR:   PAW_PBE Fe 06Sep2000
   VRHFIN =Fe:  d7 s1

   TITEL  = PAW_PBE Fe 06Sep2000
   POMASS =   55.847; ZVAL   =    8.000    mass and valenz
   ENMAX  =  267.883; ENMIN  =  200.912 eV
   QCUT   =   -4.437; QGAM   =    8.874    optimization parameters

   Description
     l     E      TYP  RCUT    TYP  RCUT
     2   .000     23  2.300
     2   .000     23  2.300
     0   .000     23  2.300
     0   .000     23  2.300
     1  -.200     23  2.300
     1   .000     23  2.300
     3   .000      7   .000

 POTCAR:   PAW_PBE Ge 05Jan2001
   VRHFIN =Ge: s2p2

   TITEL  = PAW_PBE Ge 05Jan2001
   POMASS =   72.610; ZVAL   =    4.000    mass and valenz
   ENMAX  =  173.807; ENMIN  =  130.355 eV
   QCUT   =   -3.574; QGAM   =    7.148    optimization parameters

[...]

 POTCAR:    PAW_PBE P 17Jan2003
   VRHFIN =P : s2p3

   TITEL  = PAW_PBE P 17Jan2003
   POMASS =   30.974; ZVAL   =    5.000    mass and valenz
   ENMAX  =  270.000; ENMIN  =  191.280 eV
   QCUT   =   -4.330; QGAM   =    8.659    optimization parameters

[...]

 POTCAR:   PAW_PBE Te 08Apr2002
   VRHFIN =Te: s2p4

   TITEL  = PAW_PBE Te 08Apr2002
   POMASS =  127.600; ZVAL   =    6.000    mass and valenz
   ENMAX  =  174.982; ENMIN  =  131.236 eV
   QCUT   =   -3.586; QGAM   =    7.172    optimization parameters

   Description
     l     E      TYP  RCUT    TYP  RCUT
     0   .000     23  2.300
     0   .000     23  2.300
     1   .000     23  2.300
     1   .000     23  2.300
     2   .000     23  2.300
     3  -.100     23  2.300

 Optimization of the real space projectors (new method)

 maximal supplied QI-value         = 16.25
 optimisation between [QCUT,QGAM] = [ 11.54, 23.24] = [ 37.28,151.24] Ry
 Optimized for a Real-space Cutoff    1.53 Angstroem

   l    n(q)    QCUT    max X(q) W(low)/X(q) W(high)/X(q)  e(spline)
   2     10    11.539     4.378    0.86E-05    0.15E-04    0.46E-07
   2     10    11.539    23.237    0.11E-03    0.14E-03    0.22E-06
   0     11    11.539    17.641    0.19E-04    0.14E-05    0.18E-07
   0     11    11.539    50.908    0.43E-04    0.16E-04    0.30E-06
   1     10    11.539     6.148    0.11E-04    0.38E-05    0.26E-07
   1     10    11.539     8.345    0.44E-04    0.25E-04    0.11E-06
 Optimization of the real space projectors (new method)

[...]

   l    n(q)    QCUT    max X(q) W(low)/X(q) W(high)/X(q)  e(spline)
   0      8    11.508     6.651    0.19E-04    0.31E-05    0.49E-08
   0      8    11.508    90.285    0.95E-04    0.17E-03    0.51E-07
   1      8    11.508     4.328    0.14E-04    0.32E-04    0.22E-07
   1      8    11.508    54.583    0.16E-03    0.71E-04    0.89E-07
 Optimization of the real space projectors (new method)

 maximal supplied QI-value         = 16.25
 optimisation between [QCUT,QGAM] = [ 11.54, 23.24] = [ 37.28,151.24] Ry
 Optimized for a Real-space Cutoff    1.36 Angstroem

   l    n(q)    QCUT    max X(q) W(low)/X(q) W(high)/X(q)  e(spline)
   0      9    11.539     7.090    0.13E-04    0.25E-05    0.51E-08
   0      9    11.539   101.654    0.53E-04    0.69E-04    0.12E-06
   1      9    11.539     5.276    0.20E-04    0.98E-05    0.24E-07
   1      9    11.539    81.891    0.24E-03    0.13E-04    0.15E-06
   2      9    11.539     5.599    0.30E-04    0.97E-04    0.54E-07

 PAW_PBE Fe 06Sep2000                   :
 PAW_PBE Ge 05Jan2001                   :
  PAW_PBE P 17Jan2003                   :
 PAW_PBE Te 08Apr2002                   :

 POSCAR: Fe2 Ge P Te6
  positions in direct lattice
  velocities in cartesian coordinates
 exchange correlation table for  LEXCH =       42
   RHO(1)=    0.500       N(1)  =     2000
   RHO(2)=  100.500       N(2)  =     4000

 ion  position               nearest neighbor table
   1  0.333  0.333  0.500-   6 2.78   5 2.78   7 2.78   8 2.78  10 2.78   9 2.78
   2  0.667  0.667  0.500-   9 2.78   8 2.78  10 2.78   5 2.78   7 2.78   6 2.78
   3  0.000  0.000  0.448-   4 2.43   8 2.63  10 2.63   9 2.63
   4  0.000  0.000  0.552-   3 2.43   5 2.63   7 2.63   6 2.63
   5  0.626  0.000  0.574-   4 2.63   1 2.78   2 2.78
   6  0.000  0.373  0.574-   4 2.63   1 2.78   2 2.78
   7  0.373  0.626  0.574-   4 2.63   1 2.78   2 2.78
   8  0.374  1.000  0.426-   3 2.63   2 2.78   1 2.78
   9  1.000  0.627  0.426-   3 2.63   2 2.78   1 2.78
  10  0.627  0.374  0.426-   3 2.63   2 2.78   1 2.78

  LATTYP: Found a hexagonal cell.
 ALAT       =     6.9077769333
 C/A-ratio  =     3.3939410937

  Lattice vectors:

 A1 = (   3.4538890000,  -5.9823100000,   0.0000000000)
 A2 = (  -6.9077770000,   0.0000000000,   0.0000000000)
 A3 = (   0.0000000000,   0.0000000000, -23.4445880000)

Analysis of symmetry for initial positions (statically):
 Subroutine PRICEL returns:
 Original cell was already a primitive cell.

 Routine SETGRP: Setting up the symmetry group for a
 hexagonal supercell.

 Subroutine GETGRP returns: Found  3 space group operations
 (whereof  3 operations were pure point group operations)
 out of a pool of 24 trial point group operations.

The static configuration has the point symmetry C_3 .

Analysis of symmetry for dynamics (positions and initial velocities):
 Subroutine PRICEL returns:
 Original cell was already a primitive cell.

[...]

The dynamic configuration has the point symmetry C_3 .

Analysis of constrained symmetry for selective dynamics:
 Subroutine PRICEL returns:
 Original cell was already a primitive cell.

[...]

The constrained configuration has the point symmetry C_3 .

Analysis of structural, dynamic, and magnetic symmetry:
 Subroutine PRICEL returns:
 Original cell was already a primitive cell.

 Routine SETGRP: Setting up the symmetry group for a
 hexagonal supercell.

 Subroutine GETGRP returns: Found  3 space group operations
 (whereof  3 operations were pure point group operations)
 out of a pool of 24 trial point group operations.

The magnetic configuration has the point symmetry C_3 .

 Subroutine INISYM returns: Found  3 space group operations
 (whereof  3 operations are pure point group operations),
 and found     1 'primitive' translations

 KPOINTS: Kpoints from vasprun.xml

Automatic generation of k-mesh.
Space group operators:
 irot       det(A)        alpha          n_x          n_y          n_z        tau_x        tau_y        tau_z
    1     1.000000     0.000000     1.000000     0.000000     0.000000     0.000000     0.000000     0.000000
    2     1.000000   120.000000     0.000000     0.000000     1.000000     0.000000     0.000000     0.000000
    3     1.000000   120.000000     0.000000     0.000000    -1.000000     0.000000     0.000000     0.000000

 Subroutine IBZKPT returns following result:

 Found      5 irreducible k-points:

 Following reciprocal coordinates:
            Coordinates               Weight
  0.000000  0.000000  0.000000      1.000000
  0.200000  0.000000  0.000000      6.000000
  0.400000  0.000000  0.000000      6.000000
  0.400000  0.200000  0.000000      6.000000
 -0.400000  0.200000  0.000000      6.000000

 Following cartesian coordinates:
            Coordinates               Weight
  0.000000  0.000000  0.000000      1.000000
  0.028953 -0.016716  0.000000      6.000000
  0.057906 -0.033432  0.000000      6.000000
  0.057906  0.000000  0.000000      6.000000
 -0.057906  0.066864  0.000000      6.000000

 TETIRR: Found     15 inequivalent tetrahedra from      150

 SYSTEM =  unknown system
 POSCAR =  Fe2 Ge P Te6

 Startparameter for this run:
   NWRITE =      2    write-flag & timer
   PREC   = accura    normal or accurate (medium, high low for compatibility)
   ISTART =      0    job   : 0-new  1-cont  2-samecut
   ICHARG =      2    charge: 1-file 2-atom 10-const
   ISPIN  =      2    spin polarized calculation?
   LNONCOLLINEAR =      F non collinear calculations
   LSORBIT =      F    spin-orbit coupling
   INIWAV =      1    electr: 0-lowe 1-rand  2-diag
   LASPH  =      F    aspherical Exc in radial PAW
   METAGGA=      F    non-selfconsistent MetaGGA calc.

 Electronic Relaxation 1
   ENCUT  =  520.0 eV  38.22 Ry    6.18 a.u.  12.84 12.84 43.59*2*pi/ulx,y,z
   ENINI  =  520.0     initial cutoff
   ENAUG  =  511.4 eV  augmentation charge cutoff
   NELM   =    400;   NELMIN=  2; NELMDL=  0     # of ELM steps
   EDIFF  = 0.1E-03   stopping-criterion for ELM
   LREAL  =      T    real-space projection
   NLSPLINE    = F    spline interpolate recip. space projectors
   LCOMPAT=      F    compatible to vasp.4.4
   GGA_COMPAT  = T    GGA compatible to vasp.4.4-vasp.4.6
   LMAXPAW     = -100 max onsite density
   LMAXMIX     =    2 max onsite mixed and CHGCAR
   VOSKOWN=      0    Vosko Wilk Nusair interpolation
   ROPT   =   -0.00025  -0.00025  -0.00025  -0.00025
 Ionic relaxation
   EDIFFG = 0.1E-02   stopping-criterion for IOM
   NSW    =     99    number of steps for IOM
   NBLOCK =      1;   KBLOCK =     99    inner block; outer block
   IBRION =      2    ionic relax: 0-MD 1-quasi-New 2-CG
   NFREE  =      1    steps in history (QN), initial steepest desc. (CG)
   ISIF   =      3    stress and relaxation
   IWAVPR =     11    prediction:  0-non 1-charg 2-wave 3-comb
   ISYM   =      2    0-nonsym 1-usesym 2-fastsym
   LCORR  =      T    Harris-Foulkes like correction to forces

   POTIM  = 0.5000    time-step for ionic-motion
   TEIN   =    0.0    initial temperature
   TEBEG  =    0.0;   TEEND  =   0.0 temperature during run
   SMASS  =  -3.00    Nose mass-parameter (am)
   estimated Nose-frequenzy (Omega)   =  0.10E-29 period in steps =****** mass=  -0.109E-26a.u.
   SCALEE = 1.0000    scale energy and forces
   NPACO  =    256;   APACO  = 16.0  distance and # of slots for P.C.
   PSTRESS=    0.0 pullay stress

  Mass of Ions in am
   POMASS =  55.85 72.61 30.97127.60
  Ionic Valenz
   ZVAL   =   8.00  4.00  5.00  6.00
  Atomic Wigner-Seitz radii
  virtual crystal weights
   VCA    =   1.00  1.00  1.00  1.00
   NELECT =      61.0000    total number of electrons
   NUPDOWN=      -1.0000    fix difference up-down

 DOS related values:
   EMIN   =  10.00;   EMAX   =-10.00  energy-range for DOS
   EFERMI =   0.00
   ISMEAR =    -5;   SIGMA  =   0.05  broadening in eV -4-tet -1-fermi 0-gaus

 Electronic relaxation 2 (details)
   IALGO  =     38    algorithm
   LDIAG  =      T    sub-space diagonalisation (order eigenvalues)
   LSUBROT=      F    optimize rotation matrix (better conditioning)
   TURBO    =      0    0=normal 1=particle mesh
   IRESTART =      0    0=no restart 2=restart with 2 vectors
   NREBOOT  =      0    no. of reboots
   NMIN     =      0    reboot dimension
   EREF     =   0.00    reference energy to select bands
   IMIX   =      4    mixing-type and parameters
     AMIX     =   0.40;   BMIX     =  1.00
     AMIX_MAG =   1.60;   BMIX_MAG =  1.00
     AMIN     =   0.01
     WC   =   100.;   INIMIX=   1;  MIXPRE=   1;  MAXMIX= -45

 Intra band minimization:
   WEIMIN = 0.0010     energy-eigenvalue tresh-hold
   EBREAK =  0.52E-06  absolut break condition
[...]
  n-local   675.05546   674.34951   694.64663    -0.56266     0.62866     0.43098
  augment   -88.93087   -88.93063  -100.38895    -0.00007    -0.00043     0.00029
  Kinetic   524.44456   518.72868   543.40759    -3.48967    -1.56400    -0.93215
  Fock        0.00000     0.00000     0.00000     0.00000     0.00000     0.00000
  Total      -5.28953    -5.28953    -5.29714     0.00000     0.00000     0.00000
  in kB      -8.74738    -8.74738    -8.75996     0.00001     0.00000     0.00000

 VOLUME and BASIS-vectors are now :
  energy-cutoff  :      520.00
  volume of cell :      968.84
      direct lattice vectors                 reciprocal lattice vectors
     6.907777000 -0.000000000  0.000000000     0.144764372 -0.083579742  0.000000000
     3.453888000  5.982310000  0.000000000     0.000000000  0.167159509 -0.000000000
     0.000000000  0.000000000 23.444588000    -0.000000000  0.000000000  0.042653767

[...]

 FORCES acting on ions
    electron-ion (+dipol)            ewald-force                    non-local-force                 convergence-correction
   0.150E-03 0.651E-04 0.794E+01   0.473E-03 0.283E-03 -.804E+01   -.139E-16 0.278E-16 0.191E+00   -.402E-07 -.525E-07 0.725E-02
   -.137E-03 -.826E-04 0.613E+01   -.473E-03 -.283E-03 -.623E+01   0.000E+00 0.000E+00 0.182E+00   -.625E-07 0.550E-07 0.725E-02
   -.214E-04 -.221E-04 0.185E+03   -.141E-03 -.779E-04 -.184E+03   0.694E-17 0.000E+00 0.690E-01   -.269E-07 -.170E-07 -.128E-01
   0.379E-04 0.160E-04 -.216E+03   0.176E-03 0.974E-04 0.215E+03   -.139E-16 -.347E-16 0.584E+00   0.345E-07 0.177E-07 0.226E-01
   -.862E+01 0.145E+00 -.384E+03   0.589E+01 -.145E+00 0.388E+03   0.295E+01 -.486E-02 -.421E+01   0.250E-02 0.127E-02 0.391E-01
   0.444E+01 0.739E+01 -.384E+03   -.307E+01 -.503E+01 0.388E+03   -.148E+01 -.255E+01 -.421E+01   -.149E-03 -.280E-02 0.391E-01
   0.418E+01 -.754E+01 -.384E+03   -.282E+01 0.517E+01 0.388E+03   -.147E+01 0.256E+01 -.421E+01   -.235E-02 0.153E-02 0.391E-01
   0.157E+02 -.158E+00 0.389E+03   -.125E+02 0.152E+00 -.393E+03   -.306E+01 0.139E-01 0.428E+01   -.320E-02 0.140E-02 -.312E-01
   -.800E+01 -.135E+02 0.389E+03   0.638E+01 0.107E+02 -.393E+03   0.154E+01 0.264E+01 0.428E+01   0.282E-02 0.207E-02 -.312E-01
   -.773E+01 0.137E+02 0.389E+03   0.612E+01 -.109E+02 -.393E+03   0.152E+01 -.266E+01 0.428E+01   0.384E-03 -.347E-02 -.312E-01
   0.524E-04 -.179E-05 -.128E+01   0.799E-14 -.355E-14 -.568E-13   -.222E-15 0.000E+00 0.123E+01   -.946E-07 0.407E-08 0.482E-01

 POSITION                                       TOTAL-FORCE (eV/Angst)
      3.45388      1.99410     11.72054        -0.000000      0.000000      0.091862
      6.90778      3.98821     11.72405        -0.000000     -0.000000      0.092104
      0.00000      0.00000     10.50824        -0.000000     -0.000000      0.276464
      0.00000      0.00000     12.93635        -0.000000      0.000000      0.160797
      4.32819      0.00251     13.45138         0.216725     -0.002759     -0.615468
      1.29198      2.23274     13.45138        -0.110752     -0.186310     -0.615468
      4.74152      3.74706     13.45138        -0.105973      0.189069     -0.615468
      6.03348      5.97980      9.99321         0.163490      0.008674      0.408393
      9.06969      3.74957      9.99321        -0.074233     -0.145923      0.408393
      5.62015      2.23525      9.99321        -0.089257      0.137249      0.408393
    total drift:                                0.000052     -0.000002      0.002319

  FREE ENERGIE OF THE ION-ELECTRON SYSTEM (eV)
  free  energy   TOTEN  =       -37.73672810 eV

  energy  without entropy=      -37.73672810  energy(sigma->0) =      -37.73672810

[...]

 d Force = 0.2719299E-02[ 0.343E-02, 0.201E-02]  d Energy = 0.2896666E+00-0.287E+00
 d Force = 0.1609337E+01[ 0.165E+01, 0.156E+01]  d Ewald  =-0.1880433E+03 0.190E+03

 Steepest descent step on ions:
 trial-energy change:   -0.289667  1 .order   -0.230294   -0.407389   -0.053199
  (g-gl).g = 0.407E+00      g.g   = 0.407E+00  gl.gl    = 0.000E+00
 g(Force)  = 0.206E-02   g(Stress)= 0.405E+00 ortho     = 0.000E+00
 gamma     =   0.00000
 trial     =   1.00000
 opt step  =   1.07227  (harmonic =   1.15020) maximal distance =0.00831785
 next E    =   -38.028339   (d E  =  -0.29161)

[...]

 d Force = 0.2555457E-03[ 0.257E-03, 0.254E-03]  d Energy = 0.4275172E-02-0.402E-02
 d Force = 0.1226812E+00[ 0.123E+00, 0.122E+00]  d Ewald  =-0.1396703E+02 0.141E+02

[...]

 d Force =-0.1187286E-03[-0.113E-03,-0.125E-03]  d Energy = 0.1378838E-01-0.139E-01
 d Force =-0.5960729E-01[-0.595E-01,-0.597E-01]  d Ewald  = 0.6766486E+01-0.683E+01

[...]

 Broyden mixing:
  rms(total) = 0.23726E+00    rms(broyden)= 0.19329E+00
  rms(prec ) = 0.20296E+00
  weight for this iteration     100.00
  WARNING: grid for Broyden might be to small

[...]

 d Force = 0.7834436E-02[ 0.922E-02, 0.645E-02]  d Energy = 0.3368505E+00-0.329E+00
 d Force = 0.3933393E+01[ 0.396E+01, 0.391E+01]  d Ewald  = 0.3757978E+03-0.372E+03

 Conjugate gradient step on ions:
 trial-energy change:   -0.336851  1 .order   -0.152539   -0.175876   -0.129203
  (g-gl).g = 0.110E+00      g.g   = 0.161E+00  gl.gl    = 0.407E+00
 g(Force)  = 0.574E-02   g(Stress)= 0.155E+00 ortho     = 0.509E-01
 gamma     =   0.26993
 trial     =   1.00746
 opt step  =   3.79636  (harmonic =   3.79636) maximal distance =0.06804756
 next E    =   -38.375831   (d E  =  -0.33137)

[...]

 d Force = 0.7218177E-01[ 0.120E+00, 0.240E-01]  d Energy =-0.2217539E+00 0.294E+00
 d Force = 0.1044897E+02[ 0.106E+02, 0.103E+02]  d Ewald  = 0.1036571E+04-0.103E+04

[...]

 eigenvalue-minimisations  :  1072
 total energy-change (2. order) : 0.3025532E-02  ( 0.1915051E-05)
 number of electron      60.9999993 magnetization       1.0061425
 augmentation part        0.1348574 magnetization       0.8545794

[...]

 d Force =-0.6703957E-01[-0.400E-01,-0.941E-01]  d Energy = 0.2619102E+00-0.329E+00
 d Force =-0.8206020E+01[-0.811E+01,-0.830E+01]  d Ewald  =-0.6897421E+03 0.682E+03

[...]

 d Force = 0.1209939E-01[ 0.833E-02, 0.159E-01]  d Energy = 0.1144794E-01 0.651E-03
 d Force = 0.7334476E+01[ 0.735E+01, 0.731E+01]  d Ewald  = 0.1207185E+03-0.113E+03

[...]

 d Force = 0.5404884E-02[-0.242E-03, 0.111E-01]  d Energy = 0.1891617E-01-0.135E-01
 d Force = 0.9618848E+01[ 0.974E+01, 0.950E+01]  d Ewald  = 0.3769453E+02-0.281E+02

 Conjugate gradient step on ions:
 trial-energy change:   -0.018916  1 .order   -0.014579   -0.029977    0.000818
  (g-gl).g = 0.281E-01      g.g   = 0.219E-01  gl.gl    = 0.789E-01
 g(Force)  = 0.331E-02   g(Stress)= 0.186E-01 ortho     = 0.282E-02
 gamma     =   0.35562
 trial     =   1.30809
 opt step  =   1.28912  (harmonic =   1.27333) maximal distance =0.04048285
 next E    =   -38.510369   (d E  =  -0.01892)

[...]

 d Force = 0.2183170E-05[ 0.824E-06, 0.354E-05]  d Energy =-0.3281607E-04 0.350E-04
 d Force =-0.1425654E+00[-0.143E+00,-0.143E+00]  d Ewald  =-0.5537596E+00 0.411E+00

[...]

 d Force = 0.1027996E-04[ 0.722E-05, 0.133E-04]  d Energy = 0.4749287E-03-0.465E-03
 d Force =-0.2958107E-01[-0.294E-01,-0.298E-01]  d Ewald  = 0.5452840E+02-0.546E+02

 Steepest descent step on ions:
 trial-energy change:   -0.000475  1 .order   -0.000296   -0.002523    0.001931
  (g-gl).g = 0.612E-02      g.g   = 0.193E-02  gl.gl    = 0.219E-01
 g(Force)  = 0.102E-04   g(Stress)= 0.192E-02 ortho     =-0.140E-02
 gamma     =   0.00000
 trial     =   1.30429
 opt step  =   0.73878  (harmonic =   0.73878) maximal distance =0.00046242
 next E    =   -38.511045   (d E  =  -0.00071)

[...]

 eigenvalue-minimisations  :   784
 total energy-change (2. order) :-0.4772626E-02  (-0.1522261E-04)
 number of electron      60.9999998 magnetization       0.9992593
 augmentation part        0.1268800 magnetization       0.8020971

 Broyden mixing:
  rms(total) = 0.32012E-02    rms(broyden)= 0.31999E-02
  rms(prec ) = 0.35885E-02
  weight for this iteration     100.00

 eigenvalues of (default mixing * dielectric matrix)
  average eigenvalue GAMMA=   0.7334
  1.8701  0.7409  0.7409  0.1048  0.2103

[...]

--------------------------------------- Iteration     13(   7)  ---------------------------------------

[...]

 eigenvalue-minimisations  :   640
 total energy-change (2. order) : 0.1611501E-04  (-0.3407954E-05)
 number of electron      60.9999998 magnetization       0.9992593
 augmentation part        0.1268800 magnetization       0.8020971

 Free energy of the ion-electron system (eV)
  alpha Z        PSCENC =        19.31599190
  Ewald energy   TEWEN  =      6284.92064643
  -Hartree energ DENC   =     -8863.48314173
  -exchange      EXHF   =         0.00000000
  -V(xc)+E(xc)   XCENC  =      -172.16610894
  PAW double counting   =      1790.88374339    -1542.23294230
  entropy T*S    EENTRO =         0.00000000
  eigenvalues    EBANDS =      -378.79941982
  atomic energy  EATOM  =      2823.05018438
  Solvation  Ediel_sol  =         0.00000000
  free energy    TOTEN  =       -38.51104670 eV

  energy without entropy =      -38.51104670  energy(sigma->0) =      -38.51104670

 average (electrostatic) potential at core
  the test charge radii are     1.0103  1.1631  0.9587  1.1897
  (the norm of the test charge is              1.0000)
       1 -50.0812       2 -50.6315       3 -38.7205       4 -91.2163       5 -96.3929
       6 -96.3929       7 -96.3928       8 -96.1336       9 -96.1336      10 -96.1335

 E-fermi :  -1.5590     XC(G=0):  -3.6033     alpha+bet : -3.4324

[...]

 spin component 2

[...]

 k-point     5 :      -0.4000    0.2000    0.0000
  band No.  band energies     occupation
      1     -14.7383      1.00000
      2     -13.6344      1.00000
      3     -13.3117      1.00000
      4     -13.1756      1.00000
      5     -12.7270      1.00000
      6     -12.6069      1.00000
      7     -10.8442      1.00000
      8      -9.0765      1.00000
      9      -6.7741      1.00000
     10      -6.3526      1.00000
     11      -6.0380      1.00000
     12      -5.4677      1.00000
     13      -5.4415      1.00000
     14      -4.9080      1.00000
     15      -4.8122      1.00000
     16      -4.5575      1.00000
     17      -4.4643      1.00000
     18      -4.1649      1.00000
     19      -4.0354      1.00000
     20      -3.8495      1.00000
     21      -3.8053      1.00000
     22      -3.3976      1.00000
     23      -3.0728      1.00000
     24      -2.8218      1.00000
     25      -2.5597      1.00000
     26      -2.4909      1.00000
     27      -2.0791      1.00000
     28      -2.0204      1.00000
     29      -1.8518      1.00000
     30      -1.7727      1.00000
     31      -1.4294      0.00000
     32      -1.0993      0.00000
     33      -0.5327      0.00000
     34      -0.5027      0.00000
     35      -0.1657      0.00000
     36       0.0836      0.00000
     37       0.2399      0.00000
     38       0.5563      0.00000
     39       1.0797      0.00000
     40       1.5861      0.00000
     41       1.8929      0.00000
     42       1.9244      0.00000
     43       3.0792      0.00000
     44       3.2310      0.00000
     45       3.2414      0.00000
     46       3.4214      0.00000
     47       3.4265      0.00000
     48       4.0184      0.00000

[...]

 soft charge-density along one line, spin component           2
         0         1         2         3         4         5         6         7         8         9
 total charge-density along one line

------------------------ aborting loop because EDIFF is reached ----------------------------------------

[...]

  FORCE on cell =-STRESS in cart. coord.  units (eV):
  Direction    XX          YY          ZZ          XY          YZ          ZX
  Alpha Z    19.31599    19.31599    19.31599
  Ewald    8069.30972  8069.30704 -9853.69969    -0.00175    -0.00054    -0.00099
  Hartree  8540.49585  8540.49659 -8218.90973    -0.00015     0.00008     0.00013
  E(xc)    -253.66910  -253.66907  -253.08983     0.00001     0.00001     0.00002
  Local  -17492.59406-17492.59306 17156.00618     0.00158     0.00035     0.00066
  n-local   676.65052   676.39490   692.68601    -0.19602     0.23624     0.40371
  augment   -89.65142   -89.65130  -100.79925     0.00087     0.00004     0.00004
  Kinetic   532.09720   528.23911   558.15528    -3.00891     1.31112     1.22226
  Fock        0.00000     0.00000     0.00000     0.00000     0.00000     0.00000
  Total      -0.10255    -0.10255    -0.33504     0.00000     0.00000     0.00000
  in kB      -0.19521    -0.19521    -0.63775     0.00000     0.00000     0.00000

 VOLUME and BASIS-vectors are now :
  energy-cutoff  :      520.00
  volume of cell :      841.70
      direct lattice vectors                 reciprocal lattice vectors
     6.814550157 -0.000000301 -0.000000000     0.146744826 -0.084723166  0.000000000
     3.407274862  5.901573052  0.000000000     0.000000007  0.169446344 -0.000000000
    -0.000000000  0.000000000 20.929195312     0.000000000 -0.000000000  0.047780146

  length of vectors
     6.814550157  6.814549616 20.929195312     0.169446330  0.169446344  0.047780146

 FORCES acting on ions
    electron-ion (+dipol)            ewald-force                    non-local-force                 convergence-correction
   0.760E-04 0.330E-04 0.608E+01   0.558E-03 0.333E-03 -.628E+01   -.140E-16 0.279E-16 0.211E+00   0.499E-07 0.243E-06 -.115E-01
   -.686E-04 -.295E-04 0.683E+01   -.532E-03 -.319E-03 -.718E+01   -.279E-16 0.259E-18 0.382E+00   0.186E-06 -.340E-06 -.115E-01
   -.407E-04 -.270E-04 0.189E+03   -.142E-03 -.787E-04 -.188E+03   0.734E-17 0.291E-17 -.824E+00   0.642E-08 0.109E-07 0.800E-02
   0.447E-04 0.278E-04 -.242E+03   0.194E-03 0.108E-03 0.241E+03   -.263E-18 -.135E-16 0.538E+00   0.148E-08 0.105E-07 -.196E-01
   -.149E+02 0.929E+00 -.377E+03   0.107E+02 -.765E+00 0.382E+03   0.371E+01 0.134E-01 -.453E+01   -.892E-02 0.123E-01 -.275E-01
   0.828E+01 0.125E+02 -.377E+03   -.603E+01 -.891E+01 0.382E+03   -.184E+01 -.322E+01 -.453E+01   0.151E-01 0.157E-02 -.275E-01
   0.666E+01 -.134E+02 -.377E+03   -.470E+01 0.967E+01 0.382E+03   -.187E+01 0.320E+01 -.453E+01   -.619E-02 -.139E-01 -.275E-01
   0.217E+02 -.621E+00 0.390E+03   -.176E+02 0.743E+00 -.395E+03   -.342E+01 0.430E-01 0.488E+01   0.785E-02 0.119E-01 0.230E-01
   -.114E+02 -.185E+02 0.390E+03   0.942E+01 0.148E+02 -.395E+03   0.175E+01 0.294E+01 0.488E+01   0.640E-02 -.128E-01 0.230E-01
   -.103E+02 0.191E+02 0.390E+03   0.814E+01 -.156E+02 -.395E+03   0.167E+01 -.298E+01 0.488E+01   -.143E-01 0.834E-03 0.230E-01
   0.895E-04 0.711E-04 -.132E+01   0.355E-14 -.178E-14 -.114E-12   0.888E-15 0.000E+00 0.138E+01   0.279E-06 -.610E-07 -.481E-01

 POSITION                                       TOTAL-FORCE (eV/Angst)
      3.40727      1.96719     10.50456        -0.000000     -0.000000     -0.001280
      6.81455      3.93438     10.49447        -0.000000      0.000000      0.014085
     -0.00000      0.00000      9.38080        -0.000000      0.000000      0.109428
     -0.00000      0.00000     11.72060        -0.000000      0.000000      0.023841
      4.26977      0.00248     12.00817        -0.511582      0.190069     -0.036830
      1.27454      2.20261     12.00817         0.420395      0.348009     -0.036830
      4.67752      3.69649     12.00817         0.091187     -0.538078     -0.036830
      5.95205      5.89909      8.92103         0.694444      0.176287     -0.011862
      8.94729      3.69896      8.92103        -0.194553     -0.689550     -0.011862
      5.54430      2.20508      8.92103        -0.499891      0.513263     -0.011862
    total drift:                                0.000090      0.000071      0.008434

  FREE ENERGIE OF THE ION-ELECTRON SYSTEM (eV)
  free  energy   TOTEN  =       -38.51104670 eV

  energy  without entropy=      -38.51104670  energy(sigma->0) =      -38.51104670

 d Force =-0.3611971E-05[-0.409E-05,-0.314E-05]  d Energy = 0.2413380E-03-0.245E-03
 d Force = 0.1280270E-01[ 0.128E-01, 0.128E-01]  d Ewald  =-0.2358322E+02 0.236E+02

 reached required accuracy - stopping structural energy minimisation

 total charge

[...]

 magnetization (x)

# of ion       s       p       d       tot
    1       -0.001   0.004  -0.344  -0.342
    2        0.013   0.010   1.392   1.414
    3       -0.000   0.004   0.000   0.004
    4        0.001   0.004   0.000   0.006
    5        0.001  -0.015   0.000  -0.013
    6        0.000  -0.012   0.000  -0.011
    7        0.001  -0.019   0.001  -0.017
    8        0.001  -0.020   0.000  -0.018
    9        0.000  -0.012   0.000  -0.011
   10        0.000  -0.017  -0.000  -0.017
tot          0.017  -0.071   1.049   0.995

 BZINTS: Fermi energy: -1.558987; 61.000000 electrons
         Band energy:-378.799420;  BLOECHL correction: -0.004769