 vasp.5.4.4.18Apr17-6-g9f103f2a35 (build May  1 2020 15:48:39) complex
 executed on             LinuxGNU date 2020.06.16  04:52:04

 INCAR:
 POTCAR:   PAW_PBE Cr 06Sep2000
 POTCAR:   PAW_PBE Si 05Jan2001
 POTCAR:    PAW_PBE P 17Jan2003
 POTCAR:   PAW_PBE Se 06Sep2000

 POTCAR:   PAW_PBE Cr 06Sep2000
   VRHFIN =Cr : d5 s1

   TITEL  = PAW_PBE Cr 06Sep2000
   POMASS =   51.996; ZVAL   =    6.000    mass and valenz
   ENMAX  =  227.082; ENMIN  =  170.311 eV
   QCUT   =   -4.085; QGAM   =    8.171    optimization parameters

   Description
     l     E      TYP  RCUT    TYP  RCUT
     2   .000     23  2.500
     2   .000     23  2.500
     0   .000     23  2.500
     0   .000     23  2.500
     1  -.400     23  2.500
     1  2.000     23  2.500
     3   .000      7   .000

 POTCAR:   PAW_PBE Si 05Jan2001
   VRHFIN =Si: s2p2

   TITEL  = PAW_PBE Si 05Jan2001
   POMASS =   28.085; ZVAL   =    4.000    mass and valenz
   ENMAX  =  245.345; ENMIN  =  184.009 eV
   QCUT   =   -4.246; QGAM   =    8.493    optimization parameters

[...]

 POTCAR:    PAW_PBE P 17Jan2003
   VRHFIN =P : s2p3

   TITEL  = PAW_PBE P 17Jan2003
   POMASS =   30.974; ZVAL   =    5.000    mass and valenz
   ENMAX  =  270.000; ENMIN  =  191.280 eV
   QCUT   =   -4.330; QGAM   =    8.659    optimization parameters

[...]

 POTCAR:   PAW_PBE Se 06Sep2000
   VRHFIN =Se: s2p4

   TITEL  = PAW_PBE Se 06Sep2000
   POMASS =   78.960; ZVAL   =    6.000    mass and valenz
   ENMAX  =  211.534; ENMIN  =  158.651 eV
   QCUT   =   -3.943; QGAM   =    7.886    optimization parameters

   Description
     l     E      TYP  RCUT    TYP  RCUT
     0   .000     23  2.100
     0   .000     23  2.100
     1   .000     23  2.100
     1   .000     23  2.100
     2   .000     23  2.100
     3  -.100      7  2.100

 Optimization of the real space projectors (new method)

 maximal supplied QI-value         = 15.12
 optimisation between [QCUT,QGAM] = [ 11.64, 23.28] = [ 37.95,151.78] Ry
 Optimized for a Real-space Cutoff    1.49 Angstroem

   l    n(q)    QCUT    max X(q) W(low)/X(q) W(high)/X(q)  e(spline)
   2      9    11.641     4.777    0.25E-04    0.21E-05    0.63E-07
   2      9    11.641    31.132    0.13E-03    0.22E-03    0.64E-06
   0     10    11.641    20.416    0.11E-04    0.74E-05    0.19E-07
   0     10    11.641    45.408    0.10E-03    0.85E-04    0.30E-06
   1     10    11.641     7.848    0.22E-04    0.23E-04    0.56E-07
   1     10    11.641     9.895    0.85E-04    0.54E-04    0.16E-06
 Optimization of the real space projectors (new method)

[...]

   l    n(q)    QCUT    max X(q) W(low)/X(q) W(high)/X(q)  e(spline)
   0      8    11.508     6.651    0.19E-04    0.31E-05    0.49E-08
   0      8    11.508    90.285    0.95E-04    0.17E-03    0.51E-07
   1      8    11.508     4.328    0.14E-04    0.32E-04    0.22E-07
   1      8    11.508    54.583    0.16E-03    0.71E-04    0.89E-07
 Optimization of the real space projectors (new method)

 maximal supplied QI-value         = 17.95
 optimisation between [QCUT,QGAM] = [ 11.67, 23.34] = [ 38.13,152.52] Ry
 Optimized for a Real-space Cutoff    1.25 Angstroem

   l    n(q)    QCUT    max X(q) W(low)/X(q) W(high)/X(q)  e(spline)
   0      9    11.669     6.499    0.13E-04    0.81E-05    0.11E-07
   0      9    11.669    52.623    0.18E-03    0.46E-04    0.72E-07
   1      8    11.669     4.229    0.40E-04    0.45E-04    0.31E-07
   1      8    11.669    29.991    0.22E-03    0.36E-03    0.10E-06
   2      8    11.669     3.719    0.19E-03    0.46E-04    0.50E-07

 PAW_PBE Cr 06Sep2000                   :
 PAW_PBE Si 05Jan2001                   :
  PAW_PBE P 17Jan2003                   :
 PAW_PBE Se 06Sep2000                   :

 POSCAR: Cr2 Si P Se6
  positions in direct lattice
  velocities in cartesian coordinates
 exchange correlation table for  LEXCH =       42
   RHO(1)=    0.500       N(1)  =     2000
   RHO(2)=  100.500       N(2)  =     4000

 ion  position               nearest neighbor table
   1  0.333  0.333  0.500-   6 2.78   5 2.78   7 2.78   8 2.78  10 2.78   9 2.78
   2  0.667  0.667  0.500-   9 2.78   8 2.78  10 2.78   5 2.78   7 2.78   6 2.78
   3  0.000  0.000  0.448-   4 2.43   8 2.63  10 2.63   9 2.63
   4  0.000  0.000  0.552-   3 2.43   5 2.63   7 2.63   6 2.63
   5  0.626  0.000  0.574-   4 2.63   1 2.78   2 2.78
   6  0.000  0.373  0.574-   4 2.63   1 2.78   2 2.78
   7  0.373  0.626  0.574-   4 2.63   1 2.78   2 2.78
   8  0.374  1.000  0.426-   3 2.63   2 2.78   1 2.78
   9  1.000  0.627  0.426-   3 2.63   2 2.78   1 2.78
  10  0.627  0.374  0.426-   3 2.63   2 2.78   1 2.78

  LATTYP: Found a hexagonal cell.
 ALAT       =     6.9077769333
 C/A-ratio  =     3.3939410937

  Lattice vectors:

 A1 = (   3.4538890000,  -5.9823100000,   0.0000000000)
 A2 = (  -6.9077770000,   0.0000000000,   0.0000000000)
 A3 = (   0.0000000000,   0.0000000000, -23.4445880000)

Analysis of symmetry for initial positions (statically):
 Subroutine PRICEL returns:
 Original cell was already a primitive cell.

 Routine SETGRP: Setting up the symmetry group for a
 hexagonal supercell.

 Subroutine GETGRP returns: Found  3 space group operations
 (whereof  3 operations were pure point group operations)
 out of a pool of 24 trial point group operations.

The static configuration has the point symmetry C_3 .

Analysis of symmetry for dynamics (positions and initial velocities):
 Subroutine PRICEL returns:
 Original cell was already a primitive cell.

[...]

The dynamic configuration has the point symmetry C_3 .

Analysis of constrained symmetry for selective dynamics:
 Subroutine PRICEL returns:
 Original cell was already a primitive cell.

[...]

The constrained configuration has the point symmetry C_3 .

Analysis of structural, dynamic, and magnetic symmetry:
 Subroutine PRICEL returns:
 Original cell was already a primitive cell.

 Routine SETGRP: Setting up the symmetry group for a
 hexagonal supercell.

 Subroutine GETGRP returns: Found  3 space group operations
 (whereof  3 operations were pure point group operations)
 out of a pool of 24 trial point group operations.

The magnetic configuration has the point symmetry C_3 .

 Subroutine INISYM returns: Found  3 space group operations
 (whereof  3 operations are pure point group operations),
 and found     1 'primitive' translations

 KPOINTS: Kpoints from vasprun.xml

Automatic generation of k-mesh.
Space group operators:
 irot       det(A)        alpha          n_x          n_y          n_z        tau_x        tau_y        tau_z
    1     1.000000     0.000000     1.000000     0.000000     0.000000     0.000000     0.000000     0.000000
    2     1.000000   120.000000     0.000000     0.000000     1.000000     0.000000     0.000000     0.000000
    3     1.000000   120.000000     0.000000     0.000000    -1.000000     0.000000     0.000000     0.000000

 Subroutine IBZKPT returns following result:

 Found      5 irreducible k-points:

 Following reciprocal coordinates:
            Coordinates               Weight
  0.000000  0.000000  0.000000      1.000000
  0.200000  0.000000  0.000000      6.000000
  0.400000  0.000000  0.000000      6.000000
  0.400000  0.200000  0.000000      6.000000
 -0.400000  0.200000  0.000000      6.000000

 Following cartesian coordinates:
            Coordinates               Weight
  0.000000  0.000000  0.000000      1.000000
  0.028953 -0.016716  0.000000      6.000000
  0.057906 -0.033432  0.000000      6.000000
  0.057906  0.000000  0.000000      6.000000
 -0.057906  0.066864  0.000000      6.000000

 TETIRR: Found     15 inequivalent tetrahedra from      150

 SYSTEM =  unknown system
 POSCAR =  Cr2 Si P Se6

 Startparameter for this run:
   NWRITE =      2    write-flag & timer
   PREC   = accura    normal or accurate (medium, high low for compatibility)
   ISTART =      0    job   : 0-new  1-cont  2-samecut
   ICHARG =      2    charge: 1-file 2-atom 10-const
   ISPIN  =      2    spin polarized calculation?
   LNONCOLLINEAR =      F non collinear calculations
   LSORBIT =      F    spin-orbit coupling
   INIWAV =      1    electr: 0-lowe 1-rand  2-diag
   LASPH  =      F    aspherical Exc in radial PAW
   METAGGA=      F    non-selfconsistent MetaGGA calc.

 Electronic Relaxation 1
   ENCUT  =  520.0 eV  38.22 Ry    6.18 a.u.  12.84 12.84 43.59*2*pi/ulx,y,z
   ENINI  =  520.0     initial cutoff
   ENAUG  =  446.8 eV  augmentation charge cutoff
   NELM   =    400;   NELMIN=  2; NELMDL=  0     # of ELM steps
   EDIFF  = 0.1E-03   stopping-criterion for ELM
   LREAL  =      T    real-space projection
   NLSPLINE    = F    spline interpolate recip. space projectors
   LCOMPAT=      F    compatible to vasp.4.4
   GGA_COMPAT  = T    GGA compatible to vasp.4.4-vasp.4.6
   LMAXPAW     = -100 max onsite density
   LMAXMIX     =    2 max onsite mixed and CHGCAR
   VOSKOWN=      0    Vosko Wilk Nusair interpolation
   ROPT   =   -0.00025  -0.00025  -0.00025  -0.00025
 Ionic relaxation
   EDIFFG = 0.1E-02   stopping-criterion for IOM
   NSW    =     99    number of steps for IOM
   NBLOCK =      1;   KBLOCK =     99    inner block; outer block
   IBRION =      2    ionic relax: 0-MD 1-quasi-New 2-CG
   NFREE  =      1    steps in history (QN), initial steepest desc. (CG)
   ISIF   =      3    stress and relaxation
   IWAVPR =     11    prediction:  0-non 1-charg 2-wave 3-comb
   ISYM   =      2    0-nonsym 1-usesym 2-fastsym
   LCORR  =      T    Harris-Foulkes like correction to forces

   POTIM  = 0.5000    time-step for ionic-motion
   TEIN   =    0.0    initial temperature
   TEBEG  =    0.0;   TEEND  =   0.0 temperature during run
   SMASS  =  -3.00    Nose mass-parameter (am)
   estimated Nose-frequenzy (Omega)   =  0.10E-29 period in steps =****** mass=  -0.109E-26a.u.
   SCALEE = 1.0000    scale energy and forces
   NPACO  =    256;   APACO  = 16.0  distance and # of slots for P.C.
   PSTRESS=    0.0 pullay stress

  Mass of Ions in am
   POMASS =  52.00 28.09 30.97 78.96
  Ionic Valenz
   ZVAL   =   6.00  4.00  5.00  6.00
  Atomic Wigner-Seitz radii
  virtual crystal weights
   VCA    =   1.00  1.00  1.00  1.00
   NELECT =      57.0000    total number of electrons
   NUPDOWN=      -1.0000    fix difference up-down

 DOS related values:
   EMIN   =  10.00;   EMAX   =-10.00  energy-range for DOS
   EFERMI =   0.00
   ISMEAR =    -5;   SIGMA  =   0.05  broadening in eV -4-tet -1-fermi 0-gaus

 Electronic relaxation 2 (details)
   IALGO  =     38    algorithm
   LDIAG  =      T    sub-space diagonalisation (order eigenvalues)
   LSUBROT=      F    optimize rotation matrix (better conditioning)
   TURBO    =      0    0=normal 1=particle mesh
   IRESTART =      0    0=no restart 2=restart with 2 vectors
   NREBOOT  =      0    no. of reboots
   NMIN     =      0    reboot dimension
   EREF     =   0.00    reference energy to select bands
   IMIX   =      4    mixing-type and parameters
     AMIX     =   0.40;   BMIX     =  1.00
     AMIX_MAG =   1.60;   BMIX_MAG =  1.00
     AMIN     =   0.01
     WC   =   100.;   INIMIX=   1;  MIXPRE=   1;  MAXMIX= -45

 Intra band minimization:
   WEIMIN = 0.0010     energy-eigenvalue tresh-hold
   EBREAK =  0.52E-06  absolut break condition
[...]
 total charge-density along one line

[...]

------------------------ aborting loop because EDIFF is reached ----------------------------------------

 total charge

# of ion       s       p       d       tot
    1        0.279   0.298   4.095   4.672
    2        0.279   0.298   4.095   4.672
    3        0.797   0.652   0.000   1.449
    4        1.130   1.192   0.000   2.322
    5        1.494   2.194   0.019   3.708
    6        1.488   2.176   0.019   3.683
    7        1.493   2.189   0.019   3.701
    8        1.486   2.220   0.018   3.724
    9        1.483   2.208   0.018   3.709
   10        1.485   2.213   0.018   3.716
tot         11.413  15.640   8.303  35.356

 magnetization (x)

[...]

  FORCE on cell =-STRESS in cart. coord.  units (eV):
  Direction    XX          YY          ZZ          XY          YZ          ZX
  Alpha Z    30.28140    30.28140    30.28140
  Ewald    7704.79684  7704.79469 -9187.98168    -0.00106    -0.00039    -0.00072
  Hartree  8119.03728  8119.03767 -7919.58620    -0.00003     0.00005     0.00008
  E(xc)    -214.22516  -214.22518  -214.10317     0.00003     0.00000     0.00001
  Local  -16559.17988-16559.17912 16342.19310     0.00082     0.00020     0.00038
  n-local   312.54552   313.27961   321.63130     0.25829     0.21417     0.21359
  augment    18.05671    18.05688    14.92057    -0.00008    -0.00013     0.00011
  Kinetic   569.06447   565.55930   598.53229    -2.42081     0.36592     0.17705
  Fock        0.00000     0.00000     0.00000     0.00000     0.00000     0.00000
  Total     -21.00878   -21.00878   -14.11238     0.00000     0.00000    -0.00000
  in kB     -34.74255   -34.74254   -23.33786     0.00000     0.00000    -0.00000

 VOLUME and BASIS-vectors are now :
  energy-cutoff  :      520.00
  volume of cell :      968.84
      direct lattice vectors                 reciprocal lattice vectors
     6.907777000 -0.000000000  0.000000000     0.144764372 -0.083579742  0.000000000
     3.453888000  5.982310000  0.000000000     0.000000000  0.167159509 -0.000000000
     0.000000000  0.000000000 23.444588000    -0.000000000  0.000000000  0.042653767

[...]

 FORCES acting on ions
    electron-ion (+dipol)            ewald-force                    non-local-force                 convergence-correction
   -.741E-04 -.387E-04 0.636E+01   0.314E-03 0.187E-03 -.600E+01   0.000E+00 0.000E+00 -.775E-01   -.778E-06 -.445E-06 -.681E-02
   0.687E-04 0.441E-04 0.505E+01   -.314E-03 -.187E-03 -.471E+01   0.694E-17 0.000E+00 -.679E-01   0.776E-06 0.450E-06 -.679E-02
   -.176E-04 -.298E-04 0.173E+03   -.141E-03 -.779E-04 -.170E+03   0.694E-17 0.000E+00 -.194E+01   0.163E-06 0.832E-07 -.109E-01
   0.342E-04 0.330E-04 -.195E+03   0.176E-03 0.973E-04 0.197E+03   -.347E-17 0.000E+00 -.231E+01   -.240E-06 -.129E-06 0.258E-02
   0.233E+01 0.145E+00 -.345E+03   -.353E+01 -.143E+00 0.346E+03   0.161E+01 -.870E-02 -.307E+01   0.103E-02 -.265E-03 0.645E-02
   -.104E+01 -.210E+01 -.345E+03   0.164E+01 0.313E+01 0.346E+03   -.811E+00 -.139E+01 -.307E+01   -.743E-03 -.759E-03 0.645E-02
   -.130E+01 0.195E+01 -.345E+03   0.189E+01 -.298E+01 0.346E+03   -.796E+00 0.140E+01 -.307E+01   -.286E-03 0.102E-02 0.646E-02
   0.437E+01 -.153E+00 0.350E+03   -.308E+01 0.150E+00 -.352E+03   -.243E+01 0.978E-02 0.296E+01   -.998E-03 -.242E-03 -.201E-01
   -.232E+01 -.371E+01 0.350E+03   0.167E+01 0.259E+01 -.352E+03   0.122E+01 0.210E+01 0.296E+01   0.288E-03 0.985E-03 -.201E-01
   -.205E+01 0.386E+01 0.350E+03   0.141E+01 -.274E+01 -.352E+03   0.120E+01 -.211E+01 0.296E+01   0.709E-03 -.743E-03 -.201E-01
   0.537E-04 0.154E-04 0.480E+01   0.142E-13 0.533E-14 0.568E-13   0.444E-15 0.000E+00 -.473E+01   -.860E-07 -.471E-07 -.627E-01

 POSITION                                       TOTAL-FORCE (eV/Angst)
      3.45388      1.99410     11.72054         0.000000      0.000000      0.276364
      6.90778      3.98821     11.72405         0.000000      0.000000      0.265177
      0.00000      0.00000     10.50824         0.000000      0.000000      0.627814
      0.00000      0.00000     12.93635         0.000000      0.000000     -0.134802
      4.32819      0.00251     13.45138         0.415671     -0.006192     -1.440759
      1.29198      2.23274     13.45138        -0.213198     -0.356885     -1.440759
      4.74152      3.74706     13.45138        -0.202473      0.363078     -1.440759
      6.03348      5.97980      9.99321        -1.138048      0.006394      1.095908
      9.06969      3.74957      9.99321         0.574562      0.982381      1.095908
      5.62015      2.23525      9.99321         0.563487     -0.988776      1.095908
    total drift:                                0.000054      0.000015      0.001370

  FREE ENERGIE OF THE ION-ELECTRON SYSTEM (eV)
  free  energy   TOTEN  =       -46.49060491 eV

  energy  without entropy=      -46.49060491  energy(sigma->0) =      -46.49060491

[...]

 d Force = 0.2859815E+00[-0.795E-01, 0.651E+00]  d Energy = 0.3067081E+01-0.278E+01
 d Force =-0.1407978E+03[-0.157E+03,-0.125E+03]  d Ewald  =-0.1236092E+04 0.110E+04

 Steepest descent step on ions:
 trial-energy change:   -3.067081  1 .order   -2.380710   -5.925958    1.164539
  (g-gl).g = 0.593E+01      g.g   = 0.593E+01  gl.gl    = 0.000E+00
 g(Force)  = 0.707E+00   g(Stress)= 0.522E+01 ortho     = 0.000E+00
 gamma     =   0.00000
 trial     =   1.00000
 opt step  =   0.89180  (harmonic =   0.83576) maximal distance =0.04714918
 next E    =   -49.619816   (d E  =  -3.12921)

[...]

 d Force = 0.1239110E-02[-0.654E-02, 0.902E-02]  d Energy = 0.6879903E-01-0.676E-01
 d Force = 0.1809582E+02[ 0.179E+02, 0.183E+02]  d Ewald  = 0.1529603E+03-0.135E+03

[...]

 d Force = 0.4305569E-01[ 0.282E-01, 0.579E-01]  d Energy = 0.4977072E-01-0.672E-02
 d Force = 0.1452020E+02[ 0.145E+02, 0.146E+02]  d Ewald  =-0.9925821E+02 0.114E+03

 Conjugate gradient step on ions:
 trial-energy change:   -0.049771  1 .order   -0.049902   -0.069928   -0.029875
  (g-gl).g = 0.890E-01      g.g   = 0.717E-01  gl.gl    = 0.593E+01
 g(Force)  = 0.583E-01   g(Stress)= 0.135E-01 ortho     =-0.173E-01
 gamma     =   0.01502
 trial     =   0.97836
 opt step  =   1.70812  (harmonic =   1.70812) maximal distance =0.03946193
 next E    =   -49.687528   (d E  =  -0.06104)

[...]

 d Force = 0.1217358E-01[ 0.328E-02, 0.211E-01]  d Energy = 0.9509993E-02 0.266E-02
 d Force = 0.1075903E+02[ 0.107E+02, 0.108E+02]  d Ewald  =-0.7459981E+02 0.854E+02

[...]

 d Force = 0.1913328E-01[ 0.138E-02, 0.369E-01]  d Energy = 0.1799488E-01 0.114E-02
 d Force = 0.1163294E+01[ 0.125E+01, 0.108E+01]  d Ewald  = 0.5378151E+02-0.526E+02

[...]

 d Force =-0.2597644E-03[-0.398E-03,-0.121E-03]  d Energy = 0.5946933E-03-0.854E-03
 d Force =-0.1088683E+00[-0.108E+00,-0.110E+00]  d Ewald  =-0.4710577E+01 0.460E+01

[...]

 d Force = 0.4501249E-02[ 0.741E-03, 0.826E-02]  d Energy = 0.2957500E-02 0.154E-02
 d Force =-0.1329791E+02[-0.133E+02,-0.133E+02]  d Ewald  = 0.4834499E+02-0.616E+02

 Conjugate gradient step on ions:
 trial-energy change:   -0.002958  1 .order   -0.008327   -0.016987    0.000333
  (g-gl).g = 0.111E-01      g.g   = 0.156E-01  gl.gl    = 0.425E-01
 g(Force)  = 0.647E-02   g(Stress)= 0.917E-02 ortho     =-0.102E-02
 gamma     =   0.26004
 trial     =   1.10454
 opt step  =   0.57019  (harmonic =   1.08333) maximal distance =0.01059947
 next E    =   -49.708001   (d E  =  -0.00365)

[...]

 d Force =-0.1300537E-02[-0.224E-02,-0.358E-03]  d Energy = 0.2081852E-02-0.338E-02
 d Force = 0.6488699E+01[ 0.649E+01, 0.648E+01]  d Ewald  =-0.2338880E+02 0.299E+02

[...]

 eigenvalue-minimisations  :  1008
 total energy-change (2. order) : 0.1125362E-03  (-0.1812987E-04)
 number of electron      56.9999999 magnetization       5.3754090
 augmentation part       -2.3122063 magnetization       4.0342866

 Broyden mixing:
  rms(total) = 0.21465E-02    rms(broyden)= 0.21465E-02
  rms(prec ) = 0.31426E-02
  weight for this iteration     100.00

 eigenvalues of (default mixing * dielectric matrix)
  average eigenvalue GAMMA=   0.9722
  1.9508  0.9275  0.3768  0.6339

[...]

--------------------------------------- Iteration     10(   6)  ---------------------------------------

[...]

 eigenvalue-minimisations  :   744
 total energy-change (2. order) :-0.2354672E-04  (-0.1148243E-04)
 number of electron      56.9999999 magnetization       5.3754090
 augmentation part       -2.3122063 magnetization       4.0342866

 Free energy of the ion-electron system (eV)
  alpha Z        PSCENC =        38.69947015
  Ewald energy   TEWEN  =      7382.33654083
  -Hartree energ DENC   =     -9504.90785220
  -exchange      EXHF   =         0.00000000
  -V(xc)+E(xc)   XCENC  =       -49.63072297
  PAW double counting   =      1283.71309605    -1129.70806587
  entropy T*S    EENTRO =         0.00000000
  eigenvalues    EBANDS =      -456.69111358
  atomic energy  EATOM  =      2386.47938694
  Solvation  Ediel_sol  =         0.00000000
  free energy    TOTEN  =       -49.70926065 eV

  energy without entropy =      -49.70926065  energy(sigma->0) =      -49.70926065

 average (electrostatic) potential at core
  the test charge radii are     1.1394  0.9892  0.9587  1.0808
  (the norm of the test charge is              1.0000)
       1 -51.1776       2 -51.1840       3 -92.9575       4 -92.4574       5 -61.2586
       6 -61.2586       7 -61.2586       8 -60.8974       9 -60.8974      10 -60.8974

 E-fermi :  -2.0312     XC(G=0):  -3.2756     alpha+bet : -2.8096

[...]

 spin component 2

[...]

 k-point     5 :      -0.4000    0.2000    0.0000
  band No.  band energies     occupation
      1     -16.9582      1.00000
      2     -16.1653      1.00000
      3     -15.9335      1.00000
      4     -15.8728      1.00000
      5     -15.5602      1.00000
      6     -15.4220      1.00000
      7     -12.6105      1.00000
      8      -9.8264      1.00000
      9      -8.0004      1.00000
     10      -7.5281      1.00000
     11      -7.4174      1.00000
     12      -6.8960      1.00000
     13      -6.7029      1.00000
     14      -6.1861      1.00000
     15      -5.8131      1.00000
     16      -5.6524      1.00000
     17      -5.6453      1.00000
     18      -5.1503      1.00000
     19      -5.1223      1.00000
     20      -5.0162      1.00000
     21      -4.7151      1.00000
     22      -4.3409      1.00000
     23      -4.1984      1.00000
     24      -4.1221      1.00000
     25      -3.9604      1.00000
     26      -2.8570      1.00000
     27      -1.6086      0.00000
     28      -1.4994      0.00000
     29      -1.2021      0.00000
     30      -0.8115      0.00000
     31      -0.7182      0.00000
     32      -0.7161      0.00000
     33      -0.4546      0.00000
     34      -0.4155      0.00000
     35      -0.0461      0.00000
     36       0.1170      0.00000
     37       0.1232      0.00000
     38       0.6127      0.00000
     39       0.8591      0.00000
     40       1.5569      0.00000
     41       1.8055      0.00000
     42       1.8808      0.00000
     43       2.9023      0.00000
     44       3.1026      0.00000
     45       3.2005      0.00000
     46       3.2830      0.00000
     47       3.3775      0.00000
     48       3.8222      0.00000

[...]

 soft charge-density along one line, spin component           2
         0         1         2         3         4         5         6         7         8         9
 total charge-density along one line

------------------------ aborting loop because EDIFF is reached ----------------------------------------

[...]

  FORCE on cell =-STRESS in cart. coord.  units (eV):
  Direction    XX          YY          ZZ          XY          YZ          ZX
  Alpha Z    38.69947    38.69947    38.69947
  Ewald    9014.82023  9014.81763-10647.30347    -0.00107    -0.00045    -0.00081
  Hartree  9347.62712  9347.62747 -9193.17727     0.00000     0.00005     0.00008
  E(xc)    -220.04579  -220.04578  -219.96621     0.00001     0.00001     0.00001
  Local  -19114.37625-19114.37534 19052.34234     0.00068     0.00020     0.00038
  n-local   324.29585   325.53014   331.72454     0.58732     0.42980     0.42861
  augment    18.19634    18.19641    14.49352    -0.00006     0.00003     0.00002
  Kinetic   594.34053   586.92843   623.40644    -4.55160    -0.21355    -0.58316
  Fock        0.00000     0.00000     0.00000     0.00000     0.00000     0.00000
  Total       0.46796     0.46796     0.21935     0.00000     0.00000     0.00000
  in kB       0.98900     0.98900     0.46358     0.00000     0.00000     0.00000

 VOLUME and BASIS-vectors are now :
  energy-cutoff  :      520.00
  volume of cell :      758.09
      direct lattice vectors                 reciprocal lattice vectors
     6.280452671  0.000000007  0.000000000     0.159224192 -0.091928124  0.000000000
     3.140225966  5.439031298 -0.000000000    -0.000000000  0.183856269  0.000000000
    -0.000000000 -0.000000000 22.192606465    -0.000000000  0.000000000  0.045060052

  length of vectors
     6.280452671  6.280452259 22.192606465     0.183856257  0.183856269  0.045060052

 FORCES acting on ions
    electron-ion (+dipol)            ewald-force                    non-local-force                 convergence-correction
   -.955E-04 -.711E-04 0.129E+02   0.385E-03 0.226E-03 -.131E+02   -.694E-17 -.139E-16 0.453E-01   0.241E-06 0.132E-06 0.143E-03
   0.110E-03 0.567E-04 0.120E+02   -.382E-03 -.224E-03 -.122E+02   -.249E-20 -.149E-20 0.279E-01   0.137E-06 0.734E-07 0.457E-03
   -.397E-04 -.127E-04 0.194E+03   -.172E-03 -.953E-04 -.191E+03   -.668E-17 0.709E-17 -.284E+01   -.925E-07 -.649E-07 0.282E-01
   0.438E-04 0.357E-04 -.255E+03   0.232E-03 0.129E-03 0.254E+03   -.114E-16 -.650E-19 0.121E+01   -.140E-06 -.792E-07 -.401E-01
   0.648E+01 -.653E-01 -.417E+03   -.861E+01 0.407E-01 0.419E+03   0.205E+01 -.272E-02 -.216E+01   -.703E-02 0.266E-01 -.624E-01
   -.330E+01 -.558E+01 -.417E+03   0.434E+01 0.744E+01 0.419E+03   -.103E+01 -.178E+01 -.216E+01   0.266E-01 -.722E-02 -.624E-01
   -.319E+01 0.565E+01 -.417E+03   0.427E+01 -.748E+01 0.419E+03   -.102E+01 0.178E+01 -.216E+01   -.195E-01 -.194E-01 -.624E-01
   -.429E+01 -.118E-01 0.430E+03   0.601E+01 -.149E-01 -.432E+03   -.170E+01 0.193E-02 0.227E+01   0.500E-02 0.242E-01 0.672E-01
   0.214E+01 0.373E+01 0.430E+03   -.302E+01 -.519E+01 -.432E+03   0.851E+00 0.147E+01 0.227E+01   0.185E-01 -.164E-01 0.672E-01
   0.216E+01 -.371E+01 0.430E+03   -.299E+01 0.521E+01 -.432E+03   0.848E+00 -.147E+01 0.227E+01   -.235E-01 -.777E-02 0.672E-01
   0.106E-03 0.534E-04 0.125E+01   -.284E-13 -.178E-14 0.000E+00   0.000E+00 0.000E+00 -.123E+01   0.268E-06 0.147E-06 0.292E-02

 POSITION                                       TOTAL-FORCE (eV/Angst)
      3.14022      1.81301     11.09464        -0.000000      0.000000     -0.174882
      6.28046      3.62602     11.09797        -0.000000      0.000000     -0.190272
     -0.00000     -0.00000     10.04107        -0.000000      0.000000     -0.130722
     -0.00000     -0.00000     12.26578        -0.000000     -0.000000      0.438161
      3.95404      0.00071     12.66422        -0.078825     -0.000071     -0.013174
      1.16382      2.01439     12.66422         0.039351      0.068300     -0.013174
      4.30283      3.42394     12.66422         0.039474     -0.068229     -0.013174
      5.37127      5.43813      9.47704         0.017496     -0.001221      0.032412
      8.30437      3.50734      9.47704        -0.009805     -0.014542      0.032412
      5.16570      1.93259      9.47704        -0.007691      0.015763      0.032412
    total drift:                                0.000106      0.000054      0.026499

  FREE ENERGIE OF THE ION-ELECTRON SYSTEM (eV)
  free  energy   TOTEN  =       -49.70926065 eV

  energy  without entropy=      -49.70926065  energy(sigma->0) =      -49.70926065

 d Force = 0.1275412E-02[ 0.430E-03, 0.212E-02]  d Energy =-0.1337741E-03 0.141E-02
 d Force =-0.6127530E+01[-0.612E+01,-0.613E+01]  d Ewald  = 0.2223809E+02-0.284E+02

 reached required accuracy - stopping structural energy minimisation

 total charge

[...]

 magnetization (x)

# of ion       s       p       d       tot
    1        0.035   0.038   2.818   2.891
    2        0.035   0.038   2.817   2.890
    3        0.005   0.018   0.000   0.023
    4       -0.035  -0.001   0.000  -0.036
    5       -0.003  -0.111   0.004  -0.110
    6       -0.003  -0.102   0.005  -0.101
    7       -0.005  -0.115   0.005  -0.116
    8        0.000  -0.075   0.005  -0.070
    9       -0.001  -0.056   0.005  -0.053
   10       -0.001  -0.070   0.005  -0.065
tot          0.026  -0.435   5.664   5.254

 BZINTS: Fermi energy: -2.031197; 57.000000 electrons
         Band energy:-456.691114;  BLOECHL correction: -0.028347