 vasp.5.4.4.18Apr17-6-g9f103f2a35 (build May  1 2020 15:48:39) complex
 executed on             LinuxGNU date 2020.07.02  05:21:56

 INCAR:
 POTCAR:   PAW_PBE Cr 06Sep2000
 POTCAR:   PAW_PBE Si 05Jan2001
 POTCAR:    PAW_PBE S 17Jan2003

 POTCAR:   PAW_PBE Cr 06Sep2000
   VRHFIN =Cr : d5 s1

   TITEL  = PAW_PBE Cr 06Sep2000
   POMASS =   51.996; ZVAL   =    6.000    mass and valenz
   ENMAX  =  227.082; ENMIN  =  170.311 eV
   QCUT   =   -4.085; QGAM   =    8.171    optimization parameters

   Description
     l     E      TYP  RCUT    TYP  RCUT
     2   .000     23  2.500
     2   .000     23  2.500
     0   .000     23  2.500
     0   .000     23  2.500
     1  -.400     23  2.500
     1  2.000     23  2.500
     3   .000      7   .000

 POTCAR:   PAW_PBE Si 05Jan2001
   VRHFIN =Si: s2p2

   TITEL  = PAW_PBE Si 05Jan2001
   POMASS =   28.085; ZVAL   =    4.000    mass and valenz
   ENMAX  =  245.345; ENMIN  =  184.009 eV
   QCUT   =   -4.246; QGAM   =    8.493    optimization parameters

[...]

 POTCAR:    PAW_PBE S 17Jan2003
   VRHFIN =S : s2p4

   TITEL  = PAW_PBE S 17Jan2003
   POMASS =   32.066; ZVAL   =    6.000    mass and valenz
   ENMAX  =  280.000; ENMIN  =  194.016 eV
   QCUT   =   -4.360; QGAM   =    8.721    optimization parameters

   Description
     l     E      TYP  RCUT    TYP  RCUT
     0   .000     23  1.900
     0   .000     23  1.900
     1   .000     23  1.900
     1   .000     23  1.900
     2   .000     23  1.900

 Optimization of the real space projectors (new method)

 maximal supplied QI-value         = 15.12
 optimisation between [QCUT,QGAM] = [ 11.64, 23.28] = [ 37.95,151.78] Ry
 Optimized for a Real-space Cutoff    1.49 Angstroem

   l    n(q)    QCUT    max X(q) W(low)/X(q) W(high)/X(q)  e(spline)
   2      9    11.641     4.777    0.25E-04    0.21E-05    0.63E-07
   2      9    11.641    31.132    0.13E-03    0.22E-03    0.64E-06
   0     10    11.641    20.416    0.11E-04    0.74E-05    0.19E-07
   0     10    11.641    45.408    0.10E-03    0.85E-04    0.30E-06
   1     10    11.641     7.848    0.22E-04    0.23E-04    0.56E-07
   1     10    11.641     9.895    0.85E-04    0.54E-04    0.16E-06
 Optimization of the real space projectors (new method)

[...]

   l    n(q)    QCUT    max X(q) W(low)/X(q) W(high)/X(q)  e(spline)
   0      8    11.508     8.708    0.18E-04    0.44E-05    0.47E-08
   0      8    11.508   106.241    0.70E-04    0.15E-03    0.51E-07
   1      8    11.508     5.901    0.63E-05    0.23E-04    0.21E-07
   1      8    11.508    73.241    0.15E-03    0.36E-04    0.79E-07
 Optimization of the real space projectors (new method)

 maximal supplied QI-value         = 19.84
 optimisation between [QCUT,QGAM] = [ 11.51, 23.22] = [ 37.09,150.92] Ry
 Optimized for a Real-space Cutoff    1.21 Angstroem

   l    n(q)    QCUT    max X(q) W(low)/X(q) W(high)/X(q)  e(spline)
   0      8    11.508     5.487    0.18E-04    0.22E-05    0.47E-08
   0      8    11.508    85.627    0.96E-04    0.18E-03    0.54E-07
   1      8    11.508     3.530    0.17E-04    0.28E-04    0.21E-07
   1      8    11.508    42.714    0.18E-03    0.63E-04    0.92E-07

 PAW_PBE Cr 06Sep2000                   :
 PAW_PBE Si 05Jan2001                   :
  PAW_PBE S 17Jan2003                   :

 POSCAR: Cr2 Si2 S6
  positions in direct lattice
  velocities in cartesian coordinates
 exchange correlation table for  LEXCH =       42
   RHO(1)=    0.500       N(1)  =     2000
   RHO(2)=  100.500       N(2)  =     4000

 ion  position               nearest neighbor table
   1  0.333  0.333  0.500-   6 2.78   5 2.78   7 2.78   8 2.78  10 2.78   9 2.78
   2  0.667  0.667  0.500-   9 2.78   8 2.78  10 2.78   5 2.78   7 2.78   6 2.78
   3  0.000  0.000  0.448-   4 2.43   8 2.63  10 2.63   9 2.63
   4  0.000  0.000  0.552-   3 2.43   5 2.63   7 2.63   6 2.63
   5  0.626  0.000  0.574-   4 2.63   1 2.78   2 2.78
   6  0.000  0.373  0.574-   4 2.63   1 2.78   2 2.78
   7  0.373  0.626  0.574-   4 2.63   1 2.78   2 2.78
   8  0.374  1.000  0.426-   3 2.63   2 2.78   1 2.78
   9  1.000  0.627  0.426-   3 2.63   2 2.78   1 2.78
  10  0.627  0.374  0.426-   3 2.63   2 2.78   1 2.78

  LATTYP: Found a hexagonal cell.
 ALAT       =     6.9077769333
 C/A-ratio  =     3.3939410937

  Lattice vectors:

 A1 = (   3.4538890000,  -5.9823100000,   0.0000000000)
 A2 = (  -6.9077770000,   0.0000000000,   0.0000000000)
 A3 = (   0.0000000000,   0.0000000000, -23.4445880000)

Analysis of symmetry for initial positions (statically):
 Subroutine PRICEL returns:
 Original cell was already a primitive cell.

 Routine SETGRP: Setting up the symmetry group for a
 hexagonal supercell.

 Subroutine GETGRP returns: Found  6 space group operations
 (whereof  6 operations were pure point group operations)
 out of a pool of 24 trial point group operations.

The static configuration has the point symmetry S_6 .

Analysis of symmetry for dynamics (positions and initial velocities):
 Subroutine PRICEL returns:
 Original cell was already a primitive cell.

[...]

The dynamic configuration has the point symmetry S_6 .

Analysis of constrained symmetry for selective dynamics:
 Subroutine PRICEL returns:
 Original cell was already a primitive cell.

[...]

The constrained configuration has the point symmetry S_6 .

Analysis of structural, dynamic, and magnetic symmetry:
 Subroutine PRICEL returns:
 Original cell was already a primitive cell.

 Routine SETGRP: Setting up the symmetry group for a
 hexagonal supercell.

 Subroutine GETGRP returns: Found  6 space group operations
 (whereof  6 operations were pure point group operations)
 out of a pool of 24 trial point group operations.

The magnetic configuration has the point symmetry S_6 .

 Subroutine INISYM returns: Found  6 space group operations
 (whereof  6 operations are pure point group operations),
 and found     1 'primitive' translations

 KPOINTS: Kpoints from vasprun.xml

Automatic generation of k-mesh.
Space group operators:
 irot       det(A)        alpha          n_x          n_y          n_z        tau_x        tau_y        tau_z
    1     1.000000     0.000000     1.000000     0.000000     0.000000     0.000000     0.000000     0.000000
    2    -1.000000     0.000000     1.000000     0.000000     0.000000     0.000000     0.000000     0.000000
    3     1.000000   120.000000     0.000000     0.000000     1.000000     0.000000     0.000000     0.000000
    4    -1.000000   120.000000     0.000000     0.000000     1.000000     0.000000     0.000000     0.000000
    5     1.000000   120.000000     0.000000     0.000000    -1.000000     0.000000     0.000000     0.000000
    6    -1.000000   120.000000     0.000000     0.000000    -1.000000     0.000000     0.000000     0.000000

 Subroutine IBZKPT returns following result:

 Found      5 irreducible k-points:

 Following reciprocal coordinates:
            Coordinates               Weight
  0.000000  0.000000  0.000000      1.000000
  0.200000  0.000000  0.000000      6.000000
  0.400000  0.000000  0.000000      6.000000
  0.400000  0.200000  0.000000      6.000000
 -0.400000  0.200000  0.000000      6.000000

 Following cartesian coordinates:
            Coordinates               Weight
  0.000000  0.000000  0.000000      1.000000
  0.028953 -0.016716  0.000000      6.000000
  0.057906 -0.033432  0.000000      6.000000
  0.057906  0.000000  0.000000      6.000000
 -0.057906  0.066864  0.000000      6.000000

 TETIRR: Found     15 inequivalent tetrahedra from      150

 SYSTEM =  unknown system
 POSCAR =  Cr2 Si2 S6

 Startparameter for this run:
   NWRITE =      2    write-flag & timer
   PREC   = accura    normal or accurate (medium, high low for compatibility)
   ISTART =      0    job   : 0-new  1-cont  2-samecut
   ICHARG =      2    charge: 1-file 2-atom 10-const
   ISPIN  =      2    spin polarized calculation?
   LNONCOLLINEAR =      F non collinear calculations
   LSORBIT =      F    spin-orbit coupling
   INIWAV =      1    electr: 0-lowe 1-rand  2-diag
   LASPH  =      F    aspherical Exc in radial PAW
   METAGGA=      F    non-selfconsistent MetaGGA calc.

 Electronic Relaxation 1
   ENCUT  =  520.0 eV  38.22 Ry    6.18 a.u.  12.84 12.84 43.59*2*pi/ulx,y,z
   ENINI  =  520.0     initial cutoff
   ENAUG  =  402.1 eV  augmentation charge cutoff
   NELM   =    400;   NELMIN=  2; NELMDL=  0     # of ELM steps
   EDIFF  = 0.1E-03   stopping-criterion for ELM
   LREAL  =      T    real-space projection
   NLSPLINE    = F    spline interpolate recip. space projectors
   LCOMPAT=      F    compatible to vasp.4.4
   GGA_COMPAT  = T    GGA compatible to vasp.4.4-vasp.4.6
   LMAXPAW     = -100 max onsite density
   LMAXMIX     =    2 max onsite mixed and CHGCAR
   VOSKOWN=      0    Vosko Wilk Nusair interpolation
   ROPT   =   -0.00025  -0.00025  -0.00025
 Ionic relaxation
   EDIFFG = 0.1E-02   stopping-criterion for IOM
   NSW    =     99    number of steps for IOM
   NBLOCK =      1;   KBLOCK =     99    inner block; outer block
   IBRION =      2    ionic relax: 0-MD 1-quasi-New 2-CG
   NFREE  =      1    steps in history (QN), initial steepest desc. (CG)
   ISIF   =      3    stress and relaxation
   IWAVPR =     11    prediction:  0-non 1-charg 2-wave 3-comb
   ISYM   =      2    0-nonsym 1-usesym 2-fastsym
   LCORR  =      T    Harris-Foulkes like correction to forces

   POTIM  = 0.5000    time-step for ionic-motion
   TEIN   =    0.0    initial temperature
   TEBEG  =    0.0;   TEEND  =   0.0 temperature during run
   SMASS  =  -3.00    Nose mass-parameter (am)
   estimated Nose-frequenzy (Omega)   =  0.10E-29 period in steps =****** mass=  -0.109E-26a.u.
   SCALEE = 1.0000    scale energy and forces
   NPACO  =    256;   APACO  = 16.0  distance and # of slots for P.C.
   PSTRESS=    0.0 pullay stress

  Mass of Ions in am
   POMASS =  52.00 28.09 32.07
  Ionic Valenz
   ZVAL   =   6.00  4.00  6.00
  Atomic Wigner-Seitz radii
  virtual crystal weights
   VCA    =   1.00  1.00  1.00
   NELECT =      56.0000    total number of electrons
   NUPDOWN=      -1.0000    fix difference up-down

 DOS related values:
   EMIN   =  10.00;   EMAX   =-10.00  energy-range for DOS
   EFERMI =   0.00
   ISMEAR =    -5;   SIGMA  =   0.05  broadening in eV -4-tet -1-fermi 0-gaus

 Electronic relaxation 2 (details)
   IALGO  =     38    algorithm
   LDIAG  =      T    sub-space diagonalisation (order eigenvalues)
   LSUBROT=      F    optimize rotation matrix (better conditioning)
   TURBO    =      0    0=normal 1=particle mesh
   IRESTART =      0    0=no restart 2=restart with 2 vectors
   NREBOOT  =      0    no. of reboots
   NMIN     =      0    reboot dimension
   EREF     =   0.00    reference energy to select bands
   IMIX   =      4    mixing-type and parameters
     AMIX     =   0.40;   BMIX     =  1.00
     AMIX_MAG =   1.60;   BMIX_MAG =  1.00
     AMIN     =   0.01
     WC   =   100.;   INIMIX=   1;  MIXPRE=   1;  MAXMIX= -45

 Intra band minimization:
   WEIMIN = 0.0010     energy-eigenvalue tresh-hold
   EBREAK =  0.63E-06  absolut break condition
   DEPER  =   0.30     relativ break condition

   TIME   =   0.40     timestep for ELM

  volume/ion in A,a.u.               =      96.88       653.80
[...]
     21      -5.3845      1.00000
     22      -5.3845      1.00000
     23      -5.1333      1.00000
     24      -5.0657      1.00000
     25      -5.0657      1.00000
     26      -5.0563      1.00000
     27      -5.0563      1.00000
     28      -5.0503      1.00000
     29      -4.7305      1.00000
     30      -4.6624      1.00000
     31      -4.6624      1.00000
     32      -3.4154      0.00000
     33      -3.4101      0.00000
     34      -3.4100      0.00000
     35      -3.1836      0.00000
     36      -3.1836      0.00000
     37      -3.0803      0.00000
     38      -1.2720      0.00000
     39      -1.2720      0.00000
     40       0.4014      0.00000

[...]

 soft charge-density along one line, spin component           1
         0         1         2         3         4         5         6         7         8         9
 total charge-density along one line

[...]

------------------------ aborting loop because EDIFF is reached ----------------------------------------

 total charge

# of ion       s       p       d       tot
    1        0.248   0.248   4.025   4.522
    2        0.248   0.248   4.025   4.522
    3        0.809   0.617   0.000   1.426
    4        0.809   0.617   0.000   1.426
    5        1.376   2.196   0.000   3.572
    6        1.374   2.199   0.000   3.572
    7        1.375   2.196   0.000   3.571
    8        1.376   2.196   0.000   3.572
    9        1.374   2.199   0.000   3.572
   10        1.375   2.196   0.000   3.571
tot         10.363  14.912   8.051  33.326

 magnetization (x)

[...]

  FORCE on cell =-STRESS in cart. coord.  units (eV):
  Direction    XX          YY          ZZ          XY          YZ          ZX
  Alpha Z    17.65701    17.65701    17.65701
  Ewald    7419.63051  7419.62857 -8853.36149    -0.00107    -0.00038    -0.00069
  Hartree  7871.34007  7871.34041 -7616.93372    -0.00009     0.00004     0.00006
  E(xc)    -202.14320  -202.14320  -201.63911     0.00001     0.00000     0.00001
  Local  -16153.90340-16153.90273 15578.81593     0.00092     0.00023     0.00043
  n-local   477.18419   478.72250   488.60014     0.70280     0.40502     0.40830
  augment   -55.65715   -55.65703   -59.04196    -0.00003     0.00001     0.00004
  Kinetic   594.84193   594.06702   628.48595    -0.84812     0.78779     0.86628
  Fock        0.00000     0.00000     0.00000     0.00000     0.00000     0.00000
  Total     -30.66874   -30.66874   -17.41724     0.00000     0.00000    -0.00000
  in kB     -50.71737   -50.71737   -28.80316     0.00000     0.00000    -0.00000

 VOLUME and BASIS-vectors are now :
  energy-cutoff  :      520.00
  volume of cell :      968.84
      direct lattice vectors                 reciprocal lattice vectors
     6.907777000 -0.000000000  0.000000000     0.144764372 -0.083579742  0.000000000
     3.453888000  5.982310000  0.000000000     0.000000000  0.167159509 -0.000000000
     0.000000000  0.000000000 23.444588000    -0.000000000  0.000000000  0.042653767

[...]

 FORCES acting on ions
    electron-ion (+dipol)            ewald-force                    non-local-force                 convergence-correction
   -.729E-04 -.483E-04 0.656E+00   0.306E-03 0.183E-03 -.640E+00   -.173E-17 0.173E-17 -.661E-02   0.506E-07 0.331E-07 -.438E-03
   0.729E-04 0.483E-04 -.656E+00   -.306E-03 -.183E-03 0.640E+00   0.173E-17 -.173E-17 0.661E-02   -.506E-07 -.331E-07 0.438E-03
   -.165E-04 -.241E-04 0.164E+03   -.141E-03 -.779E-04 -.158E+03   0.694E-17 0.347E-17 -.596E+01   -.251E-07 -.156E-07 -.359E-02
   0.165E-04 0.241E-04 -.164E+03   0.141E-03 0.779E-04 0.158E+03   -.208E-16 -.347E-17 0.596E+01   0.251E-07 0.156E-07 0.359E-02
   -.768E+01 0.160E+00 -.338E+03   0.444E+01 -.152E+00 0.342E+03   0.465E+01 -.143E-01 -.577E+01   0.766E-03 -.464E-03 0.807E-02
   0.398E+01 0.657E+01 -.338E+03   -.235E+01 -.377E+01 0.342E+03   -.234E+01 -.402E+01 -.577E+01   -.785E-03 -.432E-03 0.807E-02
   0.370E+01 -.673E+01 -.338E+03   -.209E+01 0.392E+01 0.342E+03   -.231E+01 0.403E+01 -.577E+01   0.189E-04 0.896E-03 0.807E-02
   0.768E+01 -.160E+00 0.338E+03   -.444E+01 0.152E+00 -.342E+03   -.465E+01 0.143E-01 0.577E+01   -.766E-03 0.464E-03 -.807E-02
   -.398E+01 -.657E+01 0.338E+03   0.235E+01 0.377E+01 -.342E+03   0.234E+01 0.402E+01 0.577E+01   0.785E-03 0.432E-03 -.807E-02
   -.370E+01 0.673E+01 0.338E+03   0.209E+01 -.392E+01 -.342E+03   0.231E+01 -.403E+01 0.577E+01   -.189E-04 -.896E-03 -.807E-02
   -.927E-10 -.151E-09 -.626E-10   0.155E-13 0.799E-14 -.171E-12   0.888E-15 -.888E-15 -.888E-15   0.141E-13 -.158E-13 0.255E-11

 POSITION                                       TOTAL-FORCE (eV/Angst)
      3.45388      1.99410     11.72054        -0.000000     -0.000000      0.008717
      6.90778      3.98821     11.72405        -0.000000      0.000000     -0.008717
      0.00000      0.00000     10.50824        -0.000000      0.000000      0.018677
      0.00000      0.00000     12.93635        -0.000000     -0.000000     -0.018677
      4.32819      0.00251     13.45138         1.404850     -0.005401     -1.667282
      1.29198      2.23274     13.45138        -0.707102     -1.213936     -1.667282
      4.74152      3.74706     13.45138        -0.697748      1.219336     -1.667282
      6.03348      5.97980      9.99321        -1.404850      0.005401      1.667282
      9.06969      3.74957      9.99321         0.707102      1.213936      1.667282
      5.62015      2.23525      9.99321         0.697748     -1.219336      1.667282
    total drift:                               -0.000000     -0.000000     -0.000000

  FREE ENERGIE OF THE ION-ELECTRON SYSTEM (eV)
  free  energy   TOTEN  =       -49.22358380 eV

  energy  without entropy=      -49.22358380  energy(sigma->0) =      -49.22358380

[...]

 d Force = 0.6022952E+00[-0.192E-01, 0.122E+01]  d Energy = 0.7569038E+01-0.697E+01
 d Force =-0.1810428E+03[-0.212E+03,-0.150E+03]  d Ewald  =-0.2028517E+04 0.185E+04

 Steepest descent step on ions:
 trial-energy change:   -7.569038  1 .order   -5.484767  -11.914577    0.945044
  (g-gl).g = 0.119E+02      g.g   = 0.119E+02  gl.gl    = 0.000E+00
 g(Force)  = 0.138E+01   g(Stress)= 0.105E+02 ortho     = 0.000E+00
 gamma     =   0.00000
 trial     =   1.00000
 opt step  =   0.96203  (harmonic =   0.92651) maximal distance =0.07738018
 next E    =   -56.810448   (d E  =  -7.58686)

[...]

 d Force =-0.2017508E-02[-0.439E-02, 0.355E-03]  d Energy = 0.1965405E-01-0.217E-01
 d Force = 0.8756553E+01[ 0.869E+01, 0.882E+01]  d Ewald  = 0.9613378E+02-0.874E+02

[...]

 d Force = 0.5895564E-01[ 0.296E-01, 0.883E-01]  d Energy = 0.6532756E-01-0.637E-02
 d Force = 0.2214858E+02[ 0.219E+02, 0.224E+02]  d Ewald  =-0.9420443E+02 0.116E+03

 Conjugate gradient step on ions:
 trial-energy change:   -0.065328  1 .order   -0.065311   -0.101051   -0.029570
  (g-gl).g = 0.828E-01      g.g   = 0.102E+00  gl.gl    = 0.119E+02
 g(Force)  = 0.882E-01   g(Stress)= 0.135E-01 ortho     = 0.189E-01
 gamma     =   0.00695
 trial     =   0.99241
 opt step  =   1.40294  (harmonic =   1.40294) maximal distance =0.03533871
 next E    =   -56.883702   (d E  =  -0.07143)

[...]

 d Force = 0.7461244E-02[ 0.267E-02, 0.122E-01]  d Energy = 0.5744249E-02 0.172E-02
 d Force = 0.9001152E+01[ 0.897E+01, 0.904E+01]  d Ewald  =-0.3924709E+02 0.482E+02

[...]

 d Force =-0.6045187E-03[-0.229E-01, 0.217E-01]  d Energy = 0.2366603E-02-0.297E-02
 d Force = 0.5533983E+01[ 0.557E+01, 0.550E+01]  d Ewald  = 0.1083546E+03-0.103E+03

 Conjugate gradient step on ions:
 trial-energy change:   -0.002367  1 .order   -0.002058   -0.033712    0.029597
  (g-gl).g = 0.303E-01      g.g   = 0.316E-01  gl.gl    = 0.102E+00
 g(Force)  = 0.182E-01   g(Stress)= 0.134E-01 ortho     =-0.904E-03
 gamma     =   0.29794
 trial     =   1.07451
 opt step  =   0.57218  (harmonic =   0.57218) maximal distance =0.01263575
 next E    =   -56.892323   (d E  =  -0.00898)

[...]

 eigenvalue-minimisations  :   912
 total energy-change (2. order) :-0.8798468E-02  (-0.3462699E-01)
 number of electron      55.9999999 magnetization       5.9999994
 augmentation part       -0.2195507 magnetization       4.0955135

[...]

 Broyden mixing:
  rms(total) = 0.47219E-02    rms(broyden)= 0.47218E-02
  rms(prec ) = 0.50801E-02
  weight for this iteration     100.00

 eigenvalues of (default mixing * dielectric matrix)
  average eigenvalue GAMMA=   1.1027
  1.7571  0.9714  0.5795

[...]

--------------------------------------- Iteration      7(   5)  ---------------------------------------

[...]

 eigenvalue-minimisations  :   728
 total energy-change (2. order) : 0.1403442E-04  (-0.1275933E-04)
 number of electron      55.9999999 magnetization       5.9999995
 augmentation part       -0.2132029 magnetization       4.1011730

 Free energy of the ion-electron system (eV)
  alpha Z        PSCENC =        25.82710380
  Ewald energy   TEWEN  =      7993.82093507
  -Hartree energ DENC   =    -10172.07401857
  -exchange      EXHF   =         0.00000000
  -V(xc)+E(xc)   XCENC  =        18.33702888
  PAW double counting   =      1226.82621195    -1128.52422650
  entropy T*S    EENTRO =         0.00000000
  eigenvalues    EBANDS =      -451.20041713
  atomic energy  EATOM  =      2430.09487864
  Solvation  Ediel_sol  =         0.00000000
  free energy    TOTEN  =       -56.89250387 eV

  energy without entropy =      -56.89250387  energy(sigma->0) =      -56.89250387

 average (electrostatic) potential at core
  the test charge radii are     1.1394  0.9892  0.9698
  (the norm of the test charge is              1.0000)
       1 -51.4470       2 -51.4470       3 -92.5307       4 -92.5307       5 -94.0320
       6 -94.0320       7 -94.0319       8 -94.0320       9 -94.0320      10 -94.0319

 E-fermi :  -3.0909     XC(G=0):  -3.3888     alpha+bet : -3.1504

[...]

 spin component 2

[...]

 k-point     5 :      -0.4000    0.2000    0.0000
  band No.  band energies     occupation
      1     -16.5337      1.00000
      2     -15.9662      1.00000
      3     -15.8611      1.00000
      4     -15.6163      1.00000
      5     -15.4433      1.00000
      6     -15.3034      1.00000
      7     -10.5988      1.00000
      8      -9.2988      1.00000
      9      -7.8777      1.00000
     10      -7.4768      1.00000
     11      -7.3691      1.00000
     12      -6.9165      1.00000
     13      -6.9064      1.00000
     14      -6.3131      1.00000
     15      -5.8366      1.00000
     16      -5.7227      1.00000
     17      -5.6797      1.00000
     18      -5.4473      1.00000
     19      -5.3926      1.00000
     20      -5.1664      1.00000
     21      -4.9455      1.00000
     22      -4.5741      1.00000
     23      -4.3994      1.00000
     24      -4.1899      1.00000
     25      -3.4785      1.00000
     26      -2.1362      0.00000
     27      -1.5856      0.00000
     28      -1.5196      0.00000
     29      -0.7564      0.00000
     30      -0.7251      0.00000
     31      -0.6153      0.00000
     32      -0.4211      0.00000
     33      -0.3744      0.00000
     34      -0.0048      0.00000
     35       0.0925      0.00000
     36       0.3903      0.00000
     37       1.2062      0.00000
     38       1.5546      0.00000
     39       1.6028      0.00000
     40       2.3995      0.00000

[...]

 soft charge-density along one line, spin component           2
         0         1         2         3         4         5         6         7         8         9
 total charge-density along one line

------------------------ aborting loop because EDIFF is reached ----------------------------------------

[...]

  FORCE on cell =-STRESS in cart. coord.  units (eV):
  Direction    XX          YY          ZZ          XY          YZ          ZX
  Alpha Z    25.82710    25.82710    25.82710
  Ewald    9662.28301  9662.28044-11330.74432    -0.00108    -0.00044    -0.00080
  Hartree  9995.99860  9995.99888 -9820.42263    -0.00004     0.00003     0.00005
  E(xc)    -210.61608  -210.61608  -210.20191     0.00002     0.00001     0.00001
  Local  -20546.49575-20546.49487 20230.13003     0.00071     0.00022     0.00040
  n-local   495.23824   496.88288   498.69086     0.71679     0.59236     0.47849
  augment   -54.98395   -54.98392   -58.32098     0.00004     0.00000     0.00003
  Kinetic   634.44380   629.62339   664.87320    -3.43021     0.89266     0.81877
  Fock        0.00000     0.00000     0.00000     0.00000     0.00000     0.00000
  Total       0.10640     0.10640    -0.16864     0.00000     0.00000     0.00000
  in kB       0.25738     0.25738    -0.40792     0.00000     0.00000     0.00000

 VOLUME and BASIS-vectors are now :
  energy-cutoff  :      520.00
  volume of cell :      662.36
      direct lattice vectors                 reciprocal lattice vectors
     5.926789706  0.000000065 -0.000000000     0.168725407 -0.097413651 -0.000000000
     2.963394510  5.132750272 -0.000000000    -0.000000002  0.194827325  0.000000000
    -0.000000000 -0.000000000 21.773170525     0.000000000  0.000000000  0.045928084

  length of vectors
     5.926789706  5.926789382 21.773170525     0.194827315  0.194827325  0.045928084

 FORCES acting on ions
    electron-ion (+dipol)            ewald-force                    non-local-force                 convergence-correction
   -.136E-03 -.770E-04 0.547E+00   0.407E-03 0.238E-03 -.550E+00   -.174E-17 0.347E-17 0.856E-02   0.580E-07 0.210E-07 0.344E-03
   0.136E-03 0.770E-04 -.547E+00   -.407E-03 -.238E-03 0.550E+00   0.174E-17 0.347E-17 -.856E-02   -.580E-07 -.210E-07 -.344E-03
   -.382E-04 -.157E-04 0.223E+03   -.212E-03 -.119E-03 -.213E+03   0.488E-17 0.290E-17 -.973E+01   0.107E-06 0.271E-07 0.111E-01
   0.382E-04 0.157E-04 -.223E+03   0.212E-03 0.119E-03 0.213E+03   -.292E-16 -.133E-16 0.973E+01   -.107E-06 -.271E-07 -.111E-01
   0.397E+01 0.676E-02 -.468E+03   -.703E+01 -.191E-02 0.472E+03   0.309E+01 -.895E-02 -.342E+01   -.170E-01 0.280E-03 -.318E-01
   -.198E+01 -.345E+01 -.468E+03   0.351E+01 0.609E+01 0.472E+03   -.155E+01 -.267E+01 -.342E+01   0.874E-02 0.146E-01 -.318E-01
   -.200E+01 0.344E+01 -.468E+03   0.352E+01 -.609E+01 0.472E+03   -.154E+01 0.268E+01 -.342E+01   0.825E-02 -.149E-01 -.318E-01
   -.397E+01 -.676E-02 0.468E+03   0.703E+01 0.191E-02 -.472E+03   -.309E+01 0.895E-02 0.342E+01   0.170E-01 -.280E-03 0.318E-01
   0.198E+01 0.345E+01 0.468E+03   -.351E+01 -.609E+01 -.472E+03   0.155E+01 0.267E+01 0.342E+01   -.874E-02 -.146E-01 0.318E-01
   0.200E+01 -.344E+01 0.468E+03   -.352E+01 0.609E+01 -.472E+03   0.154E+01 -.268E+01 0.342E+01   -.825E-02 0.149E-01 0.318E-01
   -.624E-10 -.279E-09 0.362E-10   -.266E-14 0.888E-15 0.568E-13   -.222E-15 0.888E-15 0.444E-15   -.239E-12 -.394E-13 -.113E-10

 POSITION                                       TOTAL-FORCE (eV/Angst)
      2.96339      1.71092     10.88495         0.000000     -0.000000      0.006389
      5.92679      3.42184     10.88822         0.000000     -0.000000     -0.006389
     -0.00000     -0.00000      9.78019         0.000000     -0.000000     -0.029166
     -0.00000     -0.00000     11.99298         0.000000     -0.000000      0.029166
      3.80860      0.00103     12.43631         0.017549     -0.002925     -0.019264
      1.05999      1.83390     12.43631        -0.011308     -0.013735     -0.019264
      4.02161      3.29783     12.43631        -0.006241      0.016660     -0.019264
      5.08159      5.13172      9.33687        -0.017549      0.002925      0.019264
      7.83020      3.29885      9.33687         0.011308      0.013735      0.019264
      4.86858      1.83492      9.33687         0.006241     -0.016660      0.019264
    total drift:                               -0.000000     -0.000000      0.000000

  FREE ENERGIE OF THE ION-ELECTRON SYSTEM (eV)
  free  energy   TOTEN  =       -56.89250387 eV

  energy  without entropy=      -56.89250387  energy(sigma->0) =      -56.89250387

 d Force = 0.5638936E-02[ 0.570E-03, 0.107E-01]  d Energy = 0.6789695E-02-0.115E-02
 d Force =-0.2597041E+01[-0.259E+01,-0.260E+01]  d Ewald  =-0.5044168E+02 0.478E+02

 reached required accuracy - stopping structural energy minimisation

 total charge

[...]

 magnetization (x)

# of ion       s       p       d       tot
    1        0.032   0.037   2.900   2.970
    2        0.032   0.037   2.900   2.970
    3        0.003   0.024   0.000   0.027
    4        0.003   0.024   0.000   0.027
    5       -0.001  -0.058   0.000  -0.059
    6       -0.002  -0.044   0.000  -0.046
    7       -0.001  -0.054   0.000  -0.055
    8       -0.001  -0.058   0.000  -0.059
    9       -0.002  -0.044   0.000  -0.046
   10       -0.001  -0.054   0.000  -0.055
tot          0.063  -0.189   5.800   5.674

 BZINTS: Fermi energy: -3.090887; 56.000000 electrons
         Band energy:-451.200417;  BLOECHL correction:  0.000000