 vasp.5.4.4.18Apr17-6-g9f103f2a35 (build May  1 2020 15:48:39) complex
 executed on             LinuxGNU date 2020.07.05  15:40:19

 INCAR:
 POTCAR:   PAW_PBE Fe 06Sep2000
 POTCAR:   PAW_PBE Ge 05Jan2001
 POTCAR:   PAW_PBE Se 06Sep2000

 POTCAR:   PAW_PBE Fe 06Sep2000
   VRHFIN =Fe:  d7 s1

   TITEL  = PAW_PBE Fe 06Sep2000
   POMASS =   55.847; ZVAL   =    8.000    mass and valenz
   ENMAX  =  267.883; ENMIN  =  200.912 eV
   QCUT   =   -4.437; QGAM   =    8.874    optimization parameters

   Description
     l     E      TYP  RCUT    TYP  RCUT
     2   .000     23  2.300
     2   .000     23  2.300
     0   .000     23  2.300
     0   .000     23  2.300
     1  -.200     23  2.300
     1   .000     23  2.300
     3   .000      7   .000

 POTCAR:   PAW_PBE Ge 05Jan2001
   VRHFIN =Ge: s2p2

   TITEL  = PAW_PBE Ge 05Jan2001
   POMASS =   72.610; ZVAL   =    4.000    mass and valenz
   ENMAX  =  173.807; ENMIN  =  130.355 eV
   QCUT   =   -3.574; QGAM   =    7.148    optimization parameters

[...]

 POTCAR:   PAW_PBE Se 06Sep2000
   VRHFIN =Se: s2p4

   TITEL  = PAW_PBE Se 06Sep2000
   POMASS =   78.960; ZVAL   =    6.000    mass and valenz
   ENMAX  =  211.534; ENMIN  =  158.651 eV
   QCUT   =   -3.943; QGAM   =    7.886    optimization parameters

   Description
     l     E      TYP  RCUT    TYP  RCUT
     0   .000     23  2.100
     0   .000     23  2.100
     1   .000     23  2.100
     1   .000     23  2.100
     2   .000     23  2.100
     3  -.100      7  2.100

 Optimization of the real space projectors (new method)

 maximal supplied QI-value         = 16.25
 optimisation between [QCUT,QGAM] = [ 11.54, 23.24] = [ 37.28,151.24] Ry
 Optimized for a Real-space Cutoff    1.53 Angstroem

   l    n(q)    QCUT    max X(q) W(low)/X(q) W(high)/X(q)  e(spline)
   2     10    11.539     4.378    0.86E-05    0.15E-04    0.46E-07
   2     10    11.539    23.237    0.11E-03    0.14E-03    0.22E-06
   0     11    11.539    17.641    0.19E-04    0.14E-05    0.18E-07
   0     11    11.539    50.908    0.43E-04    0.16E-04    0.30E-06
   1     10    11.539     6.148    0.11E-04    0.38E-05    0.26E-07
   1     10    11.539     8.345    0.44E-04    0.25E-04    0.11E-06
 Optimization of the real space projectors (new method)

[...]

   l    n(q)    QCUT    max X(q) W(low)/X(q) W(high)/X(q)  e(spline)
   0      9    11.539     8.651    0.22E-04    0.16E-04    0.10E-07
   0      9    11.539    33.192    0.11E-03    0.16E-03    0.65E-07
   1      8    11.539     5.899    0.37E-04    0.28E-04    0.43E-07
   1      8    11.539    27.289    0.22E-03    0.28E-04    0.14E-06
   2      8    11.539     4.673    0.11E-03    0.18E-03    0.58E-07
 Optimization of the real space projectors (new method)

 maximal supplied QI-value         = 17.95
 optimisation between [QCUT,QGAM] = [ 11.67, 23.34] = [ 38.13,152.52] Ry
 Optimized for a Real-space Cutoff    1.25 Angstroem

   l    n(q)    QCUT    max X(q) W(low)/X(q) W(high)/X(q)  e(spline)
   0      9    11.669     6.499    0.13E-04    0.81E-05    0.11E-07
   0      9    11.669    52.623    0.18E-03    0.46E-04    0.72E-07
   1      8    11.669     4.229    0.40E-04    0.45E-04    0.31E-07
   1      8    11.669    29.991    0.22E-03    0.36E-03    0.10E-06
   2      8    11.669     3.719    0.19E-03    0.46E-04    0.50E-07

 PAW_PBE Fe 06Sep2000                   :
 PAW_PBE Ge 05Jan2001                   :
 PAW_PBE Se 06Sep2000                   :

 POSCAR: Fe2 Ge2 Se6
  positions in direct lattice
  velocities in cartesian coordinates
 exchange correlation table for  LEXCH =       42
   RHO(1)=    0.500       N(1)  =     2000
   RHO(2)=  100.500       N(2)  =     4000

 ion  position               nearest neighbor table
   1  0.333  0.333  0.500-   6 2.78   5 2.78   7 2.78   8 2.78  10 2.78   9 2.78
   2  0.667  0.667  0.500-   9 2.78   8 2.78  10 2.78   5 2.78   7 2.78   6 2.78
   3  0.000  0.000  0.448-   4 2.43   8 2.63  10 2.63   9 2.63
   4  0.000  0.000  0.552-   3 2.43   5 2.63   7 2.63   6 2.63
   5  0.626  0.000  0.574-   4 2.63   1 2.78   2 2.78
   6  0.000  0.373  0.574-   4 2.63   1 2.78   2 2.78
   7  0.373  0.626  0.574-   4 2.63   1 2.78   2 2.78
   8  0.374  1.000  0.426-   3 2.63   2 2.78   1 2.78
   9  1.000  0.627  0.426-   3 2.63   2 2.78   1 2.78
  10  0.627  0.374  0.426-   3 2.63   2 2.78   1 2.78

  LATTYP: Found a hexagonal cell.
 ALAT       =     6.9077769333
 C/A-ratio  =     3.3939410937

  Lattice vectors:

 A1 = (   3.4538890000,  -5.9823100000,   0.0000000000)
 A2 = (  -6.9077770000,   0.0000000000,   0.0000000000)
 A3 = (   0.0000000000,   0.0000000000, -23.4445880000)

Analysis of symmetry for initial positions (statically):
 Subroutine PRICEL returns:
 Original cell was already a primitive cell.

 Routine SETGRP: Setting up the symmetry group for a
 hexagonal supercell.

 Subroutine GETGRP returns: Found  6 space group operations
 (whereof  6 operations were pure point group operations)
 out of a pool of 24 trial point group operations.

The static configuration has the point symmetry S_6 .

Analysis of symmetry for dynamics (positions and initial velocities):
 Subroutine PRICEL returns:
 Original cell was already a primitive cell.

[...]

The dynamic configuration has the point symmetry S_6 .

Analysis of constrained symmetry for selective dynamics:
 Subroutine PRICEL returns:
 Original cell was already a primitive cell.

[...]

The constrained configuration has the point symmetry S_6 .

Analysis of structural, dynamic, and magnetic symmetry:
 Subroutine PRICEL returns:
 Original cell was already a primitive cell.

 Routine SETGRP: Setting up the symmetry group for a
 hexagonal supercell.

 Subroutine GETGRP returns: Found  6 space group operations
 (whereof  6 operations were pure point group operations)
 out of a pool of 24 trial point group operations.

The magnetic configuration has the point symmetry S_6 .

 Subroutine INISYM returns: Found  6 space group operations
 (whereof  6 operations are pure point group operations),
 and found     1 'primitive' translations

 KPOINTS: Kpoints from vasprun.xml

Automatic generation of k-mesh.
Space group operators:
 irot       det(A)        alpha          n_x          n_y          n_z        tau_x        tau_y        tau_z
    1     1.000000     0.000000     1.000000     0.000000     0.000000     0.000000     0.000000     0.000000
    2    -1.000000     0.000000     1.000000     0.000000     0.000000     0.000000     0.000000     0.000000
    3     1.000000   120.000000     0.000000     0.000000     1.000000     0.000000     0.000000     0.000000
    4    -1.000000   120.000000     0.000000     0.000000     1.000000     0.000000     0.000000     0.000000
    5     1.000000   120.000000     0.000000     0.000000    -1.000000     0.000000     0.000000     0.000000
    6    -1.000000   120.000000     0.000000     0.000000    -1.000000     0.000000     0.000000     0.000000

 Subroutine IBZKPT returns following result:

 Found      5 irreducible k-points:

 Following reciprocal coordinates:
            Coordinates               Weight
  0.000000  0.000000  0.000000      1.000000
  0.200000  0.000000  0.000000      6.000000
  0.400000  0.000000  0.000000      6.000000
  0.400000  0.200000  0.000000      6.000000
 -0.400000  0.200000  0.000000      6.000000

 Following cartesian coordinates:
            Coordinates               Weight
  0.000000  0.000000  0.000000      1.000000
  0.028953 -0.016716  0.000000      6.000000
  0.057906 -0.033432  0.000000      6.000000
  0.057906  0.000000  0.000000      6.000000
 -0.057906  0.066864  0.000000      6.000000

 TETIRR: Found     15 inequivalent tetrahedra from      150

 SYSTEM =  unknown system
 POSCAR =  Fe2 Ge2 Se6

 Startparameter for this run:
   NWRITE =      2    write-flag & timer
   PREC   = accura    normal or accurate (medium, high low for compatibility)
   ISTART =      0    job   : 0-new  1-cont  2-samecut
   ICHARG =      2    charge: 1-file 2-atom 10-const
   ISPIN  =      2    spin polarized calculation?
   LNONCOLLINEAR =      F non collinear calculations
   LSORBIT =      F    spin-orbit coupling
   INIWAV =      1    electr: 0-lowe 1-rand  2-diag
   LASPH  =      F    aspherical Exc in radial PAW
   METAGGA=      F    non-selfconsistent MetaGGA calc.

 Electronic Relaxation 1
   ENCUT  =  520.0 eV  38.22 Ry    6.18 a.u.  12.84 12.84 43.59*2*pi/ulx,y,z
   ENINI  =  520.0     initial cutoff
   ENAUG  =  511.4 eV  augmentation charge cutoff
   NELM   =    400;   NELMIN=  2; NELMDL=  0     # of ELM steps
   EDIFF  = 0.1E-03   stopping-criterion for ELM
   LREAL  =      T    real-space projection
   NLSPLINE    = F    spline interpolate recip. space projectors
   LCOMPAT=      F    compatible to vasp.4.4
   GGA_COMPAT  = T    GGA compatible to vasp.4.4-vasp.4.6
   LMAXPAW     = -100 max onsite density
   LMAXMIX     =    2 max onsite mixed and CHGCAR
   VOSKOWN=      0    Vosko Wilk Nusair interpolation
   ROPT   =   -0.00025  -0.00025  -0.00025
 Ionic relaxation
   EDIFFG = 0.1E-02   stopping-criterion for IOM
   NSW    =     99    number of steps for IOM
   NBLOCK =      1;   KBLOCK =     99    inner block; outer block
   IBRION =      2    ionic relax: 0-MD 1-quasi-New 2-CG
   NFREE  =      1    steps in history (QN), initial steepest desc. (CG)
   ISIF   =      3    stress and relaxation
   IWAVPR =     11    prediction:  0-non 1-charg 2-wave 3-comb
   ISYM   =      2    0-nonsym 1-usesym 2-fastsym
   LCORR  =      T    Harris-Foulkes like correction to forces

   POTIM  = 0.5000    time-step for ionic-motion
   TEIN   =    0.0    initial temperature
   TEBEG  =    0.0;   TEEND  =   0.0 temperature during run
   SMASS  =  -3.00    Nose mass-parameter (am)
   estimated Nose-frequenzy (Omega)   =  0.10E-29 period in steps =****** mass=  -0.109E-26a.u.
   SCALEE = 1.0000    scale energy and forces
   NPACO  =    256;   APACO  = 16.0  distance and # of slots for P.C.
   PSTRESS=    0.0 pullay stress

  Mass of Ions in am
   POMASS =  55.85 72.61 78.96
  Ionic Valenz
   ZVAL   =   8.00  4.00  6.00
  Atomic Wigner-Seitz radii
  virtual crystal weights
   VCA    =   1.00  1.00  1.00
   NELECT =      60.0000    total number of electrons
   NUPDOWN=      -1.0000    fix difference up-down

 DOS related values:
   EMIN   =  10.00;   EMAX   =-10.00  energy-range for DOS
   EFERMI =   0.00
   ISMEAR =    -5;   SIGMA  =   0.05  broadening in eV -4-tet -1-fermi 0-gaus

 Electronic relaxation 2 (details)
   IALGO  =     38    algorithm
   LDIAG  =      T    sub-space diagonalisation (order eigenvalues)
   LSUBROT=      F    optimize rotation matrix (better conditioning)
   TURBO    =      0    0=normal 1=particle mesh
   IRESTART =      0    0=no restart 2=restart with 2 vectors
   NREBOOT  =      0    no. of reboots
   NMIN     =      0    reboot dimension
   EREF     =   0.00    reference energy to select bands
   IMIX   =      4    mixing-type and parameters
     AMIX     =   0.40;   BMIX     =  1.00
     AMIX_MAG =   1.60;   BMIX_MAG =  1.00
     AMIN     =   0.01
     WC   =   100.;   INIMIX=   1;  MIXPRE=   1;  MAXMIX= -45

 Intra band minimization:
   WEIMIN = 0.0010     energy-eigenvalue tresh-hold
[...]
  n-local   227.73614   228.44769   235.06640     0.56411     0.55311     0.52852
  augment    57.90501    57.90523    55.49168    -0.00012     0.00012    -0.00004
  Kinetic   596.08794   590.82803   631.05775    -2.89788    -1.86367    -1.93112
  Fock        0.00000     0.00000     0.00000     0.00000     0.00000     0.00000
  Total     -17.99523   -17.99522    -7.04329     0.00001     0.00000     0.00000
  in kB     -29.75898   -29.75898   -11.64760     0.00001     0.00000     0.00000

 VOLUME and BASIS-vectors are now :
  energy-cutoff  :      520.00
  volume of cell :      968.84
      direct lattice vectors                 reciprocal lattice vectors
     6.907777000 -0.000000000  0.000000000     0.144764372 -0.083579742  0.000000000
     3.453888000  5.982310000  0.000000000     0.000000000  0.167159509 -0.000000000
     0.000000000  0.000000000 23.444588000    -0.000000000  0.000000000  0.042653767

[...]

 FORCES acting on ions
    electron-ion (+dipol)            ewald-force                    non-local-force                 convergence-correction
   0.163E-03 0.894E-04 0.912E+00   0.461E-03 0.278E-03 -.899E+00   0.139E-16 0.347E-17 -.929E-02   0.391E-06 0.225E-06 0.124E-04
   -.163E-03 -.894E-04 -.912E+00   -.461E-03 -.278E-03 0.899E+00   -.694E-17 -.347E-17 0.929E-02   -.391E-06 -.225E-06 -.124E-04
   -.431E-04 -.120E-05 0.174E+03   -.141E-03 -.779E-04 -.172E+03   0.520E-17 -.173E-17 -.265E+01   -.216E-07 -.854E-08 -.466E-03
   0.431E-04 0.120E-05 -.174E+03   0.141E-03 0.779E-04 0.172E+03   0.347E-17 0.173E-17 0.265E+01   0.216E-07 0.854E-08 0.466E-03
   -.153E+02 0.154E+00 -.382E+03   0.139E+02 -.154E+00 0.384E+03   0.196E+01 -.739E-02 -.238E+01   -.232E-02 0.501E-05 -.846E-03
   0.776E+01 0.131E+02 -.382E+03   -.706E+01 -.119E+02 0.384E+03   -.988E+00 -.170E+01 -.238E+01   0.116E-02 0.200E-02 -.846E-03
   0.749E+01 -.133E+02 -.382E+03   -.679E+01 0.121E+02 0.384E+03   -.975E+00 0.170E+01 -.238E+01   0.115E-02 -.201E-02 -.846E-03
   0.153E+02 -.154E+00 0.382E+03   -.139E+02 0.154E+00 -.384E+03   -.196E+01 0.739E-02 0.238E+01   0.232E-02 -.501E-05 0.846E-03
   -.776E+01 -.131E+02 0.382E+03   0.706E+01 0.119E+02 -.384E+03   0.988E+00 0.170E+01 0.238E+01   -.116E-02 -.200E-02 0.846E-03
   -.749E+01 0.133E+02 0.382E+03   0.679E+01 -.121E+02 -.384E+03   0.975E+00 -.170E+01 0.238E+01   -.115E-02 0.201E-02 0.846E-03
   -.605E-10 -.171E-09 0.695E-10   0.888E-15 0.178E-14 -.171E-12   -.111E-15 -.222E-15 0.888E-15   0.127E-13 -.207E-13 -.166E-12

 POSITION                                       TOTAL-FORCE (eV/Angst)
      3.45388      1.99410     11.72054        -0.000000     -0.000000      0.003156
      6.90778      3.98821     11.72405        -0.000000     -0.000000     -0.003156
      0.00000      0.00000     10.50824        -0.000000     -0.000000     -0.747963
      0.00000      0.00000     12.93635         0.000000     -0.000000      0.747963
      4.32819      0.00251     13.45138         0.557195     -0.006025     -0.849187
      1.29198      2.23274     13.45138        -0.283815     -0.479533     -0.849187
      4.74152      3.74706     13.45138        -0.273380      0.485558     -0.849187
      6.03348      5.97980      9.99321        -0.557195      0.006025      0.849187
      9.06969      3.74957      9.99321         0.283815      0.479533      0.849187
      5.62015      2.23525      9.99321         0.273380     -0.485558      0.849187
    total drift:                               -0.000000     -0.000000      0.000000

  FREE ENERGIE OF THE ION-ELECTRON SYSTEM (eV)
  free  energy   TOTEN  =       -39.75892371 eV

  energy  without entropy=      -39.75892371  energy(sigma->0) =      -39.75892371

[...]

 d Force = 0.1475959E+00[ 0.115E-01, 0.284E+00]  d Energy = 0.2082172E+01-0.193E+01
 d Force =-0.9883632E+02[-0.109E+03,-0.891E+02]  d Ewald  =-0.1427572E+04 0.133E+04

 Steepest descent step on ions:
 trial-energy change:   -2.082172  1 .order   -1.900327   -3.662398   -0.138256
  (g-gl).g = 0.366E+01      g.g   = 0.366E+01  gl.gl    = 0.000E+00
 g(Force)  = 0.299E+00   g(Stress)= 0.336E+01 ortho     = 0.000E+00
 gamma     =   0.00000
 trial     =   1.00000
 opt step  =   1.02975  (harmonic =   1.03923) maximal distance =0.04218570
 next E    =   -41.843157   (d E  =  -2.08423)

[...]

 d Force =-0.4778317E-04[-0.300E-03, 0.205E-03]  d Energy = 0.4751832E-02-0.480E-02
 d Force =-0.3346239E+01[-0.336E+01,-0.334E+01]  d Ewald  =-0.4887338E+02 0.455E+02

[...]

 d Force = 0.1612956E+00[ 0.164E+00, 0.159E+00]  d Energy = 0.2755093E+00-0.114E+00
 d Force =-0.5874654E+02[-0.592E+02,-0.583E+02]  d Ewald  = 0.6314095E+02-0.122E+03

 Conjugate gradient step on ions:
 trial-energy change:   -0.275509  1 .order   -0.198305   -0.195642   -0.200969
  (g-gl).g = 0.172E+00      g.g   = 0.193E+00  gl.gl    = 0.366E+01
 g(Force)  = 0.160E+00   g(Stress)= 0.339E-01 ortho     = 0.216E-01
 gamma     =   0.04692
 trial     =   1.00595
 opt step  =   4.02380  (harmonic =   4.02380) maximal distance =0.11900603
 next E    =   -42.671032   (d E  =  -0.82518)

[...]

 d Force = 0.9024299E-01[-0.304E+00, 0.484E+00]  d Energy =-0.5993554E-01 0.150E+00
 d Force =-0.1765721E+03[-0.181E+03,-0.173E+03]  d Ewald  = 0.1987084E+03-0.375E+03

[...]

 d Force = 0.3782501E-01[-0.103E+00, 0.178E+00]  d Energy = 0.2028291E+00-0.165E+00
 d Force = 0.1078025E+03[ 0.106E+03, 0.109E+03]  d Ewald  =-0.1103064E+03 0.218E+03

[...]

 Conjugate gradient step on ions:
 trial-energy change:   -0.045151  1 .order   -0.047045   -0.077484   -0.016606
  (g-gl).g = 0.250E-01      g.g   = 0.583E-01  gl.gl    = 0.193E+00
 g(Force)  = 0.223E-01   g(Stress)= 0.361E-01 ortho     = 0.215E-01
 gamma     =   0.12921
 trial     =   1.26784
 opt step  =   1.73207  (harmonic =   1.61366) maximal distance =0.02482153
 next E    =   -42.312349   (d E  =  -0.04810)

[...]

 Conjugate gradient step on ions:
 trial-energy change:   -0.027435  1 .order   -0.028608   -0.032624   -0.024592
  (g-gl).g = 0.819E-01      g.g   = 0.756E-01  gl.gl    = 0.583E-01
 g(Force)  = 0.312E-01   g(Stress)= 0.444E-01 ortho     =-0.339E-02
 gamma     =   1.40481
 trial     =   0.46035
 opt step  =   1.84140  (harmonic =   1.86998) maximal distance =0.05587843
 next E    =   -42.377211   (d E  =  -0.06626)

[...]

 d Force =-0.1086787E-03[-0.362E-02, 0.340E-02]  d Energy = 0.1984276E-02-0.209E-02
 d Force =-0.4587351E+02[-0.460E+02,-0.457E+02]  d Ewald  =-0.1846165E+03 0.139E+03

[...]

 d Force = 0.2424818E-01[ 0.146E-01, 0.339E-01]  d Energy = 0.1076006E-01 0.135E-01
 d Force =-0.7034110E+02[-0.702E+02,-0.705E+02]  d Ewald  =-0.1823997E+03 0.112E+03

[...]

 d Force = 0.2483634E-02[-0.239E-02, 0.736E-02]  d Energy = 0.5537744E-02-0.305E-02
 d Force =-0.3570800E+02[-0.356E+02,-0.358E+02]  d Ewald  = 0.5912773E+02-0.948E+02

[...]

 d Force =-0.1492158E-03[-0.161E-03,-0.137E-03]  d Energy = 0.2534635E-03-0.403E-03
 d Force =-0.2052685E+01[-0.205E+01,-0.205E+01]  d Ewald  = 0.3391227E+01-0.544E+01

[...]

 d Force =-0.4545508E-03[-0.399E-03,-0.510E-03]  d Energy =-0.3147264E-02 0.269E-02
 d Force =-0.1321115E+02[-0.131E+02,-0.133E+02]  d Ewald  = 0.1292087E+03-0.142E+03

 Conjugate gradient step on ions:
 trial-energy change:    0.003147  1 .order    0.001165   -0.007205    0.009534
  (g-gl).g = 0.537E-02      g.g   = 0.583E-02  gl.gl    = 0.118E-01
 g(Force)  = 0.619E-03   g(Stress)= 0.521E-02 ortho     =-0.217E-03
 gamma     =   0.45469
 trial     =   1.25818
 opt step  =   0.35917  (harmonic =   0.54156) maximal distance =0.00133551
 next E    =   -42.418458   (d E  =  -0.00098)

[...]

 eigenvalue-minimisations  :  1120
 total energy-change (2. order) : 0.2359840E-03  (-0.7361210E-04)
 number of electron      60.0000005 magnetization       2.0000379
 augmentation part        0.2957601 magnetization       1.6965123

 Broyden mixing:
  rms(total) = 0.34918E-02    rms(broyden)= 0.34915E-02
  rms(prec ) = 0.39198E-02
  weight for this iteration     100.00

 eigenvalues of (default mixing * dielectric matrix)
  average eigenvalue GAMMA=   1.0069
  1.9348  0.2456  1.1610  0.6862

[...]

--------------------------------------- Iteration     17(   6)  ---------------------------------------

[...]

 eigenvalue-minimisations  :   896
 total energy-change (2. order) :-0.5047407E-04  (-0.2244275E-04)
 number of electron      60.0000005 magnetization       2.0000379
 augmentation part        0.2957601 magnetization       1.6965123

 Free energy of the ion-electron system (eV)
  alpha Z        PSCENC =        46.05115815
  Ewald energy   TEWEN  =      9409.73323206
  -Hartree energ DENC   =    -12066.96296342
  -exchange      EXHF   =         0.00000000
  -V(xc)+E(xc)   XCENC  =       -15.48128449
  PAW double counting   =      1821.74853080    -1720.99200482
  entropy T*S    EENTRO =         0.00000000
  eigenvalues    EBANDS =      -472.48199884
  atomic energy  EATOM  =      2955.96674742
  Solvation  Ediel_sol  =         0.00000000
  free energy    TOTEN  =       -42.41858314 eV

  energy without entropy =      -42.41858314  energy(sigma->0) =      -42.41858314

 average (electrostatic) potential at core
  the test charge radii are     1.0103  1.1631  1.0808
  (the norm of the test charge is              1.0000)
       1 -51.9594       2 -51.9594       3 -39.7890       4 -39.7890       5 -61.4469
       6 -61.4469       7 -61.4469       8 -61.4469       9 -61.4469      10 -61.4469

 E-fermi :  -2.8055     XC(G=0):  -3.1342     alpha+bet : -2.5075

[...]

 spin component 2

[...]

 k-point     5 :      -0.4000    0.2000    0.0000
  band No.  band energies     occupation
      1     -16.5348      1.00000
      2     -16.4878      1.00000
      3     -16.0570      1.00000
      4     -15.8744      1.00000
      5     -15.7787      1.00000
      6     -15.6161      1.00000
      7     -11.6907      1.00000
      8     -10.1004      1.00000
      9      -7.9299      1.00000
     10      -7.4168      1.00000
     11      -7.3847      1.00000
     12      -6.9114      1.00000
     13      -6.4954      1.00000
     14      -6.3907      1.00000
     15      -6.1953      1.00000
     16      -5.7350      1.00000
     17      -5.7263      1.00000
     18      -5.6881      1.00000
     19      -5.6436      1.00000
     20      -5.2941      1.00000
     21      -5.2556      1.00000
     22      -4.4350      1.00000
     23      -4.3643      1.00000
     24      -4.2372      1.00000
     25      -4.1133      1.00000
     26      -3.4025      1.00000
     27      -3.1171      1.00000
     28      -2.9950      1.00000
     29      -2.9424      1.00000
     30      -2.5850      0.00000
     31      -2.5595      0.00000
     32      -2.0497      0.00000
     33      -1.5281      0.00000
     34      -1.4592      0.00000
     35      -1.2966      0.00000
     36      -1.0354      0.00000
     37      -0.5147      0.00000
     38       0.5276      0.00000
     39       0.6567      0.00000
     40       1.2719      0.00000
     41       1.3200      0.00000
     42       1.4981      0.00000
     43       2.5921      0.00000
     44       2.6764      0.00000
     45       2.7665      0.00000
     46       2.7730      0.00000
     47       3.2919      0.00000
     48       3.7054      0.00000

[...]

 soft charge-density along one line, spin component           2
         0         1         2         3         4         5         6         7         8         9
 total charge-density along one line

------------------------ aborting loop because EDIFF is reached ----------------------------------------

[...]

  FORCE on cell =-STRESS in cart. coord.  units (eV):
  Direction    XX          YY          ZZ          XY          YZ          ZX
  Alpha Z    46.05116    46.05116    46.05116
  Ewald   11240.61383 11240.61176-13071.49415    -0.00200    -0.00049    -0.00088
  Hartree 11718.45136 11718.45218-11370.93556    -0.00031     0.00006     0.00010
  E(xc)    -243.13943  -243.13944  -241.94288     0.00003     0.00000     0.00001
  Local  -23673.02837-23673.02832 23707.17824     0.00187     0.00025     0.00047
  n-local   230.74544   230.63100   238.08457    -0.01255     0.35737     0.38383
  augment    56.80330    56.80341    47.17712     0.00003     0.00004     0.00004
  Kinetic   625.47279   621.97909   645.91541    -2.35232     1.58124     1.88920
  Fock        0.00000     0.00000     0.00000     0.00000     0.00000     0.00000
  Total       0.16547     0.16547     0.03391     0.00000     0.00000    -0.00000
  in kB       0.32988     0.32988     0.06761     0.00000     0.00000    -0.00000

 VOLUME and BASIS-vectors are now :
  energy-cutoff  :      520.00
  volume of cell :      803.65
      direct lattice vectors                 reciprocal lattice vectors
     6.299414485 -0.000000714 -0.000000000     0.158744902 -0.091651430  0.000000000
     3.149707496  5.455452349 -0.000000000     0.000000021  0.183302845  0.000000000
    -0.000000000 -0.000000000 23.384898201     0.000000000  0.000000000  0.042762641

  length of vectors
     6.299414485  6.299414072 23.384898201     0.183302833  0.183302845  0.042762641

 FORCES acting on ions
    electron-ion (+dipol)            ewald-force                    non-local-force                 convergence-correction
   -.590E-04 -.491E-04 -.353E+00   0.576E-03 0.347E-03 0.354E+00   0.845E-20 0.694E-17 -.461E-02   0.160E-06 0.161E-06 0.354E-03
   0.590E-04 0.491E-04 0.353E+00   -.576E-03 -.347E-03 -.354E+00   0.173E-17 -.348E-17 0.461E-02   -.160E-06 -.161E-06 -.354E-03
   -.302E-04 -.168E-04 0.234E+03   -.175E-03 -.978E-04 -.232E+03   0.290E-16 0.135E-16 -.254E+01   0.280E-08 0.163E-07 -.412E-02
   0.302E-04 0.168E-04 -.234E+03   0.175E-03 0.978E-04 0.232E+03   -.290E-16 -.828E-17 0.254E+01   -.280E-08 -.163E-07 0.412E-02
   -.268E+02 0.582E-01 -.469E+03   0.245E+02 -.609E-01 0.472E+03   0.233E+01 0.174E-02 -.243E+01   0.183E-02 -.433E-05 0.112E-01
   0.135E+02 0.232E+02 -.469E+03   -.123E+02 -.212E+02 0.472E+03   -.116E+01 -.202E+01 -.243E+01   -.917E-03 -.158E-02 0.112E-01
   0.134E+02 -.233E+02 -.469E+03   -.122E+02 0.212E+02 0.472E+03   -.117E+01 0.202E+01 -.243E+01   -.910E-03 0.158E-02 0.112E-01
   0.268E+02 -.582E-01 0.469E+03   -.245E+02 0.609E-01 -.472E+03   -.233E+01 -.174E-02 0.243E+01   -.183E-02 0.433E-05 -.112E-01
   -.135E+02 -.232E+02 0.469E+03   0.123E+02 0.212E+02 -.472E+03   0.116E+01 0.202E+01 0.243E+01   0.917E-03 0.158E-02 -.112E-01
   -.134E+02 0.233E+02 0.469E+03   0.122E+02 -.212E+02 -.472E+03   0.117E+01 -.202E+01 0.243E+01   0.910E-03 -.158E-02 -.112E-01
   0.479E-10 0.196E-09 -.269E-09   -.160E-13 0.355E-14 0.114E-12   0.000E+00 0.000E+00 0.000E+00   0.423E-12 0.320E-13 0.372E-10

 POSITION                                       TOTAL-FORCE (eV/Angst)
      3.14970      1.81848     11.69342        -0.000000      0.000000     -0.004189
      6.29942      3.63697     11.69147        -0.000000     -0.000000      0.004189
     -0.00000     -0.00000     10.48149        -0.000000     -0.000000      0.126102
     -0.00000     -0.00000     12.90341         0.000000      0.000000     -0.126102
      3.87417     -0.00028     13.18298        -0.023490     -0.000207      0.018175
      1.21238      2.10047     13.18298         0.011566      0.020447      0.018175
      4.36258      3.35527     13.18298         0.011924     -0.020240      0.018175
      2.42525      0.00028     10.20191         0.023490      0.000207     -0.018175
      1.93732      3.35498     10.20191        -0.011566     -0.020447     -0.018175
      5.08654      2.10018     10.20191        -0.011924      0.020240     -0.018175
    total drift:                                0.000000      0.000000     -0.000000

  FREE ENERGIE OF THE ION-ELECTRON SYSTEM (eV)
  free  energy   TOTEN  =       -42.41858314 eV

  energy  without entropy=      -42.41858314  energy(sigma->0) =      -42.41858314

 d Force = 0.3137530E-03[ 0.341E-03, 0.286E-03]  d Energy = 0.4255051E-02-0.394E-02
 d Force = 0.9453939E+01[ 0.949E+01, 0.941E+01]  d Ewald  =-0.9209483E+02 0.102E+03

 reached required accuracy - stopping structural energy minimisation

 total charge

[...]

 magnetization (x)

# of ion       s       p       d       tot
    1        0.011   0.013   1.091   1.115
    2        0.011   0.013   1.091   1.115
    3       -0.004   0.007  -0.000   0.002
    4       -0.004   0.007  -0.000   0.002
    5       -0.001  -0.041  -0.000  -0.043
    6       -0.001  -0.022  -0.000  -0.023
    7       -0.001  -0.037  -0.000  -0.038
    8       -0.001  -0.041  -0.000  -0.043
    9       -0.001  -0.022  -0.000  -0.023
   10       -0.001  -0.037  -0.000  -0.038
tot          0.007  -0.160   2.179   2.025

 BZINTS: Fermi energy: -2.805465; 60.000000 electrons
         Band energy:-472.481999;  BLOECHL correction:  0.000000