 vasp.5.4.4.18Apr17-6-g9f103f2a35 (build May  1 2020 15:48:39) complex
 executed on             LinuxGNU date 2020.07.07  20:45:20

 INCAR:
 POTCAR:   PAW_PBE Fe 06Sep2000
 POTCAR:    PAW_PBE P 17Jan2003
 POTCAR:    PAW_PBE S 17Jan2003

 POTCAR:   PAW_PBE Fe 06Sep2000
   VRHFIN =Fe:  d7 s1

   TITEL  = PAW_PBE Fe 06Sep2000
   POMASS =   55.847; ZVAL   =    8.000    mass and valenz
   ENMAX  =  267.883; ENMIN  =  200.912 eV
   QCUT   =   -4.437; QGAM   =    8.874    optimization parameters

   Description
     l     E      TYP  RCUT    TYP  RCUT
     2   .000     23  2.300
     2   .000     23  2.300
     0   .000     23  2.300
     0   .000     23  2.300
     1  -.200     23  2.300
     1   .000     23  2.300
     3   .000      7   .000

 POTCAR:    PAW_PBE P 17Jan2003
   VRHFIN =P : s2p3

   TITEL  = PAW_PBE P 17Jan2003
   POMASS =   30.974; ZVAL   =    5.000    mass and valenz
   ENMAX  =  270.000; ENMIN  =  191.280 eV
   QCUT   =   -4.330; QGAM   =    8.659    optimization parameters

[...]

 POTCAR:    PAW_PBE S 17Jan2003
   VRHFIN =S : s2p4

   TITEL  = PAW_PBE S 17Jan2003
   POMASS =   32.066; ZVAL   =    6.000    mass and valenz
   ENMAX  =  280.000; ENMIN  =  194.016 eV
   QCUT   =   -4.360; QGAM   =    8.721    optimization parameters

   Description
     l     E      TYP  RCUT    TYP  RCUT
     0   .000     23  1.900
     0   .000     23  1.900
     1   .000     23  1.900
     1   .000     23  1.900
     2   .000     23  1.900

 Optimization of the real space projectors (new method)

 maximal supplied QI-value         = 16.25
 optimisation between [QCUT,QGAM] = [ 11.54, 23.24] = [ 37.28,151.24] Ry
 Optimized for a Real-space Cutoff    1.53 Angstroem

   l    n(q)    QCUT    max X(q) W(low)/X(q) W(high)/X(q)  e(spline)
   2     10    11.539     4.378    0.86E-05    0.15E-04    0.46E-07
   2     10    11.539    23.237    0.11E-03    0.14E-03    0.22E-06
   0     11    11.539    17.641    0.19E-04    0.14E-05    0.18E-07
   0     11    11.539    50.908    0.43E-04    0.16E-04    0.30E-06
   1     10    11.539     6.148    0.11E-04    0.38E-05    0.26E-07
   1     10    11.539     8.345    0.44E-04    0.25E-04    0.11E-06
 Optimization of the real space projectors (new method)

[...]

   l    n(q)    QCUT    max X(q) W(low)/X(q) W(high)/X(q)  e(spline)
   0      8    11.508     6.651    0.19E-04    0.31E-05    0.49E-08
   0      8    11.508    90.285    0.95E-04    0.17E-03    0.51E-07
   1      8    11.508     4.328    0.14E-04    0.32E-04    0.22E-07
   1      8    11.508    54.583    0.16E-03    0.71E-04    0.89E-07
 Optimization of the real space projectors (new method)

 maximal supplied QI-value         = 19.84
 optimisation between [QCUT,QGAM] = [ 11.51, 23.22] = [ 37.09,150.92] Ry
 Optimized for a Real-space Cutoff    1.21 Angstroem

   l    n(q)    QCUT    max X(q) W(low)/X(q) W(high)/X(q)  e(spline)
   0      8    11.508     5.487    0.18E-04    0.22E-05    0.47E-08
   0      8    11.508    85.627    0.96E-04    0.18E-03    0.54E-07
   1      8    11.508     3.530    0.17E-04    0.28E-04    0.21E-07
   1      8    11.508    42.714    0.18E-03    0.63E-04    0.92E-07

 PAW_PBE Fe 06Sep2000                   :
  PAW_PBE P 17Jan2003                   :
  PAW_PBE S 17Jan2003                   :

 POSCAR: Fe2 P2 S6
  positions in direct lattice
  velocities in cartesian coordinates
 exchange correlation table for  LEXCH =       42
   RHO(1)=    0.500       N(1)  =     2000
   RHO(2)=  100.500       N(2)  =     4000

 ion  position               nearest neighbor table
   1  0.333  0.333  0.500-   6 2.78   5 2.78   7 2.78   8 2.78  10 2.78   9 2.78
   2  0.667  0.667  0.500-   9 2.78   8 2.78  10 2.78   5 2.78   7 2.78   6 2.78
   3  0.000  0.000  0.448-   4 2.43   8 2.63  10 2.63   9 2.63
   4  0.000  0.000  0.552-   3 2.43   5 2.63   7 2.63   6 2.63
   5  0.626  0.000  0.574-   4 2.63   1 2.78   2 2.78
   6  0.000  0.373  0.574-   4 2.63   1 2.78   2 2.78
   7  0.373  0.626  0.574-   4 2.63   1 2.78   2 2.78
   8  0.374  1.000  0.426-   3 2.63   2 2.78   1 2.78
   9  1.000  0.627  0.426-   3 2.63   2 2.78   1 2.78
  10  0.627  0.374  0.426-   3 2.63   2 2.78   1 2.78

  LATTYP: Found a hexagonal cell.
 ALAT       =     6.9077769333
 C/A-ratio  =     3.3939410937

  Lattice vectors:

 A1 = (   3.4538890000,  -5.9823100000,   0.0000000000)
 A2 = (  -6.9077770000,   0.0000000000,   0.0000000000)
 A3 = (   0.0000000000,   0.0000000000, -23.4445880000)

Analysis of symmetry for initial positions (statically):
 Subroutine PRICEL returns:
 Original cell was already a primitive cell.

 Routine SETGRP: Setting up the symmetry group for a
 hexagonal supercell.

 Subroutine GETGRP returns: Found  6 space group operations
 (whereof  6 operations were pure point group operations)
 out of a pool of 24 trial point group operations.

The static configuration has the point symmetry S_6 .

Analysis of symmetry for dynamics (positions and initial velocities):
 Subroutine PRICEL returns:
 Original cell was already a primitive cell.

[...]

The dynamic configuration has the point symmetry S_6 .

Analysis of constrained symmetry for selective dynamics:
 Subroutine PRICEL returns:
 Original cell was already a primitive cell.

[...]

The constrained configuration has the point symmetry S_6 .

Analysis of structural, dynamic, and magnetic symmetry:
 Subroutine PRICEL returns:
 Original cell was already a primitive cell.

 Routine SETGRP: Setting up the symmetry group for a
 hexagonal supercell.

 Subroutine GETGRP returns: Found  6 space group operations
 (whereof  6 operations were pure point group operations)
 out of a pool of 24 trial point group operations.

The magnetic configuration has the point symmetry S_6 .

 Subroutine INISYM returns: Found  6 space group operations
 (whereof  6 operations are pure point group operations),
 and found     1 'primitive' translations

 KPOINTS: Kpoints from vasprun.xml

Automatic generation of k-mesh.
Space group operators:
 irot       det(A)        alpha          n_x          n_y          n_z        tau_x        tau_y        tau_z
    1     1.000000     0.000000     1.000000     0.000000     0.000000     0.000000     0.000000     0.000000
    2    -1.000000     0.000000     1.000000     0.000000     0.000000     0.000000     0.000000     0.000000
    3     1.000000   120.000000     0.000000     0.000000     1.000000     0.000000     0.000000     0.000000
    4    -1.000000   120.000000     0.000000     0.000000     1.000000     0.000000     0.000000     0.000000
    5     1.000000   120.000000     0.000000     0.000000    -1.000000     0.000000     0.000000     0.000000
    6    -1.000000   120.000000     0.000000     0.000000    -1.000000     0.000000     0.000000     0.000000

 Subroutine IBZKPT returns following result:

 Found      5 irreducible k-points:

 Following reciprocal coordinates:
            Coordinates               Weight
  0.000000  0.000000  0.000000      1.000000
  0.200000  0.000000  0.000000      6.000000
  0.400000  0.000000  0.000000      6.000000
  0.400000  0.200000  0.000000      6.000000
 -0.400000  0.200000  0.000000      6.000000

 Following cartesian coordinates:
            Coordinates               Weight
  0.000000  0.000000  0.000000      1.000000
  0.028953 -0.016716  0.000000      6.000000
  0.057906 -0.033432  0.000000      6.000000
  0.057906  0.000000  0.000000      6.000000
 -0.057906  0.066864  0.000000      6.000000

 TETIRR: Found     15 inequivalent tetrahedra from      150

 SYSTEM =  unknown system
 POSCAR =  Fe2 P2 S6

 Startparameter for this run:
   NWRITE =      2    write-flag & timer
   PREC   = accura    normal or accurate (medium, high low for compatibility)
   ISTART =      0    job   : 0-new  1-cont  2-samecut
   ICHARG =      2    charge: 1-file 2-atom 10-const
   ISPIN  =      2    spin polarized calculation?
   LNONCOLLINEAR =      F non collinear calculations
   LSORBIT =      F    spin-orbit coupling
   INIWAV =      1    electr: 0-lowe 1-rand  2-diag
   LASPH  =      F    aspherical Exc in radial PAW
   METAGGA=      F    non-selfconsistent MetaGGA calc.

 Electronic Relaxation 1
   ENCUT  =  520.0 eV  38.22 Ry    6.18 a.u.  12.84 12.84 43.59*2*pi/ulx,y,z
   ENINI  =  520.0     initial cutoff
   ENAUG  =  511.4 eV  augmentation charge cutoff
   NELM   =    400;   NELMIN=  2; NELMDL=  0     # of ELM steps
   EDIFF  = 0.1E-03   stopping-criterion for ELM
   LREAL  =      T    real-space projection
   NLSPLINE    = F    spline interpolate recip. space projectors
   LCOMPAT=      F    compatible to vasp.4.4
   GGA_COMPAT  = T    GGA compatible to vasp.4.4-vasp.4.6
   LMAXPAW     = -100 max onsite density
   LMAXMIX     =    2 max onsite mixed and CHGCAR
   VOSKOWN=      0    Vosko Wilk Nusair interpolation
   ROPT   =   -0.00025  -0.00025  -0.00025
 Ionic relaxation
   EDIFFG = 0.1E-02   stopping-criterion for IOM
   NSW    =     99    number of steps for IOM
   NBLOCK =      1;   KBLOCK =     99    inner block; outer block
   IBRION =      2    ionic relax: 0-MD 1-quasi-New 2-CG
   NFREE  =      1    steps in history (QN), initial steepest desc. (CG)
   ISIF   =      3    stress and relaxation
   IWAVPR =     11    prediction:  0-non 1-charg 2-wave 3-comb
   ISYM   =      2    0-nonsym 1-usesym 2-fastsym
   LCORR  =      T    Harris-Foulkes like correction to forces

   POTIM  = 0.5000    time-step for ionic-motion
   TEIN   =    0.0    initial temperature
   TEBEG  =    0.0;   TEEND  =   0.0 temperature during run
   SMASS  =  -3.00    Nose mass-parameter (am)
   estimated Nose-frequenzy (Omega)   =  0.10E-29 period in steps =****** mass=  -0.109E-26a.u.
   SCALEE = 1.0000    scale energy and forces
   NPACO  =    256;   APACO  = 16.0  distance and # of slots for P.C.
   PSTRESS=    0.0 pullay stress

  Mass of Ions in am
   POMASS =  55.85 30.97 32.07
  Ionic Valenz
   ZVAL   =   8.00  5.00  6.00
  Atomic Wigner-Seitz radii
  virtual crystal weights
   VCA    =   1.00  1.00  1.00
   NELECT =      62.0000    total number of electrons
   NUPDOWN=      -1.0000    fix difference up-down

 DOS related values:
   EMIN   =  10.00;   EMAX   =-10.00  energy-range for DOS
   EFERMI =   0.00
   ISMEAR =    -5;   SIGMA  =   0.05  broadening in eV -4-tet -1-fermi 0-gaus

 Electronic relaxation 2 (details)
   IALGO  =     38    algorithm
   LDIAG  =      T    sub-space diagonalisation (order eigenvalues)
   LSUBROT=      F    optimize rotation matrix (better conditioning)
   TURBO    =      0    0=normal 1=particle mesh
   IRESTART =      0    0=no restart 2=restart with 2 vectors
   NREBOOT  =      0    no. of reboots
   NMIN     =      0    reboot dimension
   EREF     =   0.00    reference energy to select bands
   IMIX   =      4    mixing-type and parameters
     AMIX     =   0.40;   BMIX     =  1.00
     AMIX_MAG =   1.60;   BMIX_MAG =  1.00
     AMIN     =   0.01
     WC   =   100.;   INIMIX=   1;  MIXPRE=   1;  MAXMIX= -45

 Intra band minimization:
   WEIMIN = 0.0010     energy-eigenvalue tresh-hold
   EBREAK =  0.52E-06  absolut break condition
   DEPER  =   0.30     relativ break condition

   TIME   =   0.40     timestep for ELM

  volume/ion in A,a.u.               =      96.88       653.80
[...]

  FORCE on cell =-STRESS in cart. coord.  units (eV):
  Direction    XX          YY          ZZ          XY          YZ          ZX
  Alpha Z    23.27933    23.27933    23.27933
  Ewald    9288.44943  9288.44692-11057.41444    -0.00146    -0.00048    -0.00088
  Hartree  9913.21113  9913.21168 -9500.38416    -0.00016     0.00006     0.00009
  E(xc)    -236.96991  -236.96897  -236.56079    -0.00081    -0.00026     0.00015
  Local  -20136.39313-20136.39219 19580.71038     0.00137     0.00029     0.00055
  n-local   485.11490   487.17407   499.76018     0.44547     0.44598     0.19155
  augment   -47.99605   -47.99679   -51.66143     0.00077     0.00041    -0.00025
  Kinetic   678.85381   678.31695   718.59495    -1.68937    -0.98792    -0.99109
  Fock        0.00000     0.00000     0.00000     0.00000     0.00000     0.00000
  Total     -31.68974   -31.68974   -23.67598     0.00002     0.00000     0.00000
  in kB     -52.40582   -52.40581   -39.15332     0.00003     0.00000     0.00000

 VOLUME and BASIS-vectors are now :
  energy-cutoff  :      520.00
  volume of cell :      968.84
      direct lattice vectors                 reciprocal lattice vectors
     6.907777000 -0.000000000  0.000000000     0.144764372 -0.083579742  0.000000000
     3.453888000  5.982310000  0.000000000     0.000000000  0.167159509 -0.000000000
     0.000000000  0.000000000 23.444588000    -0.000000000  0.000000000  0.042653767

[...]

 FORCES acting on ions
    electron-ion (+dipol)            ewald-force                    non-local-force                 convergence-correction
   0.163E-03 0.693E-04 0.948E+00   0.484E-03 0.288E-03 -.916E+00   0.347E-17 -.694E-17 -.146E-01   0.492E-05 0.258E-05 -.127E-01
   -.163E-03 -.693E-04 -.948E+00   -.484E-03 -.288E-03 0.916E+00   -.347E-17 0.694E-17 0.146E-01   -.492E-05 -.258E-05 0.127E-01
   -.172E-04 -.248E-04 0.227E+03   -.176E-03 -.974E-04 -.230E+03   -.191E-16 -.104E-16 0.235E+01   0.490E-05 -.498E-06 0.793E+00
   0.172E-04 0.248E-04 -.227E+03   0.176E-03 0.974E-04 0.230E+03   0.191E-16 -.347E-17 -.235E+01   -.490E-05 0.498E-06 -.793E+00
   -.546E+01 0.138E+00 -.392E+03   0.453E+01 -.143E+00 0.397E+03   0.259E+01 0.123E-01 -.481E+01   -.692E+00 -.757E-02 -.174E+01
   0.285E+01 0.466E+01 -.392E+03   -.239E+01 -.385E+01 0.397E+03   -.128E+01 -.225E+01 -.481E+01   0.340E+00 0.603E+00 -.174E+01
   0.261E+01 -.480E+01 -.392E+03   -.214E+01 0.400E+01 0.397E+03   -.130E+01 0.223E+01 -.481E+01   0.353E+00 -.596E+00 -.174E+01
   0.546E+01 -.138E+00 0.392E+03   -.453E+01 0.143E+00 -.397E+03   -.259E+01 -.123E-01 0.481E+01   0.692E+00 0.757E-02 0.174E+01
   -.285E+01 -.466E+01 0.392E+03   0.239E+01 0.385E+01 -.397E+03   0.128E+01 0.225E+01 0.481E+01   -.340E+00 -.603E+00 0.174E+01
   -.261E+01 0.480E+01 0.392E+03   0.214E+01 -.400E+01 -.397E+03   0.130E+01 -.223E+01 0.481E+01   -.353E+00 0.596E+00 0.174E+01
   0.142E-09 0.154E-09 0.114E-09   0.102E-13 -.266E-14 -.171E-12   -.888E-15 0.000E+00 -.178E-14   -.377E-13 -.588E-14 -.798E-11

 POSITION                                       TOTAL-FORCE (eV/Angst)
      3.45388      1.99410     11.72054        -0.000000     -0.000000      0.005418
      6.90778      3.98821     11.72405        -0.000000     -0.000000     -0.005418
      0.00000      0.00000     10.50824        -0.000000     -0.000000      0.111449
      0.00000      0.00000     12.93635        -0.000000     -0.000000     -0.111449
      4.32819      0.00251     13.45138         0.970335      0.000549     -1.597059
      1.29198      2.23274     13.45138        -0.484692     -0.840609     -1.597059
      4.74152      3.74706     13.45138        -0.485642      0.840060     -1.597059
      6.03348      5.97980      9.99321        -0.970335     -0.000549      1.597059
      9.06969      3.74957      9.99321         0.484692      0.840609      1.597059
      5.62015      2.23525      9.99321         0.485642     -0.840060      1.597059
    total drift:                                0.000000      0.000000      0.000000

  FREE ENERGIE OF THE ION-ELECTRON SYSTEM (eV)
  free  energy   TOTEN  =       -42.16290637 eV

  energy  without entropy=      -42.16290637  energy(sigma->0) =      -42.16290637

[...]

 d Force = 0.6499161E+00[ 0.414E+00, 0.886E+00]  d Energy = 0.8086492E+01-0.744E+01
 d Force =-0.1971736E+03[-0.231E+03,-0.164E+03]  d Ewald  =-0.2182598E+04 0.199E+04

 Steepest descent step on ions:
 trial-energy change:   -8.086492  1 .order   -8.272464  -13.405713   -3.139214
  (g-gl).g = 0.134E+02      g.g   = 0.134E+02  gl.gl    = 0.000E+00
 g(Force)  = 0.101E+01   g(Stress)= 0.124E+02 ortho     = 0.000E+00
 gamma     =   0.00000
 trial     =   1.00000
 opt step  =   1.35875  (harmonic =   1.30577) maximal distance =0.10468692
 next E    =   -50.803912   (d E  =  -8.64101)

[...]

 d Force =-0.4621282E-01[-0.253E+00, 0.161E+00]  d Energy =-0.8846801E+00 0.838E+00
 d Force =-0.9576394E+02[-0.102E+03,-0.891E+02]  d Ewald  =-0.1067606E+04 0.972E+03

[...]

 d Force = 0.6930384E-01[-0.627E-01, 0.201E+00]  d Energy = 0.1099923E+01-0.103E+01
 d Force = 0.7683701E+02[ 0.729E+02, 0.808E+02]  d Ewald  = 0.7969888E+03-0.720E+03

[...]

 d Force = 0.5005343E-02[ 0.402E-02, 0.599E-02]  d Energy = 0.8827407E-02-0.382E-02
 d Force =-0.7041039E+01[-0.708E+01,-0.701E+01]  d Ewald  =-0.7483122E+02 0.678E+02

[...]

 d Force = 0.2494835E-01[-0.690E-01, 0.119E+00]  d Energy = 0.2420517E-01 0.743E-03
 d Force =-0.6812950E+01[-0.636E+01,-0.727E+01]  d Ewald  = 0.4116420E+02-0.480E+02

 Conjugate gradient step on ions:
 trial-energy change:   -0.024205  1 .order   -0.028322   -0.120371    0.063727
  (g-gl).g = 0.114E+00      g.g   = 0.117E+00  gl.gl    = 0.134E+02
 g(Force)  = 0.115E+00   g(Stress)= 0.260E-02 ortho     = 0.336E-02
 gamma     =   0.00851
 trial     =   1.02483
 opt step  =   0.63776  (harmonic =   0.67008) maximal distance =0.02891057
 next E    =   -50.509930   (d E  =  -0.03646)

[...]

 d Force = 0.1386295E-01[ 0.162E-02, 0.261E-01]  d Energy = 0.1246710E-01 0.140E-02
 d Force = 0.2472669E+01[ 0.254E+01, 0.240E+01]  d Ewald  =-0.1563821E+02 0.181E+02

[...]

 d Force = 0.1571102E-02[ 0.750E-03, 0.239E-02]  d Energy = 0.9930089E-02-0.836E-02
 d Force =-0.1528086E+02[-0.152E+02,-0.154E+02]  d Ewald  = 0.1584756E+03-0.174E+03

 Conjugate gradient step on ions:
 trial-energy change:   -0.009930  1 .order   -0.011340   -0.015322   -0.007358
  (g-gl).g = 0.163E-01      g.g   = 0.163E-01  gl.gl    = 0.117E+00
 g(Force)  = 0.311E-02   g(Stress)= 0.132E-01 ortho     =-0.741E-03
 gamma     =   0.13875
 trial     =   0.94742
 opt step  =   1.82283  (harmonic =   1.82283) maximal distance =0.00869267
 next E    =   -50.524881   (d E  =  -0.01474)

[...]

 d Force =-0.1174286E-03[-0.928E-03, 0.693E-03]  d Energy = 0.1865892E-02-0.198E-02
 d Force =-0.1397480E+02[-0.139E+02,-0.140E+02]  d Ewald  = 0.1447055E+03-0.159E+03

[...]

 d Force = 0.2120769E-03[ 0.887E-04, 0.335E-03]  d Energy = 0.5720896E-03-0.360E-03
 d Force = 0.5039709E+01[ 0.505E+01, 0.503E+01]  d Ewald  =-0.5179552E+02 0.568E+02

[...]

 d Force =-0.5199122E-04[-0.390E-03, 0.286E-03]  d Energy =-0.1388691E-03 0.869E-04
 d Force = 0.4174269E+01[ 0.417E+01, 0.418E+01]  d Ewald  =-0.9402532E+01 0.136E+02

 Steepest descent step on ions:
 trial-energy change:    0.000139  1 .order   -0.000103   -0.001115    0.000910
  (g-gl).g = 0.299E-02      g.g   = 0.105E-02  gl.gl    = 0.163E-01
 g(Force)  = 0.269E-03   g(Stress)= 0.783E-03 ortho     =-0.148E-02
 gamma     =   0.00000
 trial     =   1.05958
 opt step  =   0.58362  (harmonic =   0.58362) maximal distance =0.00126268
 next E    =   -50.522816   (d E  =  -0.00031)

[...]

 eigenvalue-minimisations  :  1184
 total energy-change (2. order) : 0.2178709E-02  (-0.7093623E-03)
 number of electron      61.9999993 magnetization       0.0000000
 augmentation part        2.3935574 magnetization      -0.0000030

[...]

 Broyden mixing:
  rms(total) = 0.26192E-02    rms(broyden)= 0.26192E-02
  rms(prec ) = 0.29862E-02
  weight for this iteration     100.00

 eigenvalues of (default mixing * dielectric matrix)
  average eigenvalue GAMMA=   1.0139
  0.2891  0.9027  1.8499

[...]

--------------------------------------- Iteration     12(   5)  ---------------------------------------

[...]

 eigenvalue-minimisations  :   640
 total energy-change (2. order) :-0.3647156E-04  (-0.2376893E-05)
 number of electron      61.9999993 magnetization       0.0000000
 augmentation part        2.3962775 magnetization       0.0000065

 Free energy of the ion-electron system (eV)
  alpha Z        PSCENC =        38.69238082
  Ewald energy   TEWEN  =      9775.80030485
  -Hartree energ DENC   =    -12708.89805227
  -exchange      EXHF   =         0.00000000
  -V(xc)+E(xc)   XCENC  =        87.86874001
  PAW double counting   =      1825.53352912    -1802.25225056
  entropy T*S    EENTRO =         0.00000000
  eigenvalues    EBANDS =      -481.42980329
  atomic energy  EATOM  =      3214.16218276
  Solvation  Ediel_sol  =         0.00000000
  free energy    TOTEN  =       -50.52296855 eV

  energy without entropy =      -50.52296855  energy(sigma->0) =      -50.52296855

 average (electrostatic) potential at core
  the test charge radii are     1.0103  0.9587  0.9698
  (the norm of the test charge is              1.0000)
       1 -50.5971       2 -50.5971       3 -92.8080       4 -92.8080       5 -94.1800
       6 -94.1800       7 -94.1799       8 -94.1800       9 -94.1800      10 -94.1799

 E-fermi :  -1.8876     XC(G=0):  -3.8761     alpha+bet : -3.3966

[...]

 spin component 2

[...]

 k-point     5 :      -0.4000    0.2000    0.0000
  band No.  band energies     occupation
      1     -18.2678      1.00000
      2     -16.7101      1.00000
      3     -16.4299      1.00000
      4     -16.0139      1.00000
      5     -15.5837      1.00000
      6     -15.4507      1.00000
      7     -12.4172      1.00000
      8     -11.0018      1.00000
      9      -8.8331      1.00000
     10      -8.3782      1.00000
     11      -8.3414      1.00000
     12      -7.8320      1.00000
     13      -7.4052      1.00000
     14      -6.6063      1.00000
     15      -6.1263      1.00000
     16      -6.0532      1.00000
     17      -5.9502      1.00000
     18      -5.8312      1.00000
     19      -5.8092      1.00000
     20      -5.2527      1.00000
     21      -5.1847      1.00000
     22      -4.3842      1.00000
     23      -4.2893      1.00000
     24      -4.2062      1.00000
     25      -4.0400      1.00000
     26      -3.2253      1.00000
     27      -2.6303      1.00000
     28      -2.5836      1.00000
     29      -2.0373      1.00000
     30      -2.0052      1.00000
     31      -1.9323      1.00000
     32      -1.4710      0.00000
     33      -0.8962      0.00000
     34      -0.6989      0.00000
     35      -0.2595      0.00000
     36      -0.1524      0.00000
     37       0.2574      0.00000
     38       0.5985      0.00000
     39       1.1450      0.00000
     40       1.4600      0.00000
     41       1.6973      0.00000
     42       1.8364      0.00000
     43       3.2977      0.00000
     44       3.5167      0.00000
     45       3.5820      0.00000
     46       3.7139      0.00000
     47       3.9261      0.00000
     48       4.2024      0.00000

[...]

 soft charge-density along one line, spin component           2
         0         1         2         3         4         5         6         7         8         9
 total charge-density along one line

------------------------ aborting loop because EDIFF is reached ----------------------------------------

[...]

  FORCE on cell =-STRESS in cart. coord.  units (eV):
  Direction    XX          YY          ZZ          XY          YZ          ZX
  Alpha Z    38.69238    38.69238    38.69238
  Ewald   11925.61520 11925.61168-14075.42926    -0.00176    -0.00062    -0.00112
  Hartree 12409.43342 12409.43399-12109.88783    -0.00015     0.00005     0.00009
  E(xc)    -244.91996  -244.91997  -244.86766     0.00002     0.00000     0.00001
  Local  -25291.60113-25291.59984 25176.03815     0.00140     0.00036     0.00066
  n-local   483.73616   484.57163   493.29497     0.36000     0.30279     0.31239
  augment   -47.40006   -47.39997   -53.39198     0.00002     0.00004     0.00004
  Kinetic   728.99921   722.96581   775.49108    -3.84225     0.06233     0.15732
  Fock        0.00000     0.00000     0.00000     0.00000     0.00000     0.00000
  Total      -0.04454    -0.04454    -0.06016     0.00000     0.00000     0.00000
  in kB      -0.12242    -0.12242    -0.16537     0.00000     0.00000     0.00000

 VOLUME and BASIS-vectors are now :
  energy-cutoff  :      520.00
  volume of cell :      582.90
      direct lattice vectors                 reciprocal lattice vectors
     5.763252696 -0.000000639  0.000000000     0.173513116 -0.100177865  0.000000000
     2.881626655  4.991122743  0.000000000     0.000000022  0.200355709  0.000000000
    -0.000000000 -0.000000000 20.264174269    -0.000000000 -0.000000000  0.049348174

  length of vectors
     5.763252696  5.763252416 20.264174269     0.200355699  0.200355709  0.049348174

 FORCES acting on ions
    electron-ion (+dipol)            ewald-force                    non-local-force                 convergence-correction
   -.193E-03 -.118E-03 0.858E+00   0.726E-03 0.425E-03 -.867E+00   0.416E-16 -.258E-21 0.129E-01   0.127E-06 0.206E-07 -.382E-03
   0.193E-03 0.118E-03 -.858E+00   -.726E-03 -.425E-03 0.867E+00   -.416E-16 -.139E-16 -.129E-01   -.127E-06 -.206E-07 0.382E-03
   -.374E-04 -.250E-04 0.350E+03   -.284E-03 -.160E-03 -.346E+03   -.416E-16 -.341E-17 -.311E+01   0.109E-07 0.390E-08 0.198E-02
   0.374E-04 0.250E-04 -.350E+03   0.284E-03 0.160E-03 0.346E+03   0.416E-16 0.341E-17 0.311E+01   -.109E-07 -.390E-08 -.198E-02
   -.451E+01 -.207E-01 -.565E+03   -.233E+00 0.304E-01 0.569E+03   0.475E+01 -.139E-01 -.442E+01   -.612E-02 -.106E-03 -.578E-02
   0.224E+01 0.391E+01 -.565E+03   0.142E+00 0.186E+00 0.569E+03   -.239E+01 -.411E+01 -.442E+01   0.297E-02 0.536E-02 -.578E-02
   0.227E+01 -.390E+01 -.565E+03   0.900E-01 -.217E+00 0.569E+03   -.236E+01 0.412E+01 -.442E+01   0.315E-02 -.525E-02 -.578E-02
   0.451E+01 0.207E-01 0.565E+03   0.233E+00 -.304E-01 -.569E+03   -.475E+01 0.139E-01 0.442E+01   0.612E-02 0.106E-03 0.578E-02
   -.224E+01 -.391E+01 0.565E+03   -.142E+00 -.186E+00 -.569E+03   0.239E+01 0.411E+01 0.442E+01   -.297E-02 -.536E-02 0.578E-02
   -.227E+01 0.390E+01 0.565E+03   -.900E-01 0.217E+00 -.569E+03   0.236E+01 -.412E+01 0.442E+01   -.315E-02 0.525E-02 0.578E-02
   0.177E-09 0.216E-09 0.946E-09   -.167E-13 0.838E-14 0.000E+00   -.178E-14 0.888E-15 0.888E-15   0.221E-13 0.393E-12 0.328E-10

 POSITION                                       TOTAL-FORCE (eV/Angst)
      2.88162      1.66371     10.13063        -0.000000      0.000000      0.002948
      5.76326      3.32742     10.13354        -0.000000      0.000000     -0.002948
     -0.00000     -0.00000      9.05745        -0.000000      0.000000      0.015960
     -0.00000     -0.00000     11.20673        -0.000000      0.000000     -0.015960
      3.66776      0.00091     11.53794         0.004877     -0.003513      0.001877
      1.04854      1.81430     11.53794        -0.005481     -0.002467      0.001877
      3.92859      3.17592     11.53794         0.000604      0.005980      0.001877
      4.97712      4.99021      8.72623        -0.004877      0.003513     -0.001877
      7.59634      3.17682      8.72623         0.005481      0.002467     -0.001877
      4.71629      1.81520      8.72623        -0.000604     -0.005980     -0.001877
    total drift:                                0.000000      0.000000      0.000000

  FREE ENERGIE OF THE ION-ELECTRON SYSTEM (eV)
  free  energy   TOTEN  =       -50.52296855 eV

  energy  without entropy=      -50.52296855  energy(sigma->0) =      -50.52296855

 d Force = 0.9905379E-04[ 0.235E-04, 0.175E-03]  d Energy = 0.5982906E-03-0.499E-03
 d Force =-0.1869360E+01[-0.187E+01,-0.187E+01]  d Ewald  = 0.4221572E+01-0.609E+01

 reached required accuracy - stopping structural energy minimisation

 total charge

[...]

 magnetization (x)

# of ion       s       p       d       tot
    1       -0.000   0.000  -0.000  -0.000
    2       -0.000   0.000  -0.000  -0.000
    3        0.000   0.000   0.000   0.000
    4        0.000   0.000   0.000   0.000
    5       -0.000   0.000   0.000   0.000
    6       -0.000   0.000   0.000   0.000
    7       -0.000   0.000   0.000   0.000
    8       -0.000   0.000   0.000   0.000
    9       -0.000   0.000   0.000   0.000
   10       -0.000   0.000   0.000   0.000
tot         -0.000   0.000  -0.000  -0.000

 BZINTS: Fermi energy: -1.887583; 62.000000 electrons
         Band energy:-481.429803;  BLOECHL correction:  0.000000