 vasp.5.4.4.18Apr17-6-g9f103f2a35 (build May  1 2020 15:48:39) complex
 executed on             LinuxGNU date 2020.06.27  09:44:16

 INCAR:
 POTCAR:   PAW_PBE Co 06Sep2000
 POTCAR:   PAW_PBE Ge 05Jan2001
 POTCAR:   PAW_PBE Te 08Apr2002

 POTCAR:   PAW_PBE Co 06Sep2000
   VRHFIN =Co: d8 s1

   TITEL  = PAW_PBE Co 06Sep2000
   POMASS =   58.933; ZVAL   =    9.000    mass and valenz
   ENMAX  =  267.969; ENMIN  =  200.977 eV
   QCUT   =   -4.438; QGAM   =    8.876    optimization parameters

   Description
     l     E      TYP  RCUT    TYP  RCUT
     2   .000     23  2.300
     2   .000     23  2.300
     0   .000     23  2.300
     0   .000     23  2.300
     1  -.200     23  2.300
     1   .000     23  2.300
     3   .000      7   .000

 POTCAR:   PAW_PBE Ge 05Jan2001
   VRHFIN =Ge: s2p2

   TITEL  = PAW_PBE Ge 05Jan2001
   POMASS =   72.610; ZVAL   =    4.000    mass and valenz
   ENMAX  =  173.807; ENMIN  =  130.355 eV
   QCUT   =   -3.574; QGAM   =    7.148    optimization parameters

[...]

 POTCAR:   PAW_PBE Te 08Apr2002
   VRHFIN =Te: s2p4

   TITEL  = PAW_PBE Te 08Apr2002
   POMASS =  127.600; ZVAL   =    6.000    mass and valenz
   ENMAX  =  174.982; ENMIN  =  131.236 eV
   QCUT   =   -3.586; QGAM   =    7.172    optimization parameters

   Description
     l     E      TYP  RCUT    TYP  RCUT
     0   .000     23  2.300
     0   .000     23  2.300
     1   .000     23  2.300
     1   .000     23  2.300
     2   .000     23  2.300
     3  -.100     23  2.300

 Optimization of the real space projectors (new method)

 maximal supplied QI-value         = 16.25
 optimisation between [QCUT,QGAM] = [ 11.54, 23.24] = [ 37.28,151.24] Ry
 Optimized for a Real-space Cutoff    1.53 Angstroem

   l    n(q)    QCUT    max X(q) W(low)/X(q) W(high)/X(q)  e(spline)
   2     10    11.539     4.599    0.83E-05    0.15E-04    0.45E-07
   2     10    11.539    18.158    0.10E-03    0.14E-03    0.24E-06
   0     11    11.539    15.740    0.19E-04    0.12E-05    0.17E-07
   0     11    11.539    47.662    0.48E-04    0.15E-04    0.31E-06
   1     10    11.539     5.777    0.11E-04    0.46E-05    0.25E-07
   1     10    11.539     8.007    0.46E-04    0.29E-04    0.11E-06
 Optimization of the real space projectors (new method)

[...]

   l    n(q)    QCUT    max X(q) W(low)/X(q) W(high)/X(q)  e(spline)
   0      9    11.539     8.651    0.22E-04    0.16E-04    0.10E-07
   0      9    11.539    33.192    0.11E-03    0.16E-03    0.65E-07
   1      8    11.539     5.899    0.37E-04    0.28E-04    0.43E-07
   1      8    11.539    27.289    0.22E-03    0.28E-04    0.14E-06
   2      8    11.539     4.673    0.11E-03    0.18E-03    0.58E-07
 Optimization of the real space projectors (new method)

 maximal supplied QI-value         = 16.25
 optimisation between [QCUT,QGAM] = [ 11.54, 23.24] = [ 37.28,151.24] Ry
 Optimized for a Real-space Cutoff    1.36 Angstroem

   l    n(q)    QCUT    max X(q) W(low)/X(q) W(high)/X(q)  e(spline)
   0      9    11.539     7.090    0.13E-04    0.25E-05    0.51E-08
   0      9    11.539   101.654    0.53E-04    0.69E-04    0.12E-06
   1      9    11.539     5.276    0.20E-04    0.98E-05    0.24E-07
   1      9    11.539    81.891    0.24E-03    0.13E-04    0.15E-06
   2      9    11.539     5.599    0.30E-04    0.97E-04    0.54E-07

 PAW_PBE Co 06Sep2000                   :
 PAW_PBE Ge 05Jan2001                   :
 PAW_PBE Te 08Apr2002                   :

 POSCAR: Co2 Ge2 Te6
  positions in direct lattice
 exchange correlation table for  LEXCH =       42
   RHO(1)=    0.500       N(1)  =     2000
   RHO(2)=  100.500       N(2)  =     4000

 ion  position               nearest neighbor table
   1  0.333  0.333  0.500-   6 2.78   5 2.78   7 2.78   8 2.78  10 2.78   9 2.78
   2  0.667  0.667  0.500-   9 2.78   8 2.78  10 2.78   5 2.78   7 2.78   6 2.78
   3  0.000  0.000  0.448-   4 2.43   8 2.63  10 2.63   9 2.63
   4  0.000  0.000  0.552-   3 2.43   5 2.63   7 2.63   6 2.63
   5  0.626  0.000  0.574-   4 2.63   1 2.78   2 2.78
   6  0.000  0.373  0.574-   4 2.63   1 2.78   2 2.78
   7  0.373  0.626  0.574-   4 2.63   1 2.78   2 2.78
   8  0.374  1.000  0.426-   3 2.63   2 2.78   1 2.78
   9  1.000  0.627  0.426-   3 2.63   2 2.78   1 2.78
  10  0.627  0.374  0.426-   3 2.63   2 2.78   1 2.78

  LATTYP: Found a hexagonal cell.
 ALAT       =     6.9077769333
 C/A-ratio  =     3.3939410937

  Lattice vectors:

 A1 = (   3.4538890000,  -5.9823100000,   0.0000000000)
 A2 = (  -6.9077770000,   0.0000000000,   0.0000000000)
 A3 = (   0.0000000000,   0.0000000000, -23.4445880000)

Analysis of symmetry for initial positions (statically):
 Subroutine PRICEL returns:
 Original cell was already a primitive cell.

 Routine SETGRP: Setting up the symmetry group for a
 hexagonal supercell.

 Subroutine GETGRP returns: Found  6 space group operations
 (whereof  6 operations were pure point group operations)
 out of a pool of 24 trial point group operations.

The static configuration has the point symmetry S_6 .

Analysis of symmetry for dynamics (positions and initial velocities):
 Subroutine PRICEL returns:
 Original cell was already a primitive cell.

[...]

The dynamic configuration has the point symmetry S_6 .

Analysis of constrained symmetry for selective dynamics:
 Subroutine PRICEL returns:
 Original cell was already a primitive cell.

[...]

The constrained configuration has the point symmetry S_6 .

Analysis of structural, dynamic, and magnetic symmetry:
 Subroutine PRICEL returns:
 Original cell was already a primitive cell.

 Routine SETGRP: Setting up the symmetry group for a
 hexagonal supercell.

 Subroutine GETGRP returns: Found  6 space group operations
 (whereof  6 operations were pure point group operations)
 out of a pool of 24 trial point group operations.

The magnetic configuration has the point symmetry S_6 .

 Subroutine INISYM returns: Found  6 space group operations
 (whereof  6 operations are pure point group operations),
 and found     1 'primitive' translations

 KPOINTS: Kpoints from vasprun.xml

Automatic generation of k-mesh.
Space group operators:
 irot       det(A)        alpha          n_x          n_y          n_z        tau_x        tau_y        tau_z
    1     1.000000     0.000000     1.000000     0.000000     0.000000     0.000000     0.000000     0.000000
    2    -1.000000     0.000000     1.000000     0.000000     0.000000     0.000000     0.000000     0.000000
    3     1.000000   120.000000     0.000000     0.000000     1.000000     0.000000     0.000000     0.000000
    4    -1.000000   120.000000     0.000000     0.000000     1.000000     0.000000     0.000000     0.000000
    5     1.000000   120.000000     0.000000     0.000000    -1.000000     0.000000     0.000000     0.000000
    6    -1.000000   120.000000     0.000000     0.000000    -1.000000     0.000000     0.000000     0.000000

 Subroutine IBZKPT returns following result:

 Found      5 irreducible k-points:

 Following reciprocal coordinates:
            Coordinates               Weight
  0.000000  0.000000  0.000000      1.000000
  0.200000  0.000000  0.000000      6.000000
  0.400000  0.000000  0.000000      6.000000
  0.400000  0.200000  0.000000      6.000000
 -0.400000  0.200000  0.000000      6.000000

 Following cartesian coordinates:
            Coordinates               Weight
  0.000000  0.000000  0.000000      1.000000
  0.028953 -0.016716  0.000000      6.000000
  0.057906 -0.033432  0.000000      6.000000
  0.057906  0.000000  0.000000      6.000000
 -0.057906  0.066864  0.000000      6.000000

 TETIRR: Found     15 inequivalent tetrahedra from      150

 SYSTEM =  unknown system
 POSCAR =  Co2 Ge2 Te6

 Startparameter for this run:
   NWRITE =      2    write-flag & timer
   PREC   = accura    normal or accurate (medium, high low for compatibility)
   ISTART =      0    job   : 0-new  1-cont  2-samecut
   ICHARG =      2    charge: 1-file 2-atom 10-const
   ISPIN  =      2    spin polarized calculation?
   LNONCOLLINEAR =      F non collinear calculations
   LSORBIT =      F    spin-orbit coupling
   INIWAV =      1    electr: 0-lowe 1-rand  2-diag
   LASPH  =      F    aspherical Exc in radial PAW
   METAGGA=      F    non-selfconsistent MetaGGA calc.

 Electronic Relaxation 1
   ENCUT  =  520.0 eV  38.22 Ry    6.18 a.u.  12.84 12.84 43.59*2*pi/ulx,y,z
   ENINI  =  520.0     initial cutoff
   ENAUG  =  477.8 eV  augmentation charge cutoff
   NELM   =    400;   NELMIN=  2; NELMDL=  0     # of ELM steps
   EDIFF  = 0.1E-03   stopping-criterion for ELM
   LREAL  =      T    real-space projection
   NLSPLINE    = F    spline interpolate recip. space projectors
   LCOMPAT=      F    compatible to vasp.4.4
   GGA_COMPAT  = T    GGA compatible to vasp.4.4-vasp.4.6
   LMAXPAW     = -100 max onsite density
   LMAXMIX     =    2 max onsite mixed and CHGCAR
   VOSKOWN=      0    Vosko Wilk Nusair interpolation
   ROPT   =   -0.00025  -0.00025  -0.00025
 Ionic relaxation
   EDIFFG = 0.1E-02   stopping-criterion for IOM
   NSW    =     99    number of steps for IOM
   NBLOCK =      1;   KBLOCK =     99    inner block; outer block
   IBRION =      2    ionic relax: 0-MD 1-quasi-New 2-CG
   NFREE  =      1    steps in history (QN), initial steepest desc. (CG)
   ISIF   =      3    stress and relaxation
   IWAVPR =     11    prediction:  0-non 1-charg 2-wave 3-comb
   ISYM   =      2    0-nonsym 1-usesym 2-fastsym
   LCORR  =      T    Harris-Foulkes like correction to forces

   POTIM  = 0.5000    time-step for ionic-motion
   TEIN   =    0.0    initial temperature
   TEBEG  =    0.0;   TEEND  =   0.0 temperature during run
   SMASS  =  -3.00    Nose mass-parameter (am)
   estimated Nose-frequenzy (Omega)   =  0.10E-29 period in steps =****** mass=  -0.109E-26a.u.
   SCALEE = 1.0000    scale energy and forces
   NPACO  =    256;   APACO  = 16.0  distance and # of slots for P.C.
   PSTRESS=    0.0 pullay stress

  Mass of Ions in am
   POMASS =  58.93 72.61127.60
  Ionic Valenz
   ZVAL   =   9.00  4.00  6.00
  Atomic Wigner-Seitz radii
  virtual crystal weights
   VCA    =   1.00  1.00  1.00
   NELECT =      62.0000    total number of electrons
   NUPDOWN=      -1.0000    fix difference up-down

 DOS related values:
   EMIN   =  10.00;   EMAX   =-10.00  energy-range for DOS
   EFERMI =   0.00
   ISMEAR =    -5;   SIGMA  =   0.05  broadening in eV -4-tet -1-fermi 0-gaus

 Electronic relaxation 2 (details)
   IALGO  =     38    algorithm
   LDIAG  =      T    sub-space diagonalisation (order eigenvalues)
   LSUBROT=      F    optimize rotation matrix (better conditioning)
   TURBO    =      0    0=normal 1=particle mesh
   IRESTART =      0    0=no restart 2=restart with 2 vectors
   NREBOOT  =      0    no. of reboots
   NMIN     =      0    reboot dimension
   EREF     =   0.00    reference energy to select bands
   IMIX   =      4    mixing-type and parameters
     AMIX     =   0.40;   BMIX     =  1.00
     AMIX_MAG =   1.60;   BMIX_MAG =  1.00
     AMIN     =   0.01
     WC   =   100.;   INIMIX=   1;  MIXPRE=   1;  MAXMIX= -45

 Intra band minimization:
   WEIMIN = 0.0010     energy-eigenvalue tresh-hold
   EBREAK =  0.52E-06  absolut break condition
[...]
     15      -5.3761      1.00000
     16      -4.2378      1.00000
     17      -4.2378      1.00000
     18      -4.0466      1.00000
     19      -4.0465      1.00000
     20      -3.7899      1.00000
     21      -3.6331      1.00000
     22      -3.5288      1.00000
     23      -3.5288      1.00000
     24      -2.8222      1.00000
     25      -2.8221      1.00000
     26      -2.8001      1.00000
     27      -2.7391      1.00000
     28      -2.7391      1.00000
     29      -2.7140      1.00000
     30      -2.2659      1.00000
     31      -2.2659      1.00000
     32      -1.5791      0.00000
     33      -1.5791      0.00000
     34      -0.9085      0.00000
     35      -0.9085      0.00000
     36      -0.7600      0.00000
     37      -0.5201      0.00000
     38       1.0481      0.00000
     39       1.0482      0.00000
     40       1.2831      0.00000
     41       1.5352      0.00000
     42       1.9640      0.00000
     43       2.1835      0.00000
     44       2.2397      0.00000
     45       2.2397      0.00000
     46       2.5203      0.00000
     47       3.1309      0.00000
     48       3.1310      0.00000

[...]

 soft charge-density along one line, spin component           1
         0         1         2         3         4         5         6         7         8         9
 total charge-density along one line

[...]

------------------------ aborting loop because EDIFF is reached ----------------------------------------

 total charge

# of ion       s       p       d       tot
    1        0.318   0.303   7.329   7.950
    2        0.318   0.303   7.329   7.950
    3        1.171   1.148   0.071   2.391
    4        1.171   1.148   0.071   2.391
    5        1.400   1.889   0.034   3.324
    6        1.393   1.911   0.033   3.338
    7        1.399   1.893   0.034   3.325
    8        1.400   1.889   0.034   3.324
    9        1.393   1.911   0.033   3.338
   10        1.399   1.893   0.034   3.325
tot         11.363  14.289  15.002  40.655

 magnetization (x)

[...]

  FORCE on cell =-STRESS in cart. coord.  units (eV):
  Direction    XX          YY          ZZ          XY          YZ          ZX
  Alpha Z    20.51493    20.51493    20.51493
  Ewald    9323.94493  9323.94287-11117.97373    -0.00179    -0.00048    -0.00089
  Hartree  9928.56831  9928.56919 -9464.70876    -0.00031     0.00008     0.00012
  E(xc)    -261.71294  -261.71298  -261.20837     0.00007     0.00002     0.00001
  Local  -20096.84753-20096.84716 19712.66307     0.00187     0.00033     0.00062
  n-local   627.95327   627.46163   635.92504    -0.44770     1.08939     1.17947
  augment   -60.33100   -60.33081   -67.10812    -0.00001     0.00005     0.00002
  Kinetic   513.59393   508.21596   532.05899    -3.55023     0.74177     1.04858
  Fock        0.00000     0.00000     0.00000     0.00000     0.00000     0.00000
  Total      -7.25123    -7.25123    -9.83696     0.00000     0.00000     0.00000
  in kB     -11.99147   -11.99147   -16.26753     0.00000     0.00000     0.00000

 VOLUME and BASIS-vectors are now :
  energy-cutoff  :      520.00
  volume of cell :      968.84
      direct lattice vectors                 reciprocal lattice vectors
     6.907777000 -0.000000000  0.000000000     0.144764372 -0.083579742  0.000000000
     3.453888000  5.982310000  0.000000000     0.000000000  0.167159509 -0.000000000
     0.000000000  0.000000000 23.444588000    -0.000000000  0.000000000  0.042653767

[...]

 FORCES acting on ions
    electron-ion (+dipol)            ewald-force                    non-local-force                 convergence-correction
   0.190E-03 0.102E-03 0.103E+01   0.549E-03 0.331E-03 -.104E+01   0.694E-17 -.139E-16 0.111E-01   -.143E-05 -.827E-06 -.238E-03
   -.190E-03 -.102E-03 -.103E+01   -.549E-03 -.331E-03 0.104E+01   -.278E-16 0.139E-16 -.111E-01   0.143E-05 0.827E-06 0.238E-03
   -.489E-04 -.124E-06 0.181E+03   -.141E-03 -.779E-04 -.179E+03   0.867E-17 0.347E-17 -.174E+01   0.113E-06 0.527E-07 -.113E-02
   0.489E-04 0.124E-06 -.181E+03   0.141E-03 0.779E-04 0.179E+03   -.694E-17 -.347E-17 0.174E+01   -.113E-06 -.527E-07 0.113E-02
   -.224E+02 0.159E+00 -.400E+03   0.186E+02 -.155E+00 0.405E+03   0.323E+01 -.120E-01 -.562E+01   -.925E-02 -.649E-04 -.933E-02
   0.114E+02 0.194E+02 -.400E+03   -.941E+01 -.160E+02 0.405E+03   -.162E+01 -.279E+01 -.562E+01   0.457E-02 0.804E-02 -.933E-02
   0.111E+02 -.195E+02 -.400E+03   -.915E+01 0.162E+02 0.405E+03   -.160E+01 0.280E+01 -.562E+01   0.468E-02 -.797E-02 -.933E-02
   0.224E+02 -.159E+00 0.400E+03   -.186E+02 0.155E+00 -.405E+03   -.323E+01 0.120E-01 0.562E+01   0.925E-02 0.649E-04 0.933E-02
   -.114E+02 -.194E+02 0.400E+03   0.941E+01 0.160E+02 -.405E+03   0.162E+01 0.279E+01 0.562E+01   -.457E-02 -.804E-02 0.933E-02
   -.111E+02 0.195E+02 0.400E+03   0.915E+01 -.162E+02 -.405E+03   0.160E+01 -.280E+01 0.562E+01   -.468E-02 0.797E-02 0.933E-02
   -.282E-09 -.237E-10 0.509E-09   0.711E-14 0.711E-14 0.171E-12   0.888E-15 -.444E-15 -.355E-14   0.602E-13 -.272E-13 0.902E-11

 POSITION                                       TOTAL-FORCE (eV/Angst)
      3.45388      1.99410     11.72054        -0.000000      0.000000      0.004328
      6.90778      3.98821     11.72405        -0.000000     -0.000000     -0.004328
      0.00000      0.00000     10.50824        -0.000000     -0.000000     -0.049901
      0.00000      0.00000     12.93635        -0.000000      0.000000      0.049901
      4.32819      0.00251     13.45138        -0.658803     -0.006659     -0.936620
      1.29198      2.23274     13.45138         0.323635      0.573870     -0.936620
      4.74152      3.74706     13.45138         0.335168     -0.567211     -0.936620
      6.03348      5.97980      9.99321         0.658803      0.006659      0.936620
      9.06969      3.74957      9.99321        -0.323635     -0.573870      0.936620
      5.62015      2.23525      9.99321        -0.335168      0.567211      0.936620
    total drift:                               -0.000000     -0.000000      0.000000

  FREE ENERGIE OF THE ION-ELECTRON SYSTEM (eV)
  free  energy   TOTEN  =       -34.80278866 eV

  energy  without entropy=      -34.80278866  energy(sigma->0) =      -34.80278866

[...]

 d Force = 0.7504652E-06[-0.221E-06, 0.172E-05]  d Energy = 0.3806376E+00-0.381E+00
 d Force =-0.4204471E-03[-0.428E-03,-0.413E-03]  d Ewald  =-0.1239574E+03 0.124E+03

 Steepest descent step on ions:
 trial-energy change:   -0.380638  1 .order   -0.353027   -0.974148    0.268094
  (g-gl).g = 0.974E+00      g.g   = 0.974E+00  gl.gl    = 0.000E+00
 g(Force)  = 0.181E-05   g(Stress)= 0.974E+00 ortho     = 0.000E+00
 gamma     =   0.00000
 trial     =   1.00000
 opt step  =   0.80511  (harmonic =   0.78419) maximal distance =0.00016812
 next E    =   -35.209346   (d E  =  -0.40656)

[...]

 d Force = 0.2601733E-07[ 0.638E-08, 0.457E-07]  d Energy = 0.2542834E-01-0.254E-01
 d Force = 0.8811929E-04[ 0.878E-04, 0.884E-04]  d Ewald  = 0.2401015E+02-0.240E+02

[...]

 d Force =-0.4747296E-08[-0.760E-08,-0.189E-08]  d Energy = 0.5050699E-01-0.505E-01
 d Force =-0.2609427E-04[-0.261E-04,-0.261E-04]  d Ewald  = 0.3188429E+03-0.319E+03

 Conjugate gradient step on ions:
 trial-energy change:   -0.050507  1 .order   -0.049998   -0.078532   -0.021464
  (g-gl).g = 0.777E-01      g.g   = 0.814E-01  gl.gl    = 0.974E+00
 g(Force)  = 0.581E-09   g(Stress)= 0.814E-01 ortho     = 0.369E-02
 gamma     =   0.07979
 trial     =   0.96102
 opt step  =   1.29812  (harmonic =   1.32248) maximal distance =0.00001677
 next E    =   -35.263148   (d E  =  -0.05429)

[...]

 eigenvalue-minimisations  :  1184
 total energy-change (2. order) : 0.2284306E-03  (-0.1021592E-03)
 number of electron      62.0000013 magnetization       0.0000000
 augmentation part        1.9935969 magnetization      -0.0000093

 Broyden mixing:
  rms(total) = 0.35136E-02    rms(broyden)= 0.35136E-02
  rms(prec ) = 0.58347E-02
  weight for this iteration     100.00

 eigenvalues of (default mixing * dielectric matrix)
  average eigenvalue GAMMA=   1.1903
  0.2060  2.1446  1.2053  1.2053

[...]

--------------------------------------- Iteration      5(   6)  ---------------------------------------

[...]

 eigenvalue-minimisations  :  1024
 total energy-change (2. order) :-0.5121336E-04  (-0.1214831E-04)
 number of electron      62.0000013 magnetization       0.0000000
 augmentation part        1.9935969 magnetization      -0.0000093

 Free energy of the ion-electron system (eV)
  alpha Z        PSCENC =        22.73098291
  Ewald energy   TEWEN  =      7200.85180026
  -Hartree energ DENC   =    -10079.21569803
  -exchange      EXHF   =         0.00000000
  -V(xc)+E(xc)   XCENC  =      -158.09956345
  PAW double counting   =      2099.23788229    -1933.54282055
  entropy T*S    EENTRO =         0.00000000
  eigenvalues    EBANDS =      -379.25149690
  atomic energy  EATOM  =      3192.02777977
  Solvation  Ediel_sol  =         0.00000000
  free energy    TOTEN  =       -35.26113371 eV

  energy without entropy =      -35.26113371  energy(sigma->0) =      -35.26113371

 average (electrostatic) potential at core
  the test charge radii are     1.0452  1.1631  1.1897
  (the norm of the test charge is              1.0000)
       1 -47.7518       2 -47.7518       3 -38.7015       4 -38.7015       5 -96.3482
       6 -96.3482       7 -96.3481       8 -96.3482       9 -96.3482      10 -96.3481

 E-fermi :  -1.8734     XC(G=0):  -3.3822     alpha+bet : -3.2541

[...]

 spin component 2

[...]

 k-point     5 :      -0.4000    0.2000    0.0000
  band No.  band energies     occupation
      1     -14.2747      1.00000
      2     -13.5765      1.00000
      3     -13.2189      1.00000
      4     -13.1574      1.00000
      5     -12.8475      1.00000
      6     -12.6871      1.00000
      7     -10.2985      1.00000
      8      -8.5535      1.00000
      9      -6.5367      1.00000
     10      -6.0176      1.00000
     11      -5.9960      1.00000
     12      -5.5072      1.00000
     13      -5.2417      1.00000
     14      -4.9584      1.00000
     15      -4.6663      1.00000
     16      -4.3900      1.00000
     17      -4.3194      1.00000
     18      -4.1944      1.00000
     19      -4.1494      1.00000
     20      -3.9360      1.00000
     21      -3.8551      1.00000
     22      -3.3730      1.00000
     23      -3.0734      1.00000
     24      -3.0248      1.00000
     25      -2.8745      1.00000
     26      -2.6768      1.00000
     27      -2.5576      1.00000
     28      -2.4105      1.00000
     29      -2.3822      1.00000
     30      -2.3425      1.00000
     31      -2.3348      1.00000
     32      -1.1404      0.00000
     33      -1.0734      0.00000
     34      -0.9729      0.00000
     35      -0.5179      0.00000
     36      -0.4544      0.00000
     37       0.2746      0.00000
     38       0.8614      0.00000
     39       1.2446      0.00000
     40       1.8593      0.00000
     41       2.0259      0.00000
     42       2.2954      0.00000
     43       2.9496      0.00000
     44       3.1698      0.00000
     45       3.2143      0.00000
     46       3.3822      0.00000
     47       3.3901      0.00000
     48       4.1300      0.00000

[...]

 soft charge-density along one line, spin component           2
         0         1         2         3         4         5         6         7         8         9
 total charge-density along one line

------------------------ aborting loop because EDIFF is reached ----------------------------------------

[...]

  FORCE on cell =-STRESS in cart. coord.  units (eV):
  Direction    XX          YY          ZZ          XY          YZ          ZX
  Alpha Z    22.73098    22.73098    22.73098
  Ewald    9050.35715  9050.35488-10899.86357    -0.00192    -0.00054    -0.00098
  Hartree  9624.85494  9624.85585 -9175.81439    -0.00031     0.00008     0.00013
  E(xc)    -264.11761  -264.11762  -263.72560     0.00004     0.00001     0.00002
  Local  -19525.00236-19525.00188 19197.83396     0.00196     0.00036     0.00067
  n-local   634.99472   634.43501   643.39906    -0.36397     1.16557     1.36252
  augment   -60.26459   -60.26447   -66.68459     0.00010     0.00004     0.00004
  Kinetic   519.77504   513.81059   542.01979    -3.83547     0.88335     1.15883
  Fock        0.00000     0.00000     0.00000     0.00000     0.00000     0.00000
  Total       0.06581     0.06581    -0.10436     0.00000     0.00000     0.00000
  in kB       0.12058     0.12058    -0.19123     0.00000     0.00000     0.00000

 VOLUME and BASIS-vectors are now :
  energy-cutoff  :      520.00
  volume of cell :      874.38
      direct lattice vectors                 reciprocal lattice vectors
     6.772280782 -0.000000129  0.000000000     0.147660740 -0.085251965 -0.000000000
     3.386140033  5.864966791  0.000000000     0.000000003  0.170503947  0.000000000
     0.000000000 -0.000000000 22.014107774    -0.000000000 -0.000000000  0.045425416

  length of vectors
     6.772280782  6.772280250 22.014107774     0.170503934  0.170503947  0.045425416

 FORCES acting on ions
    electron-ion (+dipol)            ewald-force                    non-local-force                 convergence-correction
   0.171E-03 0.814E-04 0.105E+01   0.600E-03 0.362E-03 -.107E+01   0.278E-16 0.139E-16 0.159E-01   0.169E-06 0.996E-07 0.183E-03
   -.171E-03 -.814E-04 -.105E+01   -.600E-03 -.362E-03 0.107E+01   -.139E-16 0.254E-21 -.159E-01   -.169E-06 -.996E-07 -.183E-03
   -.351E-04 -.119E-04 0.189E+03   -.146E-03 -.808E-04 -.188E+03   -.405E-17 -.689E-17 -.283E+01   0.717E-08 0.300E-08 0.447E-01
   0.351E-04 0.119E-04 -.189E+03   0.146E-03 0.808E-04 0.188E+03   0.578E-17 0.342E-17 0.283E+01   -.717E-08 -.300E-08 -.447E-01
   -.260E+02 0.192E+00 -.412E+03   0.218E+02 -.188E+00 0.417E+03   0.327E+01 -.141E-01 -.536E+01   0.440E-02 -.258E-05 -.852E-01
   0.132E+02 0.224E+02 -.412E+03   -.111E+02 -.188E+02 0.417E+03   -.164E+01 -.282E+01 -.536E+01   -.220E-02 -.381E-02 -.852E-01
   0.128E+02 -.226E+02 -.412E+03   -.107E+02 0.190E+02 0.417E+03   -.162E+01 0.283E+01 -.536E+01   -.220E-02 0.381E-02 -.852E-01
   0.260E+02 -.192E+00 0.412E+03   -.218E+02 0.188E+00 -.417E+03   -.327E+01 0.141E-01 0.536E+01   -.440E-02 0.258E-05 0.852E-01
   -.132E+02 -.224E+02 0.412E+03   0.111E+02 0.188E+02 -.417E+03   0.164E+01 0.282E+01 0.536E+01   0.220E-02 0.381E-02 0.852E-01
   -.128E+02 0.226E+02 0.412E+03   0.107E+02 -.190E+02 -.417E+03   0.162E+01 -.283E+01 0.536E+01   0.220E-02 -.381E-02 0.852E-01
   0.134E-09 0.669E-11 0.107E-09   0.142E-13 -.711E-14 0.284E-12   0.222E-15 0.000E+00 0.888E-15   0.456E-13 0.749E-13 0.132E-10

 POSITION                                       TOTAL-FORCE (eV/Angst)
      3.38614      1.95499     11.00558         0.000000     -0.000000     -0.001042
      6.77228      3.90998     11.00853         0.000000     -0.000000      0.001042
      0.00000     -0.00000      9.86708         0.000000      0.000000     -1.452795
      0.00000     -0.00000     12.14703         0.000000     -0.000000      1.452795
      4.24329      0.00246     12.63064        -0.940777     -0.009163     -0.325593
      1.26663      2.18895     12.63064         0.462453      0.819318     -0.325593
      4.64851      3.67356     12.63064         0.478324     -0.810155     -0.325593
      5.91513      5.86250      9.38347         0.940777      0.009163      0.325593
      8.89179      3.67602      9.38347        -0.462453     -0.819318      0.325593
      5.50991      2.19140      9.38347        -0.478324      0.810155      0.325593
    total drift:                                0.000000      0.000000      0.000000

  FREE ENERGIE OF THE ION-ELECTRON SYSTEM (eV)
  free  energy   TOTEN  =       -35.26113371 eV

  energy  without entropy=      -35.26113371  energy(sigma->0) =      -35.26113371

 d Force =-0.5855937E-08[-0.902E-08,-0.270E-08]  d Energy = 0.1772125E-02-0.177E-02
 d Force =-0.9270697E-05[-0.927E-05,-0.927E-05]  d Ewald  = 0.1101690E+03-0.110E+03

 reached required accuracy - stopping structural energy minimisation

 total charge

[...]

 magnetization (x)

# of ion       s       p       d       tot
    1        0.000   0.000   0.000   0.000
    2        0.000   0.000   0.000   0.000
    3       -0.000   0.000   0.000   0.000
    4       -0.000   0.000   0.000   0.000
    5       -0.000  -0.000  -0.000  -0.000
    6       -0.000  -0.000  -0.000  -0.000
    7       -0.000  -0.000  -0.000  -0.000
    8       -0.000  -0.000  -0.000  -0.000
    9       -0.000  -0.000  -0.000  -0.000
   10       -0.000  -0.000  -0.000  -0.000
tot         -0.000  -0.000   0.000   0.000

 BZINTS: Fermi energy: -1.873443; 62.000000 electrons
         Band energy:-379.251497;  BLOECHL correction:  0.000000