 vasp.5.4.4.18Apr17-6-g9f103f2a35 (build May  1 2020 15:48:39) complex
 executed on             LinuxGNU date 2020.06.16  21:20:43

 INCAR:
 POTCAR:   PAW_PBE Ni 06Sep2000
 POTCAR:   PAW_PBE Si 05Jan2001
 POTCAR:   PAW_PBE Te 08Apr2002

 POTCAR:   PAW_PBE Ni 06Sep2000
   VRHFIN =Ni:

   TITEL  = PAW_PBE Ni 06Sep2000
   POMASS =   58.690; ZVAL   =   10.000    mass and valenz
   ENMAX  =  269.533; ENMIN  =  202.150 eV
   QCUT   =   -4.451; QGAM   =    8.902    optimization parameters

   Description
     l     E      TYP  RCUT    TYP  RCUT
     2   .000     23  2.300
     2   .000     23  2.300
     0   .000     23  2.300
     0   .000     23  2.300
     1  -.200     23  2.300
     1   .000     23  2.300
     3   .000      7   .000

 POTCAR:   PAW_PBE Si 05Jan2001
   VRHFIN =Si: s2p2

   TITEL  = PAW_PBE Si 05Jan2001
   POMASS =   28.085; ZVAL   =    4.000    mass and valenz
   ENMAX  =  245.345; ENMIN  =  184.009 eV
   QCUT   =   -4.246; QGAM   =    8.493    optimization parameters

[...]

 POTCAR:   PAW_PBE Te 08Apr2002
   VRHFIN =Te: s2p4

   TITEL  = PAW_PBE Te 08Apr2002
   POMASS =  127.600; ZVAL   =    6.000    mass and valenz
   ENMAX  =  174.982; ENMIN  =  131.236 eV
   QCUT   =   -3.586; QGAM   =    7.172    optimization parameters

   Description
     l     E      TYP  RCUT    TYP  RCUT
     0   .000     23  2.300
     0   .000     23  2.300
     1   .000     23  2.300
     1   .000     23  2.300
     2   .000     23  2.300
     3  -.100     23  2.300

 Optimization of the real space projectors (new method)

 maximal supplied QI-value         = 16.25
 optimisation between [QCUT,QGAM] = [ 11.54, 23.24] = [ 37.28,151.24] Ry
 Optimized for a Real-space Cutoff    1.49 Angstroem

   l    n(q)    QCUT    max X(q) W(low)/X(q) W(high)/X(q)  e(spline)
   2      9    11.539     4.811    0.20E-04    0.14E-04    0.45E-07
   2      9    11.539    15.146    0.24E-03    0.12E-03    0.20E-06
   0     10    11.539    14.357    0.18E-04    0.12E-05    0.14E-07
   0     10    11.539    43.282    0.39E-04    0.17E-04    0.23E-06
   1     10    11.539     5.514    0.99E-05    0.13E-04    0.19E-07
   1     10    11.539     7.697    0.38E-04    0.79E-04    0.91E-07
 Optimization of the real space projectors (new method)

[...]

   l    n(q)    QCUT    max X(q) W(low)/X(q) W(high)/X(q)  e(spline)
   0      8    11.508     8.708    0.18E-04    0.44E-05    0.47E-08
   0      8    11.508   106.241    0.70E-04    0.15E-03    0.51E-07
   1      8    11.508     5.901    0.63E-05    0.23E-04    0.21E-07
   1      8    11.508    73.241    0.15E-03    0.36E-04    0.79E-07
 Optimization of the real space projectors (new method)

 maximal supplied QI-value         = 16.25
 optimisation between [QCUT,QGAM] = [ 11.54, 23.24] = [ 37.28,151.24] Ry
 Optimized for a Real-space Cutoff    1.36 Angstroem

   l    n(q)    QCUT    max X(q) W(low)/X(q) W(high)/X(q)  e(spline)
   0      9    11.539     7.090    0.13E-04    0.25E-05    0.51E-08
   0      9    11.539   101.654    0.53E-04    0.69E-04    0.12E-06
   1      9    11.539     5.276    0.20E-04    0.98E-05    0.24E-07
   1      9    11.539    81.891    0.24E-03    0.13E-04    0.15E-06
   2      9    11.539     5.599    0.30E-04    0.97E-04    0.54E-07

 PAW_PBE Ni 06Sep2000                   :
 PAW_PBE Si 05Jan2001                   :
 PAW_PBE Te 08Apr2002                   :

 POSCAR: Ni2 Si2 Te6
  positions in direct lattice
  velocities in cartesian coordinates
 exchange correlation table for  LEXCH =       42
   RHO(1)=    0.500       N(1)  =     2000
   RHO(2)=  100.500       N(2)  =     4000

 ion  position               nearest neighbor table
   1  0.333  0.333  0.500-   6 2.78   5 2.78   7 2.78   8 2.78  10 2.78   9 2.78
   2  0.667  0.667  0.500-   9 2.78   8 2.78  10 2.78   5 2.78   7 2.78   6 2.78
   3  0.000  0.000  0.448-   4 2.43   8 2.63  10 2.63   9 2.63
   4  0.000  0.000  0.552-   3 2.43   5 2.63   7 2.63   6 2.63
   5  0.626  0.000  0.574-   4 2.63   1 2.78   2 2.78
   6  0.000  0.373  0.574-   4 2.63   1 2.78   2 2.78
   7  0.373  0.626  0.574-   4 2.63   1 2.78   2 2.78
   8  0.374  1.000  0.426-   3 2.63   2 2.78   1 2.78
   9  1.000  0.627  0.426-   3 2.63   2 2.78   1 2.78
  10  0.627  0.374  0.426-   3 2.63   2 2.78   1 2.78

  LATTYP: Found a hexagonal cell.
 ALAT       =     6.9077769333
 C/A-ratio  =     3.3939410937

  Lattice vectors:

 A1 = (   3.4538890000,  -5.9823100000,   0.0000000000)
 A2 = (  -6.9077770000,   0.0000000000,   0.0000000000)
 A3 = (   0.0000000000,   0.0000000000, -23.4445880000)

Analysis of symmetry for initial positions (statically):
 Subroutine PRICEL returns:
 Original cell was already a primitive cell.

 Routine SETGRP: Setting up the symmetry group for a
 hexagonal supercell.

 Subroutine GETGRP returns: Found  6 space group operations
 (whereof  6 operations were pure point group operations)
 out of a pool of 24 trial point group operations.

The static configuration has the point symmetry S_6 .

Analysis of symmetry for dynamics (positions and initial velocities):
 Subroutine PRICEL returns:
 Original cell was already a primitive cell.

[...]

The dynamic configuration has the point symmetry S_6 .

Analysis of structural, dynamic, and magnetic symmetry:
 Subroutine PRICEL returns:
 Original cell was already a primitive cell.

 Routine SETGRP: Setting up the symmetry group for a
 hexagonal supercell.

 Subroutine GETGRP returns: Found  6 space group operations
 (whereof  6 operations were pure point group operations)
 out of a pool of 24 trial point group operations.

The magnetic configuration has the point symmetry S_6 .

 Subroutine INISYM returns: Found  6 space group operations
 (whereof  6 operations are pure point group operations),
 and found     1 'primitive' translations

 KPOINTS: Kpoints from vasprun.xml

Automatic generation of k-mesh.
Space group operators:
 irot       det(A)        alpha          n_x          n_y          n_z        tau_x        tau_y        tau_z
    1     1.000000     0.000000     1.000000     0.000000     0.000000     0.000000     0.000000     0.000000
    2    -1.000000     0.000000     1.000000     0.000000     0.000000     0.000000     0.000000     0.000000
    3     1.000000   120.000000     0.000000     0.000000     1.000000     0.000000     0.000000     0.000000
    4    -1.000000   120.000000     0.000000     0.000000     1.000000     0.000000     0.000000     0.000000
    5     1.000000   120.000000     0.000000     0.000000    -1.000000     0.000000     0.000000     0.000000
    6    -1.000000   120.000000     0.000000     0.000000    -1.000000     0.000000     0.000000     0.000000

 Subroutine IBZKPT returns following result:

 Found      5 irreducible k-points:

 Following reciprocal coordinates:
            Coordinates               Weight
  0.000000  0.000000  0.000000      1.000000
  0.200000  0.000000  0.000000      6.000000
  0.400000  0.000000  0.000000      6.000000
  0.400000  0.200000  0.000000      6.000000
 -0.400000  0.200000  0.000000      6.000000

 Following cartesian coordinates:
            Coordinates               Weight
  0.000000  0.000000  0.000000      1.000000
  0.028953 -0.016716  0.000000      6.000000
  0.057906 -0.033432  0.000000      6.000000
  0.057906  0.000000  0.000000      6.000000
 -0.057906  0.066864  0.000000      6.000000

 TETIRR: Found     15 inequivalent tetrahedra from      150

 SYSTEM =  unknown system
 POSCAR =  Ni2 Si2 Te6

 Startparameter for this run:
   NWRITE =      2    write-flag & timer
   PREC   = accura    normal or accurate (medium, high low for compatibility)
   ISTART =      0    job   : 0-new  1-cont  2-samecut
   ICHARG =      2    charge: 1-file 2-atom 10-const
   ISPIN  =      2    spin polarized calculation?
   LNONCOLLINEAR =      F non collinear calculations
   LSORBIT =      F    spin-orbit coupling
   INIWAV =      1    electr: 0-lowe 1-rand  2-diag
   LASPH  =      F    aspherical Exc in radial PAW
   METAGGA=      F    non-selfconsistent MetaGGA calc.

 Electronic Relaxation 1
   ENCUT  =  520.0 eV  38.22 Ry    6.18 a.u.  12.84 12.84 43.59*2*pi/ulx,y,z
   ENINI  =  520.0     initial cutoff
   ENAUG  =  544.6 eV  augmentation charge cutoff
   NELM   =    400;   NELMIN=  2; NELMDL=  0     # of ELM steps
   EDIFF  = 0.1E-03   stopping-criterion for ELM
   LREAL  =      T    real-space projection
   NLSPLINE    = F    spline interpolate recip. space projectors
   LCOMPAT=      F    compatible to vasp.4.4
   GGA_COMPAT  = T    GGA compatible to vasp.4.4-vasp.4.6
   LMAXPAW     = -100 max onsite density
   LMAXMIX     =    2 max onsite mixed and CHGCAR
   VOSKOWN=      0    Vosko Wilk Nusair interpolation
   ROPT   =   -0.00025  -0.00025  -0.00025
 Ionic relaxation
   EDIFFG = 0.1E-02   stopping-criterion for IOM
   NSW    =     99    number of steps for IOM
   NBLOCK =      1;   KBLOCK =     99    inner block; outer block
   IBRION =      2    ionic relax: 0-MD 1-quasi-New 2-CG
   NFREE  =      1    steps in history (QN), initial steepest desc. (CG)
   ISIF   =      3    stress and relaxation
   IWAVPR =     11    prediction:  0-non 1-charg 2-wave 3-comb
   ISYM   =      2    0-nonsym 1-usesym 2-fastsym
   LCORR  =      T    Harris-Foulkes like correction to forces

   POTIM  = 0.5000    time-step for ionic-motion
   TEIN   =    0.0    initial temperature
   TEBEG  =    0.0;   TEEND  =   0.0 temperature during run
   SMASS  =  -3.00    Nose mass-parameter (am)
   estimated Nose-frequenzy (Omega)   =  0.10E-29 period in steps =****** mass=  -0.109E-26a.u.
   SCALEE = 1.0000    scale energy and forces
   NPACO  =    256;   APACO  = 16.0  distance and # of slots for P.C.
   PSTRESS=    0.0 pullay stress

  Mass of Ions in am
   POMASS =  58.69 28.09127.60
  Ionic Valenz
   ZVAL   =  10.00  4.00  6.00
  Atomic Wigner-Seitz radii
  virtual crystal weights
   VCA    =   1.00  1.00  1.00
   NELECT =      64.0000    total number of electrons
   NUPDOWN=      -1.0000    fix difference up-down

 DOS related values:
   EMIN   =  10.00;   EMAX   =-10.00  energy-range for DOS
   EFERMI =   0.00
   ISMEAR =    -5;   SIGMA  =   0.05  broadening in eV -4-tet -1-fermi 0-gaus

 Electronic relaxation 2 (details)
   IALGO  =     38    algorithm
   LDIAG  =      T    sub-space diagonalisation (order eigenvalues)
   LSUBROT=      F    optimize rotation matrix (better conditioning)
   TURBO    =      0    0=normal 1=particle mesh
   IRESTART =      0    0=no restart 2=restart with 2 vectors
   NREBOOT  =      0    no. of reboots
   NMIN     =      0    reboot dimension
   EREF     =   0.00    reference energy to select bands
   IMIX   =      4    mixing-type and parameters
     AMIX     =   0.40;   BMIX     =  1.00
     AMIX_MAG =   1.60;   BMIX_MAG =  1.00
     AMIN     =   0.01
     WC   =   100.;   INIMIX=   1;  MIXPRE=   1;  MAXMIX= -45

 Intra band minimization:
   WEIMIN = 0.0010     energy-eigenvalue tresh-hold
   EBREAK =  0.52E-06  absolut break condition
   DEPER  =   0.30     relativ break condition

   TIME   =   0.40     timestep for ELM

  volume/ion in A,a.u.               =      96.88       653.80
  Fermi-wavevector in a.u.,A,eV,Ry     =   0.661787  1.250596  5.958835  0.437962
[...]
     37      -0.5358      0.00000
     38       0.7621      0.00000
     39       0.7621      0.00000
     40       0.8893      0.00000
     41       1.5686      0.00000
     42       1.8171      0.00000
     43       1.9563      0.00000
     44       1.9563      0.00000
     45       2.0929      0.00000
     46       2.3618      0.00000
     47       2.8623      0.00000
     48       2.8624      0.00000

[...]

 soft charge-density along one line, spin component           1
         0         1         2         3         4         5         6         7         8         9
 total charge-density along one line

[...]

------------------------ aborting loop because EDIFF is reached ----------------------------------------

 total charge

# of ion       s       p       d       tot
    1        0.356   0.325   8.335   9.016
    2        0.356   0.325   8.335   9.016
    3        0.787   0.783   0.000   1.569
    4        0.787   0.783   0.000   1.569
    5        1.405   1.867   0.033   3.304
    6        1.399   1.919   0.033   3.350
    7        1.402   1.880   0.033   3.315
    8        1.405   1.867   0.033   3.304
    9        1.399   1.919   0.033   3.350
   10        1.402   1.880   0.033   3.315
tot         10.696  13.547  16.867  41.110

 magnetization (x)

[...]

  FORCE on cell =-STRESS in cart. coord.  units (eV):
  Direction    XX          YY          ZZ          XY          YZ          ZX
  Alpha Z    16.14724    16.14724    16.14724
  Ewald   10003.16019 10003.15816-11941.28445    -0.00208    -0.00052    -0.00095
  Hartree 10766.57608 10766.57718-10096.51620    -0.00045     0.00009     0.00014
  E(xc)    -277.52716  -277.52733  -277.12498     0.00018     0.00006    -0.00001
  Local  -21621.36002-21621.35991 21160.60722     0.00234     0.00034     0.00065
  n-local   664.36004   663.78811   672.78946    -0.51088     0.39824     0.24258
  augment   -66.79528   -66.79511   -73.29281     0.00001    -0.00003     0.00007
  Kinetic   510.58334   501.77841   530.61170    -4.78011    -1.08870    -1.36352
  Fock        0.00000     0.00000     0.00000     0.00000     0.00000     0.00000
  Total      -9.54440    -9.54440    -8.06283    -0.00000     0.00000     0.00000
  in kB     -15.78372   -15.78372   -13.33362    -0.00000     0.00000     0.00000

 VOLUME and BASIS-vectors are now :
  energy-cutoff  :      520.00
  volume of cell :      968.84
      direct lattice vectors                 reciprocal lattice vectors
     6.907777000 -0.000000000  0.000000000     0.144764372 -0.083579742  0.000000000
     3.453888000  5.982310000  0.000000000     0.000000000  0.167159509 -0.000000000
     0.000000000  0.000000000 23.444588000    -0.000000000  0.000000000  0.042653767

[...]

 FORCES acting on ions
    electron-ion (+dipol)            ewald-force                    non-local-force                 convergence-correction
   0.278E-03 0.148E-03 0.117E+01   0.643E-03 0.389E-03 -.118E+01   -.208E-16 -.139E-16 0.156E-01   -.366E-05 -.212E-05 0.373E-03
   -.278E-03 -.148E-03 -.117E+01   -.643E-03 -.389E-03 0.118E+01   -.139E-16 0.139E-16 -.156E-01   0.366E-05 0.212E-05 -.373E-03
   -.153E-04 -.525E-04 0.190E+03   -.141E-03 -.779E-04 -.186E+03   0.208E-16 -.694E-17 -.285E+01   0.385E-06 0.211E-06 -.126E-01
   0.153E-04 0.525E-04 -.190E+03   0.141E-03 0.779E-04 0.186E+03   -.208E-16 0.694E-17 0.285E+01   -.385E-06 -.211E-06 0.126E-01
   -.268E+02 0.158E+00 -.421E+03   0.233E+02 -.155E+00 0.425E+03   0.369E+01 -.100E-01 -.475E+01   -.301E-02 0.125E-03 0.308E-01
   0.135E+02 0.231E+02 -.421E+03   -.118E+02 -.201E+02 0.425E+03   -.185E+01 -.319E+01 -.475E+01   0.162E-02 0.255E-02 0.308E-01
   0.132E+02 -.233E+02 -.421E+03   -.115E+02 0.202E+02 0.425E+03   -.184E+01 0.320E+01 -.475E+01   0.140E-02 -.267E-02 0.308E-01
   0.268E+02 -.158E+00 0.421E+03   -.233E+02 0.155E+00 -.425E+03   -.369E+01 0.100E-01 0.475E+01   0.301E-02 -.125E-03 -.308E-01
   -.135E+02 -.231E+02 0.421E+03   0.118E+02 0.201E+02 -.425E+03   0.185E+01 0.319E+01 0.475E+01   -.162E-02 -.255E-02 -.308E-01
   -.132E+02 0.233E+02 0.421E+03   0.115E+02 -.202E+02 -.425E+03   0.184E+01 -.320E+01 0.475E+01   -.140E-02 0.267E-02 -.308E-01
   -.106E-06 0.386E-08 -.387E-07   0.355E-14 0.000E+00 -.171E-12   0.000E+00 0.000E+00 0.000E+00   0.121E-13 -.422E-14 -.786E-12

 POSITION                                       TOTAL-FORCE (eV/Angst)
      3.45388      1.99410     11.72054        -0.000000     -0.000000      0.004001
      6.90778      3.98821     11.72405        -0.000000     -0.000000     -0.004001
      0.00000      0.00000     10.50824        -0.000000     -0.000000      0.524659
      0.00000      0.00000     12.93635        -0.000000     -0.000000     -0.524659
      4.32819      0.00251     13.45138         0.182200     -0.007021     -0.657588
      1.29198      2.23274     13.45138        -0.097181     -0.154279     -0.657588
      4.74152      3.74706     13.45138        -0.085019      0.161301     -0.657588
      6.03348      5.97980      9.99321        -0.182200      0.007021      0.657588
      9.06969      3.74957      9.99321         0.097181      0.154279      0.657588
      5.62015      2.23525      9.99321         0.085019     -0.161301      0.657588
    total drift:                               -0.000000      0.000000     -0.000000

  FREE ENERGIE OF THE ION-ELECTRON SYSTEM (eV)
  free  energy   TOTEN  =       -33.49967640 eV

  energy  without entropy=      -33.49967640  energy(sigma->0) =      -33.49967640

[...]

 d Force = 0.4745173E-01[-0.601E-01, 0.155E+00]  d Energy = 0.4613968E+00-0.414E+00
 d Force =-0.9006948E+02[-0.944E+02,-0.857E+02]  d Ewald  =-0.5774270E+03 0.487E+03

 Steepest descent step on ions:
 trial-energy change:   -0.461397  1 .order   -0.359846   -1.353912    0.634220
  (g-gl).g = 0.135E+01      g.g   = 0.135E+01  gl.gl    = 0.000E+00
 g(Force)  = 0.161E+00   g(Stress)= 0.119E+01 ortho     = 0.000E+00
 gamma     =   0.00000
 trial     =   1.00000
 opt step  =   0.73997  (harmonic =   0.68100) maximal distance =0.02347457
 next E    =   -34.041747   (d E  =  -0.54207)

[...]

 d Force = 0.7087546E-02[-0.230E-02, 0.165E-01]  d Energy = 0.8403654E-01-0.769E-01
 d Force = 0.2548630E+02[ 0.252E+02, 0.258E+02]  d Ewald  = 0.1574453E+03-0.132E+03

[...]

 d Force = 0.7744696E-02[ 0.417E-02, 0.113E-01]  d Energy = 0.1030321E-01-0.256E-02
 d Force =-0.1519380E+02[-0.152E+02,-0.152E+02]  d Ewald  = 0.9048293E+02-0.106E+03

 Conjugate gradient step on ions:
 trial-energy change:   -0.010303  1 .order   -0.012526   -0.018796   -0.006256
  (g-gl).g = 0.433E-01      g.g   = 0.206E-01  gl.gl    = 0.135E+01
 g(Force)  = 0.117E-01   g(Stress)= 0.890E-02 ortho     =-0.227E-01
 gamma     =   0.03196
 trial     =   0.94799
 opt step  =   1.42091  (harmonic =   1.42091) maximal distance =0.01197461
 next E    =   -34.059196   (d E  =  -0.01409)

[...]

 d Force = 0.9956866E-04[ 0.802E-04, 0.119E-03]  d Energy = 0.9679281E-04 0.278E-05
 d Force =-0.3825260E+00[-0.382E+00,-0.383E+00]  d Ewald  = 0.1657917E+01-0.204E+01

[...]

 d Force =-0.7426367E-04[-0.789E-03, 0.641E-03]  d Energy =-0.2655885E-04-0.477E-04
 d Force =-0.2071882E+01[-0.207E+01,-0.207E+01]  d Ewald  =-0.6033520E+01 0.396E+01

 Conjugate gradient step on ions:
 trial-energy change:    0.000027  1 .order   -0.001402   -0.004200    0.001396
  (g-gl).g = 0.150E-01      g.g   = 0.150E-01  gl.gl    = 0.943E-02
 g(Force)  = 0.405E-03   g(Stress)= 0.146E-01 ortho     =-0.382E-03
 gamma     =   1.59287
 trial     =   0.29154
 opt step  =   0.11286  (harmonic =   0.21881) maximal distance =0.00247138
 next E    =   -34.065861   (d E  =  -0.00073)

[...]

 eigenvalue-minimisations  :  1072
 total energy-change (2. order) :-0.4029399E-03  (-0.4824716E-03)
 number of electron      64.0000010 magnetization       1.1134949
 augmentation part        4.8378319 magnetization       0.4243629

 Broyden mixing:
  rms(total) = 0.10020E-01    rms(broyden)= 0.10018E-01
  rms(prec ) = 0.10865E-01
  weight for this iteration     100.00

 eigenvalues of (default mixing * dielectric matrix)
  average eigenvalue GAMMA=   0.9304
  1.8560  0.2479  0.6875

[...]

--------------------------------------- Iteration      9(   5)  ---------------------------------------

[...]

 eigenvalue-minimisations  :   832
 total energy-change (2. order) : 0.6764782E-04  (-0.2253868E-04)
 number of electron      64.0000010 magnetization       1.1134949
 augmentation part        4.8378319 magnetization       0.4243629

 Free energy of the ion-electron system (eV)
  alpha Z        PSCENC =        17.86054644
  Ewald energy   TEWEN  =      8325.94213999
  -Hartree energ DENC   =    -11706.86872201
  -exchange      EXHF   =         0.00000000
  -V(xc)+E(xc)   XCENC  =      -132.53387196
  PAW double counting   =      2547.18567831    -2405.14456691
  entropy T*S    EENTRO =         0.00000000
  eigenvalues    EBANDS =      -397.85962229
  atomic energy  EATOM  =      3717.35284836
  Solvation  Ediel_sol  =         0.00000000
  free energy    TOTEN  =       -34.06557007 eV

  energy without entropy =      -34.06557007  energy(sigma->0) =      -34.06557007

 average (electrostatic) potential at core
  the test charge radii are     0.9791  0.9892  1.1897
  (the norm of the test charge is              1.0000)
       1 -48.9323       2 -48.9323       3 -91.7278       4 -91.7278       5 -96.3997
       6 -96.3996       7 -96.3996       8 -96.3997       9 -96.3996      10 -96.3996

 E-fermi :  -1.5578     XC(G=0):  -3.4814     alpha+bet : -3.2987

[...]

 spin component 2

[...]

 k-point     5 :      -0.4000    0.2000    0.0000
  band No.  band energies     occupation
      1     -13.9062      1.00000
      2     -13.7036      1.00000
      3     -13.2557      1.00000
      4     -13.0776      1.00000
      5     -12.9501      1.00000
      6     -12.7440      1.00000
      7      -9.6894      1.00000
      8      -8.0978      1.00000
      9      -6.7054      1.00000
     10      -6.1944      1.00000
     11      -6.1241      1.00000
     12      -5.6717      1.00000
     13      -5.3432      1.00000
     14      -5.1840      1.00000
     15      -4.9208      1.00000
     16      -4.5170      1.00000
     17      -4.5058      1.00000
     18      -4.4795      1.00000
     19      -4.4358      1.00000
     20      -4.2216      1.00000
     21      -4.0687      1.00000
     22      -3.6967      1.00000
     23      -3.4784      1.00000
     24      -3.3637      1.00000
     25      -3.3009      1.00000
     26      -3.1800      1.00000
     27      -3.0903      1.00000
     28      -2.9261      1.00000
     29      -2.9024      1.00000
     30      -2.8642      1.00000
     31      -2.7578      1.00000
     32      -1.5050      0.26653
     33      -1.4609      0.00000
     34      -1.2793      0.00000
     35      -0.7978      0.00000
     36      -0.2286      0.00000
     37       0.1862      0.00000
     38       0.6040      0.00000
     39       0.9968      0.00000
     40       1.5862      0.00000
     41       1.7871      0.00000
     42       2.0521      0.00000
     43       2.7534      0.00000
     44       3.0650      0.00000
     45       3.0658      0.00000
     46       3.1553      0.00000
     47       3.2302      0.00000
     48       3.9267      0.00000

[...]

 soft charge-density along one line, spin component           2
         0         1         2         3         4         5         6         7         8         9
 total charge-density along one line

------------------------ aborting loop because EDIFF is reached ----------------------------------------

[...]

  FORCE on cell =-STRESS in cart. coord.  units (eV):
  Direction    XX          YY          ZZ          XY          YZ          ZX
  Alpha Z    17.86055    17.86055    17.86055
  Ewald   10335.61884 10335.61669-12345.29630    -0.00225    -0.00056    -0.00103
  Hartree 11057.20648 11057.20763-10407.58653    -0.00047     0.00009     0.00014
  E(xc)    -280.07934  -280.07935  -279.63476     0.00003     0.00002     0.00002
  Local  -22250.51921-22250.51910 21867.29298     0.00247     0.00037     0.00069
  n-local   673.03735   672.15184   680.02099    -0.55938     0.39452     0.48205
  augment   -66.78278   -66.78258   -73.05341    -0.00002     0.00002     0.00006
  Kinetic   519.65579   508.84339   540.81066    -5.55418    -1.00496    -1.54603
  Fock        0.00000     0.00000     0.00000     0.00000     0.00000     0.00000
  Total       0.14837     0.14837     0.41418     0.00000    -0.00000     0.00000
  in kB       0.27140     0.27140     0.75762     0.00000    -0.00000     0.00000

 VOLUME and BASIS-vectors are now :
  energy-cutoff  :      520.00
  volume of cell :      875.90
      direct lattice vectors                 reciprocal lattice vectors
     6.695832137  0.000000068 -0.000000000     0.149346636 -0.086225312  0.000000000
     3.347915556  5.798760433  0.000000000    -0.000000002  0.172450650 -0.000000000
    -0.000000000  0.000000000 22.558685794     0.000000000 -0.000000000  0.044328823

  length of vectors
     6.695832137  6.695831623 22.558685794     0.172450637  0.172450650  0.044328823

 FORCES acting on ions
    electron-ion (+dipol)            ewald-force                    non-local-force                 convergence-correction
   0.165E-03 0.744E-04 0.722E+00   0.704E-03 0.425E-03 -.731E+00   0.139E-16 0.278E-16 0.121E-01   -.362E-06 -.298E-06 -.290E-03
   -.165E-03 -.744E-04 -.722E+00   -.704E-03 -.425E-03 0.731E+00   -.694E-17 -.278E-16 -.121E-01   0.362E-06 0.298E-06 0.290E-03
   -.365E-04 -.244E-04 0.205E+03   -.150E-03 -.831E-04 -.201E+03   -.206E-16 0.136E-16 -.386E+01   -.533E-07 -.174E-07 -.566E-02
   0.365E-04 0.244E-04 -.205E+03   0.150E-03 0.831E-04 0.201E+03   -.718E-17 -.136E-16 0.386E+01   0.533E-07 0.174E-07 0.566E-02
   -.308E+02 -.102E-01 -.448E+03   0.273E+02 0.136E-01 0.453E+03   0.351E+01 -.703E-02 -.429E+01   0.959E-02 0.180E-04 0.183E-01
   0.154E+02 0.267E+02 -.448E+03   -.136E+02 -.237E+02 0.453E+03   -.176E+01 -.304E+01 -.429E+01   -.478E-02 -.831E-02 0.183E-01
   0.154E+02 -.267E+02 -.448E+03   -.137E+02 0.237E+02 0.453E+03   -.175E+01 0.304E+01 -.429E+01   -.481E-02 0.830E-02 0.183E-01
   0.308E+02 0.102E-01 0.448E+03   -.273E+02 -.136E-01 -.453E+03   -.351E+01 0.703E-02 0.429E+01   -.959E-02 -.180E-04 -.183E-01
   -.154E+02 -.267E+02 0.448E+03   0.136E+02 0.237E+02 -.453E+03   0.176E+01 0.304E+01 0.429E+01   0.478E-02 0.831E-02 -.183E-01
   -.154E+02 0.267E+02 0.448E+03   0.137E+02 -.237E+02 -.453E+03   0.175E+01 -.304E+01 0.429E+01   0.481E-02 -.830E-02 -.183E-01
   0.244E-09 -.663E-08 0.223E-08   0.000E+00 -.142E-13 -.171E-12   0.000E+00 -.133E-14 0.178E-14   0.417E-12 -.585E-12 0.288E-10

 POSITION                                       TOTAL-FORCE (eV/Angst)
      3.34791      1.93292     11.27793         0.000000      0.000000      0.003478
      6.69584      3.86584     11.28075         0.000000     -0.000000     -0.003478
     -0.00000      0.00000     10.11854         0.000000     -0.000000     -0.032100
     -0.00000      0.00000     12.44015         0.000000      0.000000      0.032100
      4.18147      0.00095     12.90963         0.007694     -0.003079      0.014854
      1.25801      2.17703     12.90963        -0.006513     -0.005124      0.014854
      4.60428      3.62079     12.90963        -0.001180      0.008203      0.014854
      5.86227      5.79781      9.64906        -0.007694      0.003079     -0.014854
      8.78574      3.62173      9.64906         0.006513      0.005124     -0.014854
      5.43947      2.17798      9.64906         0.001180     -0.008203     -0.014854
    total drift:                                0.000000     -0.000000      0.000000

  FREE ENERGIE OF THE ION-ELECTRON SYSTEM (eV)
  free  energy   TOTEN  =       -34.06557007 eV

  energy  without entropy=      -34.06557007  energy(sigma->0) =      -34.06557007

 d Force = 0.1967838E-03[-0.912E-04, 0.485E-03]  d Energy = 0.4655733E-03-0.269E-03
 d Force = 0.1272571E+01[ 0.127E+01, 0.127E+01]  d Ewald  = 0.3699022E+01-0.243E+01

 reached required accuracy - stopping structural energy minimisation

 total charge

[...]

 magnetization (x)

# of ion       s       p       d       tot
    1       -0.000  -0.001   0.267   0.265
    2       -0.000  -0.001   0.267   0.265
    3        0.001   0.005   0.000   0.006
    4        0.001   0.005   0.000   0.006
    5        0.004   0.037   0.001   0.042
    6        0.004   0.037   0.002   0.044
    7        0.005   0.040   0.001   0.045
    8        0.004   0.037   0.001   0.042
    9        0.004   0.037   0.002   0.044
   10        0.005   0.040   0.001   0.045
tot          0.027   0.237   0.542   0.806

 BZINTS: Fermi energy: -1.557791; 64.000000 electrons
         Band energy:-397.859622;  BLOECHL correction: -0.046453