 vasp.5.4.4.18Apr17-6-g9f103f2a35 (build May  1 2020 15:48:39) complex
 executed on             LinuxGNU date 2020.06.26  16:39:35

 INCAR:
 POTCAR:   PAW_PBE Ni 06Sep2000
 POTCAR:   PAW_PBE Ge 05Jan2001
 POTCAR:   PAW_PBE Si 05Jan2001
 POTCAR:    PAW_PBE S 17Jan2003

 POTCAR:   PAW_PBE Ni 06Sep2000
   VRHFIN =Ni:

   TITEL  = PAW_PBE Ni 06Sep2000
   POMASS =   58.690; ZVAL   =   10.000    mass and valenz
   ENMAX  =  269.533; ENMIN  =  202.150 eV
   QCUT   =   -4.451; QGAM   =    8.902    optimization parameters

   Description
     l     E      TYP  RCUT    TYP  RCUT
     2   .000     23  2.300
     2   .000     23  2.300
     0   .000     23  2.300
     0   .000     23  2.300
     1  -.200     23  2.300
     1   .000     23  2.300
     3   .000      7   .000

 POTCAR:   PAW_PBE Ge 05Jan2001
   VRHFIN =Ge: s2p2

   TITEL  = PAW_PBE Ge 05Jan2001
   POMASS =   72.610; ZVAL   =    4.000    mass and valenz
   ENMAX  =  173.807; ENMIN  =  130.355 eV
   QCUT   =   -3.574; QGAM   =    7.148    optimization parameters

[...]

 POTCAR:   PAW_PBE Si 05Jan2001
   VRHFIN =Si: s2p2

[...]

 POTCAR:    PAW_PBE S 17Jan2003
   VRHFIN =S : s2p4

   TITEL  = PAW_PBE S 17Jan2003
   POMASS =   32.066; ZVAL   =    6.000    mass and valenz
   ENMAX  =  280.000; ENMIN  =  194.016 eV
   QCUT   =   -4.360; QGAM   =    8.721    optimization parameters

   Description
     l     E      TYP  RCUT    TYP  RCUT
     0   .000     23  1.900
     0   .000     23  1.900
     1   .000     23  1.900
     1   .000     23  1.900
     2   .000     23  1.900

 Optimization of the real space projectors (new method)

 maximal supplied QI-value         = 16.25
 optimisation between [QCUT,QGAM] = [ 11.54, 23.24] = [ 37.28,151.24] Ry
 Optimized for a Real-space Cutoff    1.49 Angstroem

   l    n(q)    QCUT    max X(q) W(low)/X(q) W(high)/X(q)  e(spline)
   2      9    11.539     4.811    0.20E-04    0.14E-04    0.45E-07
   2      9    11.539    15.146    0.24E-03    0.12E-03    0.20E-06
   0     10    11.539    14.357    0.18E-04    0.12E-05    0.14E-07
   0     10    11.539    43.282    0.39E-04    0.17E-04    0.23E-06
   1     10    11.539     5.514    0.99E-05    0.13E-04    0.19E-07
   1     10    11.539     7.697    0.38E-04    0.79E-04    0.91E-07
 Optimization of the real space projectors (new method)

[...]

   l    n(q)    QCUT    max X(q) W(low)/X(q) W(high)/X(q)  e(spline)
   0      8    11.508     8.708    0.18E-04    0.44E-05    0.47E-08
   0      8    11.508   106.241    0.70E-04    0.15E-03    0.51E-07
   1      8    11.508     5.901    0.63E-05    0.23E-04    0.21E-07
   1      8    11.508    73.241    0.15E-03    0.36E-04    0.79E-07
 Optimization of the real space projectors (new method)

 maximal supplied QI-value         = 19.84
 optimisation between [QCUT,QGAM] = [ 11.51, 23.22] = [ 37.09,150.92] Ry
 Optimized for a Real-space Cutoff    1.21 Angstroem

   l    n(q)    QCUT    max X(q) W(low)/X(q) W(high)/X(q)  e(spline)
   0      8    11.508     5.487    0.18E-04    0.22E-05    0.47E-08
   0      8    11.508    85.627    0.96E-04    0.18E-03    0.54E-07
   1      8    11.508     3.530    0.17E-04    0.28E-04    0.21E-07
   1      8    11.508    42.714    0.18E-03    0.63E-04    0.92E-07

 PAW_PBE Ni 06Sep2000                   :
 PAW_PBE Ge 05Jan2001                   :
 PAW_PBE Si 05Jan2001                   :
  PAW_PBE S 17Jan2003                   :

 POSCAR: Ni2 Ge Si S6
  positions in direct lattice
  velocities in cartesian coordinates
 exchange correlation table for  LEXCH =       42
   RHO(1)=    0.500       N(1)  =     2000
   RHO(2)=  100.500       N(2)  =     4000

 ion  position               nearest neighbor table
   1  0.333  0.333  0.500-   6 2.78   5 2.78   7 2.78   8 2.78  10 2.78   9 2.78
   2  0.667  0.667  0.500-   9 2.78   8 2.78  10 2.78   5 2.78   7 2.78   6 2.78
   3  0.000  0.000  0.448-   4 2.43   8 2.63  10 2.63   9 2.63
   4  0.000  0.000  0.552-   3 2.43   5 2.63   7 2.63   6 2.63
   5  0.626  0.000  0.574-   4 2.63   1 2.78   2 2.78
   6  0.000  0.373  0.574-   4 2.63   1 2.78   2 2.78
   7  0.373  0.626  0.574-   4 2.63   1 2.78   2 2.78
   8  0.374  1.000  0.426-   3 2.63   2 2.78   1 2.78
   9  1.000  0.627  0.426-   3 2.63   2 2.78   1 2.78
  10  0.627  0.374  0.426-   3 2.63   2 2.78   1 2.78

  LATTYP: Found a hexagonal cell.
 ALAT       =     6.9077769333
 C/A-ratio  =     3.3939410937

  Lattice vectors:

 A1 = (   3.4538890000,  -5.9823100000,   0.0000000000)
 A2 = (  -6.9077770000,   0.0000000000,   0.0000000000)
 A3 = (   0.0000000000,   0.0000000000, -23.4445880000)

Analysis of symmetry for initial positions (statically):
 Subroutine PRICEL returns:
 Original cell was already a primitive cell.

 Routine SETGRP: Setting up the symmetry group for a
 hexagonal supercell.

 Subroutine GETGRP returns: Found  3 space group operations
 (whereof  3 operations were pure point group operations)
 out of a pool of 24 trial point group operations.

The static configuration has the point symmetry C_3 .

Analysis of symmetry for dynamics (positions and initial velocities):
 Subroutine PRICEL returns:
 Original cell was already a primitive cell.

[...]

The dynamic configuration has the point symmetry C_3 .

Analysis of constrained symmetry for selective dynamics:
 Subroutine PRICEL returns:
 Original cell was already a primitive cell.

[...]

The constrained configuration has the point symmetry C_3 .

Analysis of structural, dynamic, and magnetic symmetry:
 Subroutine PRICEL returns:
 Original cell was already a primitive cell.

 Routine SETGRP: Setting up the symmetry group for a
 hexagonal supercell.

 Subroutine GETGRP returns: Found  3 space group operations
 (whereof  3 operations were pure point group operations)
 out of a pool of 24 trial point group operations.

The magnetic configuration has the point symmetry C_3 .

 Subroutine INISYM returns: Found  3 space group operations
 (whereof  3 operations are pure point group operations),
 and found     1 'primitive' translations

 KPOINTS: Kpoints from vasprun.xml

Automatic generation of k-mesh.
Space group operators:
 irot       det(A)        alpha          n_x          n_y          n_z        tau_x        tau_y        tau_z
    1     1.000000     0.000000     1.000000     0.000000     0.000000     0.000000     0.000000     0.000000
    2     1.000000   120.000000     0.000000     0.000000     1.000000     0.000000     0.000000     0.000000
    3     1.000000   120.000000     0.000000     0.000000    -1.000000     0.000000     0.000000     0.000000

 Subroutine IBZKPT returns following result:

 Found      5 irreducible k-points:

 Following reciprocal coordinates:
            Coordinates               Weight
  0.000000  0.000000  0.000000      1.000000
  0.200000  0.000000  0.000000      6.000000
  0.400000  0.000000  0.000000      6.000000
  0.400000  0.200000  0.000000      6.000000
 -0.400000  0.200000  0.000000      6.000000

 Following cartesian coordinates:
            Coordinates               Weight
  0.000000  0.000000  0.000000      1.000000
  0.028953 -0.016716  0.000000      6.000000
  0.057906 -0.033432  0.000000      6.000000
  0.057906  0.000000  0.000000      6.000000
 -0.057906  0.066864  0.000000      6.000000

 TETIRR: Found     15 inequivalent tetrahedra from      150

 SYSTEM =  unknown system
 POSCAR =  Ni2 Ge Si S6

 Startparameter for this run:
   NWRITE =      2    write-flag & timer
   PREC   = accura    normal or accurate (medium, high low for compatibility)
   ISTART =      0    job   : 0-new  1-cont  2-samecut
   ICHARG =      2    charge: 1-file 2-atom 10-const
   ISPIN  =      2    spin polarized calculation?
   LNONCOLLINEAR =      F non collinear calculations
   LSORBIT =      F    spin-orbit coupling
   INIWAV =      1    electr: 0-lowe 1-rand  2-diag
   LASPH  =      F    aspherical Exc in radial PAW
   METAGGA=      F    non-selfconsistent MetaGGA calc.

 Electronic Relaxation 1
   ENCUT  =  520.0 eV  38.22 Ry    6.18 a.u.  12.84 12.84 43.59*2*pi/ulx,y,z
   ENINI  =  520.0     initial cutoff
   ENAUG  =  544.6 eV  augmentation charge cutoff
   NELM   =    400;   NELMIN=  2; NELMDL=  0     # of ELM steps
   EDIFF  = 0.1E-03   stopping-criterion for ELM
   LREAL  =      T    real-space projection
   NLSPLINE    = F    spline interpolate recip. space projectors
   LCOMPAT=      F    compatible to vasp.4.4
   GGA_COMPAT  = T    GGA compatible to vasp.4.4-vasp.4.6
   LMAXPAW     = -100 max onsite density
   LMAXMIX     =    2 max onsite mixed and CHGCAR
   VOSKOWN=      0    Vosko Wilk Nusair interpolation
   ROPT   =   -0.00025  -0.00025  -0.00025  -0.00025
 Ionic relaxation
   EDIFFG = 0.1E-02   stopping-criterion for IOM
   NSW    =     99    number of steps for IOM
   NBLOCK =      1;   KBLOCK =     99    inner block; outer block
   IBRION =      2    ionic relax: 0-MD 1-quasi-New 2-CG
   NFREE  =      1    steps in history (QN), initial steepest desc. (CG)
   ISIF   =      3    stress and relaxation
   IWAVPR =     11    prediction:  0-non 1-charg 2-wave 3-comb
   ISYM   =      2    0-nonsym 1-usesym 2-fastsym
   LCORR  =      T    Harris-Foulkes like correction to forces

   POTIM  = 0.5000    time-step for ionic-motion
   TEIN   =    0.0    initial temperature
   TEBEG  =    0.0;   TEEND  =   0.0 temperature during run
   SMASS  =  -3.00    Nose mass-parameter (am)
   estimated Nose-frequenzy (Omega)   =  0.10E-29 period in steps =****** mass=  -0.109E-26a.u.
   SCALEE = 1.0000    scale energy and forces
   NPACO  =    256;   APACO  = 16.0  distance and # of slots for P.C.
   PSTRESS=    0.0 pullay stress

  Mass of Ions in am
   POMASS =  58.69 72.61 28.09 32.07
  Ionic Valenz
   ZVAL   =  10.00  4.00  4.00  6.00
  Atomic Wigner-Seitz radii
  virtual crystal weights
   VCA    =   1.00  1.00  1.00  1.00
   NELECT =      64.0000    total number of electrons
   NUPDOWN=      -1.0000    fix difference up-down

 DOS related values:
   EMIN   =  10.00;   EMAX   =-10.00  energy-range for DOS
   EFERMI =   0.00
   ISMEAR =    -5;   SIGMA  =   0.05  broadening in eV -4-tet -1-fermi 0-gaus

 Electronic relaxation 2 (details)
   IALGO  =     38    algorithm
   LDIAG  =      T    sub-space diagonalisation (order eigenvalues)
   LSUBROT=      F    optimize rotation matrix (better conditioning)
   TURBO    =      0    0=normal 1=particle mesh
   IRESTART =      0    0=no restart 2=restart with 2 vectors
   NREBOOT  =      0    no. of reboots
   NMIN     =      0    reboot dimension
   EREF     =   0.00    reference energy to select bands
   IMIX   =      4    mixing-type and parameters
     AMIX     =   0.40;   BMIX     =  1.00
     AMIX_MAG =   1.60;   BMIX_MAG =  1.00
     AMIN     =   0.01
     WC   =   100.;   INIMIX=   1;  MIXPRE=   1;  MAXMIX= -45

 Intra band minimization:
   WEIMIN = 0.0010     energy-eigenvalue tresh-hold
   EBREAK =  0.52E-06  absolut break condition
   DEPER  =   0.30     relativ break condition

   TIME   =   0.40     timestep for ELM

  volume/ion in A,a.u.               =      96.88       653.80
  Fermi-wavevector in a.u.,A,eV,Ry     =   0.661787  1.250596  5.958835  0.437962
  Thomas-Fermi vector in A             =   1.734655

 Write flags
[...]
  Hartree 10907.83921 10907.84026-10142.23712    -0.00055     0.00007     0.00010
  E(xc)    -259.84133  -259.83569  -259.43201    -0.00363    -0.00014    -0.00018
  Local  -21766.42793-21766.42790 21199.70015     0.00246     0.00033     0.00065
  n-local   409.39838   410.20542   420.15236     0.33695     0.10668    -0.08195
  augment    -4.78427    -4.78415    -8.57184    -0.00003    -0.00025     0.00021
  Kinetic   654.79015   651.45378   688.34181    -1.85337    -0.96846    -1.29229
  Fock        0.00000     0.00000     0.00000     0.00000     0.00000     0.00000
  Total     -30.12448   -30.12448   -16.32772     0.00000    -0.00000    -0.00000
  in kB     -49.81732   -49.81731   -27.00140     0.00000    -0.00000    -0.00000

 VOLUME and BASIS-vectors are now :
  energy-cutoff  :      520.00
  volume of cell :      968.84
      direct lattice vectors                 reciprocal lattice vectors
     6.907777000 -0.000000000  0.000000000     0.144764372 -0.083579742  0.000000000
     3.453888000  5.982310000  0.000000000     0.000000000  0.167159509 -0.000000000
     0.000000000  0.000000000 23.444588000    -0.000000000  0.000000000  0.042653767

[...]

 FORCES acting on ions
    electron-ion (+dipol)            ewald-force                    non-local-force                 convergence-correction
   0.271E-03 0.106E-03 0.130E+01   0.643E-03 0.389E-03 -.118E+01   0.694E-17 0.000E+00 0.707E-01   -.103E-05 -.429E-07 -.207E+00
   -.259E-03 -.133E-03 -.108E+01   -.643E-03 -.389E-03 0.118E+01   0.000E+00 -.694E-17 0.858E-01   0.884E-06 0.984E-06 -.231E+00
   -.805E-04 0.782E-04 0.189E+03   -.141E-03 -.779E-04 -.186E+03   0.520E-17 0.694E-17 -.286E+01   0.675E-05 -.192E-05 0.297E-02
   0.377E-04 -.588E-05 -.191E+03   0.141E-03 0.779E-04 0.186E+03   0.000E+00 -.139E-16 0.564E+01   -.561E-05 -.470E-05 -.246E+00
   -.263E+02 0.138E+00 -.421E+03   0.233E+02 -.155E+00 0.425E+03   0.445E+01 -.399E-02 -.525E+01   -.773E-01 0.196E-01 -.365E+00
   0.133E+02 0.227E+02 -.421E+03   -.118E+02 -.201E+02 0.425E+03   -.223E+01 -.386E+01 -.525E+01   0.556E-01 0.570E-01 -.365E+00
   0.130E+02 -.228E+02 -.421E+03   -.115E+02 0.202E+02 0.425E+03   -.222E+01 0.386E+01 -.525E+01   0.216E-01 -.767E-01 -.365E+00
   0.262E+02 -.148E+00 0.422E+03   -.233E+02 0.155E+00 -.425E+03   -.382E+01 0.273E-02 0.518E+01   0.297E-01 -.890E-02 0.841E-01
   -.132E+02 -.226E+02 0.422E+03   0.118E+02 0.201E+02 -.425E+03   0.191E+01 0.331E+01 0.518E+01   -.226E-01 -.212E-01 0.841E-01
   -.130E+02 0.228E+02 0.422E+03   0.115E+02 -.202E+02 -.425E+03   0.191E+01 -.331E+01 0.518E+01   -.713E-02 0.301E-01 0.841E-01
   -.117E-04 0.342E-04 -.123E+01   0.355E-14 0.000E+00 -.171E-12   0.444E-15 0.444E-15 0.272E+01   -.597E-04 -.494E-04 -.152E+01

 POSITION                                       TOTAL-FORCE (eV/Angst)
      3.45388      1.99410     11.72054        -0.000000      0.000000     -0.018796
      6.90778      3.98821     11.72405        -0.000000      0.000000     -0.040197
      0.00000      0.00000     10.50824        -0.000000      0.000000     -0.564725
      0.00000      0.00000     12.93635        -0.000000     -0.000000      0.841090
      4.32819      0.00251     13.45138         1.367566     -0.000815     -1.666415
      1.29198      2.23274     13.45138        -0.684489     -1.183939     -1.666415
      4.74152      3.74706     13.45138        -0.683077      1.184754     -1.666415
      6.03348      5.97980      9.99321        -0.866779      0.000477      1.593958
      9.06969      3.74957      9.99321         0.433803      0.750414      1.593958
      5.62015      2.23525      9.99321         0.432976     -0.750891      1.593958
    total drift:                               -0.000071     -0.000015     -0.040364

  FREE ENERGIE OF THE ION-ELECTRON SYSTEM (eV)
  free  energy   TOTEN  =       -35.41051965 eV

  energy  without entropy=      -35.41051965  energy(sigma->0) =      -35.41051965

[...]

 d Force = 0.5807463E+00[ 0.967E-01, 0.106E+01]  d Energy = 0.7462602E+01-0.688E+01
 d Force =-0.2051740E+03[-0.239E+03,-0.172E+03]  d Ewald  =-0.2696017E+04 0.249E+04

 Steepest descent step on ions:
 trial-energy change:   -7.462602  1 .order   -5.964020  -11.225259   -0.702782
  (g-gl).g = 0.112E+02      g.g   = 0.112E+02  gl.gl    = 0.000E+00
 g(Force)  = 0.118E+01   g(Stress)= 0.100E+02 ortho     = 0.000E+00
 gamma     =   0.00000
 trial     =   1.00000
 opt step  =   1.03544  (harmonic =   1.06679) maximal distance =0.07962165
 next E    =   -42.885640   (d E  =  -7.47512)

[...]

 d Force =-0.6790502E-02[-0.140E-01, 0.458E-03]  d Energy =-0.9791750E-01 0.911E-01
 d Force =-0.1870123E+02[-0.189E+02,-0.185E+02]  d Ewald  =-0.2481611E+03 0.229E+03

[...]

 d Force = 0.6638416E-02[ 0.214E-02, 0.111E-01]  d Energy = 0.9112496E-01-0.845E-01
 d Force = 0.1471089E+02[ 0.146E+02, 0.149E+02]  d Ewald  = 0.1934532E+03-0.179E+03

[...]

 d Force = 0.1627715E+00[ 0.662E-01, 0.259E+00]  d Energy = 0.1434794E+00 0.193E-01
 d Force =-0.1019526E+02[-0.104E+02,-0.100E+02]  d Ewald  = 0.2390305E+03-0.249E+03

 Steepest descent step on ions:
 trial-energy change:   -0.143479  1 .order   -0.163002   -0.315618   -0.010387
  (g-gl).g = 0.111E+01      g.g   = 0.312E+00  gl.gl    = 0.112E+02
 g(Force)  = 0.254E+00   g(Stress)= 0.583E-01 ortho     =-0.794E+00
 gamma     =   0.00000
 trial     =   1.01026
 opt step  =   1.06811  (harmonic =   1.04464) maximal distance =0.06065548
 next E    =   -43.011991   (d E  =  -0.14377)

[...]

 Conjugate gradient step on ions:
 trial-energy change:   -0.047063  1 .order   -0.045255   -0.078093   -0.012417
  (g-gl).g = 0.673E-01      g.g   = 0.748E-01  gl.gl    = 0.312E+00
 g(Force)  = 0.331E-01   g(Stress)= 0.417E-01 ortho     = 0.749E-02
 gamma     =   0.21547
 trial     =   1.02183
 opt step  =   1.18399  (harmonic =   1.21503) maximal distance =0.02710493
 next E    =   -43.059984   (d E  =  -0.04806)

[...]

 d Force = 0.1293441E-02[ 0.850E-03, 0.174E-02]  d Energy = 0.6006334E-03 0.693E-03
 d Force =-0.6615746E+01[-0.662E+01,-0.661E+01]  d Ewald  =-0.2535941E+02 0.187E+02

[...]

 d Force = 0.3757792E-02[ 0.608E-03, 0.691E-02]  d Energy = 0.1075099E+00-0.104E+00
 d Force =-0.1605871E+02[-0.161E+02,-0.161E+02]  d Ewald  = 0.3501846E+02-0.511E+02

 Conjugate gradient step on ions:
 trial-energy change:   -0.107510  1 .order   -0.005744   -0.008750   -0.002737
  (g-gl).g = 0.183E-01      g.g   = 0.923E-02  gl.gl    = 0.748E-01
 g(Force)  = 0.526E-02   g(Stress)= 0.397E-02 ortho     =-0.380E-02
 gamma     =   0.24486
 trial     =   1.05426
 opt step  =   1.05892  (harmonic =   1.53425) maximal distance =0.01038551
 next E    =   -43.167108   (d E  =  -0.10752)

[...]

 d Force = 0.2646199E-05[ 0.260E-05, 0.269E-05]  d Energy =-0.6270267E-03 0.630E-03
 d Force =-0.7100934E-01[-0.710E-01,-0.710E-01]  d Ewald  = 0.1543464E+00-0.225E+00

[...]

 Steepest descent step on ions:
 trial-energy change:    0.109549  1 .order   -0.003522   -0.013629    0.006584
  (g-gl).g = 0.240E-01      g.g   = 0.335E-01  gl.gl    = 0.923E-02
 g(Force)  = 0.107E-02   g(Stress)= 0.324E-01 ortho     = 0.264E-02
 gamma     =   0.00000
 trial     =   0.40743
 opt step  =   0.27471  (harmonic =   0.27471) maximal distance =0.00064077
 next E    =   -43.171069   (d E  =  -0.00459)

[...]

 d Force =-0.1351716E-03[-0.135E-03,-0.135E-03]  d Energy = 0.1096045E+00-0.110E+00
 d Force = 0.7323467E-01[ 0.733E-01, 0.732E-01]  d Ewald  =-0.2298070E+01 0.237E+01

[...]

 eigenvalue-minimisations  :  1184
 total energy-change (2. order) :-0.1884826E-03  (-0.8775799E-04)
 number of electron      64.0371646 magnetization       0.0137428
 augmentation part        6.5199095 magnetization      -0.0099949

 Broyden mixing:
  rms(total) = 0.10102E-01    rms(broyden)= 0.10102E-01
  rms(prec ) = 0.12414E-01
  weight for this iteration     100.00

 eigenvalues of (default mixing * dielectric matrix)
  average eigenvalue GAMMA=   1.2136
  7.8693  2.3901  2.3901  2.4629  1.2591  1.2591  1.2756  1.2756  0.7612  0.7612
  0.7558  0.7558  0.7808  0.7808  0.6474  0.6171  0.1693  0.2476  0.4115  0.4115
  0.3039  0.1638  0.1638

[...]

--------------------------------------- Iteration     14(  25)  ---------------------------------------

[...]

 eigenvalue-minimisations  :   768
 total energy-change (2. order) : 0.9453444E-04  (-0.2126106E-05)
 number of electron      64.0371646 magnetization       0.0137428
 augmentation part        6.5199095 magnetization      -0.0099949

 Free energy of the ion-electron system (eV)
  alpha Z        PSCENC =        40.33894021
  Ewald energy   TEWEN  =     10825.99941481
  -Hartree energ DENC   =    -14487.59570408
  -exchange      EXHF   =         0.00000000
  -V(xc)+E(xc)   XCENC  =       116.97190177
  PAW double counting   =      2541.79662977    -2623.43537547
  entropy T*S    EENTRO =         0.00000000
  eigenvalues    EBANDS =      -497.50395375
  atomic energy  EATOM  =      4040.26366069
  Solvation  Ediel_sol  =         0.00000000
  free energy    TOTEN  =       -43.16448605 eV

  energy without entropy =      -43.16448605  energy(sigma->0) =      -43.16448605

 average (electrostatic) potential at core
  the test charge radii are     0.9791  1.1631  0.9892  0.9698
  (the norm of the test charge is              1.0000)
       1 -50.1839       2 -50.1925       3 -39.6796       4 -92.7485       5 -94.2501
       6 -94.2501       7 -94.2501       8 -94.4705       9 -94.4705      10 -94.4704

 E-fermi :  -2.5828     XC(G=0):  -3.8247     alpha+bet : -2.9820

[...]

 spin component 2

[...]

 k-point     5 :      -0.4000    0.2000    0.0000
  band No.  band energies     occupation
      1     -16.6000      1.00000
      2     -16.2436      1.00000
      3     -15.8607      1.00000
      4     -15.7520      1.00000
      5     -15.5379      1.00000
      6     -15.3468      1.00000
      7     -11.0955      1.00000
      8      -9.6333      1.00000
      9      -8.2190      1.00000
     10      -7.7248      1.00000
     11      -7.6727      1.00000
     12      -7.1631      1.00000
     13      -6.9166      1.00000
     14      -6.7229      1.00000
     15      -6.5200      1.00000
     16      -6.2732      1.00000
     17      -6.1297      1.00000
     18      -5.9896      1.00000
     19      -5.7763      1.00000
     20      -5.6782      1.00000
     21      -5.4616      1.00000
     22      -4.9362      1.00000
     23      -4.8300      1.00000
     24      -4.6675      1.00000
     25      -4.5477      1.00000
     26      -4.3440      1.00000
     27      -4.2278      1.00000
     28      -4.1609      1.00000
     29      -4.0096      1.00000
     30      -3.9572      1.00000
     31      -3.5424      1.00000
     32      -2.7664      1.00000
     33      -2.5769      0.00000
     34      -2.2195      0.00000
     35      -1.9325      0.00000
     36      -0.7962      0.00000
     37       0.2323      0.00000
     38       0.9934      0.00000
     39       1.1002      0.00000
     40       1.7260      0.00000
     41       1.9755      0.00000
     42       2.0044      0.00000
     43       2.9530      0.00000
     44       3.0415      0.00000
     45       3.0475      0.00000
     46       3.2015      0.00000
     47       3.5208      0.00000
     48       3.9914      0.00000

[...]

 soft charge-density along one line, spin component           2
         0         1         2         3         4         5         6         7         8         9
 total charge-density along one line

------------------------ aborting loop because EDIFF is reached ----------------------------------------

[...]

  FORCE on cell =-STRESS in cart. coord.  units (eV):
  Direction    XX          YY          ZZ          XY          YZ          ZX
  Alpha Z    40.33894    40.33894    40.33894
  Ewald   13093.30179 13093.29941-15360.60418    -0.00249    -0.00059    -0.00107
  Hartree 13864.29064 13864.29177-13228.26088    -0.00062     0.00006     0.00009
  E(xc)    -267.86719  -267.86726  -267.43248     0.00008     0.00000     0.00001
  Local  -27843.63429-27843.63440 27671.28124     0.00267     0.00035     0.00065
  n-local   429.79478   430.83418   430.20499     0.61132     0.37281     0.37361
  augment    -2.94954    -2.94949    -6.51055     0.00006     0.00011     0.00000
  Kinetic   691.80093   681.60230   722.31565    -5.46352    -1.88937    -1.60864
  Fock        0.00000     0.00000     0.00000     0.00000     0.00000     0.00000
  Total       0.49576     0.49576     1.33273    -0.00000    -0.00000    -0.00000
  in kB       1.22472     1.22472     3.29238    -0.00001    -0.00000    -0.00000

 VOLUME and BASIS-vectors are now :
  energy-cutoff  :      520.00
  volume of cell :      648.55
      direct lattice vectors                 reciprocal lattice vectors
     5.897951245  0.000000330 -0.000000000     0.169550407 -0.097889955  0.000000000
     2.948975060  5.107775571  0.000000000    -0.000000011  0.195779947 -0.000000000
     0.000000000  0.000000000 21.528336861     0.000000000 -0.000000000  0.046450407

  length of vectors
     5.897951245  5.897950931 21.528336861     0.195779937  0.195779947  0.046450407

 FORCES acting on ions
    electron-ion (+dipol)            ewald-force                    non-local-force                 convergence-correction
   -.869E-04 -.420E-04 -.568E+01   0.879E-03 0.524E-03 0.563E+01   0.139E-16 0.139E-16 0.451E-01   0.142E-06 0.210E-06 0.424E-01
   0.781E-04 0.771E-04 -.726E+01   -.871E-03 -.519E-03 0.724E+01   -.139E-16 0.139E-16 0.937E-02   -.226E-06 -.767E-07 0.436E-01
   -.660E-04 0.210E-04 0.271E+03   -.201E-03 -.113E-03 -.268E+03   -.279E-16 -.144E-17 -.387E+01   0.221E-08 0.186E-08 -.972E-01
   0.476E-04 -.241E-05 -.289E+03   0.226E-03 0.127E-03 0.284E+03   0.418E-16 0.156E-16 0.473E+01   -.714E-08 -.366E-08 0.126E+00
   -.259E+02 -.486E+00 -.580E+03   0.225E+02 0.519E+00 0.584E+03   0.337E+01 -.179E-01 -.381E+01   0.164E-01 -.546E-02 0.263E+00
   0.125E+02 0.226E+02 -.580E+03   -.108E+02 -.198E+02 0.584E+03   -.170E+01 -.291E+01 -.381E+01   -.129E-01 -.115E-01 0.263E+00
   0.134E+02 -.222E+02 -.580E+03   -.117E+02 0.192E+02 0.584E+03   -.167E+01 0.292E+01 -.381E+01   -.348E-02 0.170E-01 0.263E+00
   0.393E+02 -.510E+00 0.590E+03   -.357E+02 0.540E+00 -.594E+03   -.359E+01 -.103E-01 0.405E+01   -.191E-01 -.437E-02 -.242E+00
   -.201E+02 -.338E+02 0.590E+03   0.183E+02 0.307E+02 -.594E+03   0.179E+01 0.311E+01 0.405E+01   0.576E-02 0.187E-01 -.242E+00
   -.192E+02 0.343E+02 0.590E+03   0.174E+02 -.312E+02 -.594E+03   0.180E+01 -.310E+01 0.405E+01   0.133E-01 -.143E-01 -.242E+00
   0.378E-04 0.489E-04 -.177E+01   0.142E-13 0.711E-14 -.114E-12   -.888E-15 0.444E-15 0.164E+01   -.183E-06 0.812E-07 0.177E+00

 POSITION                                       TOTAL-FORCE (eV/Angst)
      2.94897      1.70259     10.74591        -0.000000     -0.000000      0.028773
      5.89795      3.40519     10.74810        -0.000000     -0.000000      0.024929
      0.00000      0.00000      9.64935        -0.000000     -0.000000     -0.260317
     -0.00000      0.00000     11.99366        -0.000000     -0.000000     -0.084669
      3.76797     -0.00155     12.25391         0.023355      0.010304     -0.003999
      1.06365      1.84540     12.25391        -0.002754     -0.025378     -0.003999
      4.01532      3.26393     12.25391        -0.020601      0.015074     -0.003999
      5.21182      5.10502      9.28024        -0.035929      0.014699      0.101094
      7.71312      3.14947      9.28024         0.030694      0.023766      0.101094
      4.76891      1.96106      9.28024         0.005235     -0.038464      0.101094
    total drift:                                0.000038      0.000049      0.041082

  FREE ENERGIE OF THE ION-ELECTRON SYSTEM (eV)
  free  energy   TOTEN  =       -43.16448605 eV

  energy  without entropy=      -43.16448605  energy(sigma->0) =      -43.16448605

 d Force = 0.8267488E-04[ 0.827E-04, 0.826E-04]  d Energy =-0.2044387E-02 0.213E-02
 d Force =-0.4486042E-01[-0.448E-01,-0.449E-01]  d Ewald  = 0.1403466E+01-0.145E+01

 reached required accuracy - stopping structural energy minimisation

 total charge

[...]

 magnetization (x)

# of ion       s       p       d       tot
    1       -0.000  -0.001   0.546   0.545
    2        0.000   0.001  -0.523  -0.522
    3        0.000   0.001   0.000   0.001
    4        0.000   0.000   0.000   0.000
    5        0.002   0.029   0.000   0.031
    6        0.000   0.008   0.000   0.008
    7       -0.001  -0.034   0.000  -0.035
    8       -0.001  -0.034   0.000  -0.036
    9       -0.000  -0.009   0.000  -0.009
   10        0.002   0.048   0.000   0.049
tot          0.001   0.009   0.023   0.033

 BZINTS: Fermi energy: -2.582800; 64.037144 electrons
         Band energy:-497.503954;  BLOECHL correction: -0.004891