 vasp.5.4.4.18Apr17-6-g9f103f2a35 (build May  1 2020 15:48:39) complex
 executed on             LinuxGNU date 2020.07.10  12:43:48

 INCAR:
 POTCAR:   PAW_PBE Mn 06Sep2000
 POTCAR:   PAW_PBE Si 05Jan2001
 POTCAR:    PAW_PBE P 17Jan2003
 POTCAR:    PAW_PBE S 17Jan2003

 POTCAR:   PAW_PBE Mn 06Sep2000
   VRHFIN =Mn: d6 s1

   TITEL  = PAW_PBE Mn 06Sep2000
   POMASS =   54.938; ZVAL   =    7.000    mass and valenz
   ENMAX  =  269.865; ENMIN  =  202.399 eV
   QCUT   =   -4.454; QGAM   =    8.907    optimization parameters

   Description
     l     E      TYP  RCUT    TYP  RCUT
     2   .000     23  2.300
     2   .000     23  2.300
     0   .000     23  2.300
     0   .000     23  2.300
     1  -.200     23  2.300
     1  1.500     23  2.300
     3   .000      7   .000

 POTCAR:   PAW_PBE Si 05Jan2001
   VRHFIN =Si: s2p2

   TITEL  = PAW_PBE Si 05Jan2001
   POMASS =   28.085; ZVAL   =    4.000    mass and valenz
   ENMAX  =  245.345; ENMIN  =  184.009 eV
   QCUT   =   -4.246; QGAM   =    8.493    optimization parameters

[...]

 POTCAR:    PAW_PBE P 17Jan2003
   VRHFIN =P : s2p3

[...]

 POTCAR:    PAW_PBE S 17Jan2003
   VRHFIN =S : s2p4

   TITEL  = PAW_PBE S 17Jan2003
   POMASS =   32.066; ZVAL   =    6.000    mass and valenz
   ENMAX  =  280.000; ENMIN  =  194.016 eV
   QCUT   =   -4.360; QGAM   =    8.721    optimization parameters

   Description
     l     E      TYP  RCUT    TYP  RCUT
     0   .000     23  1.900
     0   .000     23  1.900
     1   .000     23  1.900
     1   .000     23  1.900
     2   .000     23  1.900

 Optimization of the real space projectors (new method)

 maximal supplied QI-value         = 16.25
 optimisation between [QCUT,QGAM] = [ 11.54, 23.24] = [ 37.28,151.24] Ry
 Optimized for a Real-space Cutoff    1.53 Angstroem

   l    n(q)    QCUT    max X(q) W(low)/X(q) W(high)/X(q)  e(spline)
   2     10    11.539     4.144    0.87E-05    0.14E-04    0.48E-07
   2     10    11.539    35.116    0.12E-03    0.13E-03    0.25E-06
   0     11    11.539    20.431    0.20E-04    0.18E-05    0.19E-07
   0     11    11.539    61.159    0.37E-04    0.19E-04    0.29E-06
   1     10    11.539     6.695    0.11E-04    0.24E-05    0.29E-07
   1     10    11.539     8.642    0.41E-04    0.18E-04    0.11E-06
 Optimization of the real space projectors (new method)

[...]

   l    n(q)    QCUT    max X(q) W(low)/X(q) W(high)/X(q)  e(spline)
   0      8    11.508     6.651    0.19E-04    0.31E-05    0.49E-08
   0      8    11.508    90.285    0.95E-04    0.17E-03    0.51E-07
   1      8    11.508     4.328    0.14E-04    0.32E-04    0.22E-07
   1      8    11.508    54.583    0.16E-03    0.71E-04    0.89E-07
 Optimization of the real space projectors (new method)

 maximal supplied QI-value         = 19.84
 optimisation between [QCUT,QGAM] = [ 11.51, 23.22] = [ 37.09,150.92] Ry
 Optimized for a Real-space Cutoff    1.21 Angstroem

   l    n(q)    QCUT    max X(q) W(low)/X(q) W(high)/X(q)  e(spline)
   0      8    11.508     5.487    0.18E-04    0.22E-05    0.47E-08
   0      8    11.508    85.627    0.96E-04    0.18E-03    0.54E-07
   1      8    11.508     3.530    0.17E-04    0.28E-04    0.21E-07
   1      8    11.508    42.714    0.18E-03    0.63E-04    0.92E-07

 PAW_PBE Mn 06Sep2000                   :
 PAW_PBE Si 05Jan2001                   :
  PAW_PBE P 17Jan2003                   :
  PAW_PBE S 17Jan2003                   :

 POSCAR: Mn2 Si P S6
  positions in direct lattice
  velocities in cartesian coordinates
 exchange correlation table for  LEXCH =       42
   RHO(1)=    0.500       N(1)  =     2000
   RHO(2)=  100.500       N(2)  =     4000

 ion  position               nearest neighbor table
   1  0.333  0.333  0.500-   6 2.78   5 2.78   7 2.78   8 2.78  10 2.78   9 2.78
   2  0.667  0.667  0.500-   9 2.78   8 2.78  10 2.78   5 2.78   7 2.78   6 2.78
   3  0.000  0.000  0.448-   4 2.43   8 2.63  10 2.63   9 2.63
   4  0.000  0.000  0.552-   3 2.43   5 2.63   7 2.63   6 2.63
   5  0.626  0.000  0.574-   4 2.63   1 2.78   2 2.78
   6  0.000  0.373  0.574-   4 2.63   1 2.78   2 2.78
   7  0.373  0.626  0.574-   4 2.63   1 2.78   2 2.78
   8  0.374  1.000  0.426-   3 2.63   2 2.78   1 2.78
   9  1.000  0.627  0.426-   3 2.63   2 2.78   1 2.78
  10  0.627  0.374  0.426-   3 2.63   2 2.78   1 2.78

  LATTYP: Found a hexagonal cell.
 ALAT       =     6.9077769333
 C/A-ratio  =     3.3939410937

  Lattice vectors:

 A1 = (   3.4538890000,  -5.9823100000,   0.0000000000)
 A2 = (  -6.9077770000,   0.0000000000,   0.0000000000)
 A3 = (   0.0000000000,   0.0000000000, -23.4445880000)

Analysis of symmetry for initial positions (statically):
 Subroutine PRICEL returns:
 Original cell was already a primitive cell.

 Routine SETGRP: Setting up the symmetry group for a
 hexagonal supercell.

 Subroutine GETGRP returns: Found  3 space group operations
 (whereof  3 operations were pure point group operations)
 out of a pool of 24 trial point group operations.

The static configuration has the point symmetry C_3 .

Analysis of symmetry for dynamics (positions and initial velocities):
 Subroutine PRICEL returns:
 Original cell was already a primitive cell.

[...]

The dynamic configuration has the point symmetry C_3 .

Analysis of constrained symmetry for selective dynamics:
 Subroutine PRICEL returns:
 Original cell was already a primitive cell.

[...]

The constrained configuration has the point symmetry C_3 .

Analysis of structural, dynamic, and magnetic symmetry:
 Subroutine PRICEL returns:
 Original cell was already a primitive cell.

 Routine SETGRP: Setting up the symmetry group for a
 hexagonal supercell.

 Subroutine GETGRP returns: Found  3 space group operations
 (whereof  3 operations were pure point group operations)
 out of a pool of 24 trial point group operations.

The magnetic configuration has the point symmetry C_3 .

 Subroutine INISYM returns: Found  3 space group operations
 (whereof  3 operations are pure point group operations),
 and found     1 'primitive' translations

 KPOINTS: Kpoints from vasprun.xml

Automatic generation of k-mesh.
Space group operators:
 irot       det(A)        alpha          n_x          n_y          n_z        tau_x        tau_y        tau_z
    1     1.000000     0.000000     1.000000     0.000000     0.000000     0.000000     0.000000     0.000000
    2     1.000000   120.000000     0.000000     0.000000     1.000000     0.000000     0.000000     0.000000
    3     1.000000   120.000000     0.000000     0.000000    -1.000000     0.000000     0.000000     0.000000

 Subroutine IBZKPT returns following result:

 Found      5 irreducible k-points:

 Following reciprocal coordinates:
            Coordinates               Weight
  0.000000  0.000000  0.000000      1.000000
  0.200000  0.000000  0.000000      6.000000
  0.400000  0.000000  0.000000      6.000000
  0.400000  0.200000  0.000000      6.000000
 -0.400000  0.200000  0.000000      6.000000

 Following cartesian coordinates:
            Coordinates               Weight
  0.000000  0.000000  0.000000      1.000000
  0.028953 -0.016716  0.000000      6.000000
  0.057906 -0.033432  0.000000      6.000000
  0.057906  0.000000  0.000000      6.000000
 -0.057906  0.066864  0.000000      6.000000

 TETIRR: Found     15 inequivalent tetrahedra from      150

 SYSTEM =  unknown system
 POSCAR =  Mn2 Si P S6

 Startparameter for this run:
   NWRITE =      2    write-flag & timer
   PREC   = accura    normal or accurate (medium, high low for compatibility)
   ISTART =      0    job   : 0-new  1-cont  2-samecut
   ICHARG =      2    charge: 1-file 2-atom 10-const
   ISPIN  =      2    spin polarized calculation?
   LNONCOLLINEAR =      F non collinear calculations
   LSORBIT =      F    spin-orbit coupling
   INIWAV =      1    electr: 0-lowe 1-rand  2-diag
   LASPH  =      F    aspherical Exc in radial PAW
   METAGGA=      F    non-selfconsistent MetaGGA calc.

 Electronic Relaxation 1
   ENCUT  =  520.0 eV  38.22 Ry    6.18 a.u.  12.84 12.84 43.59*2*pi/ulx,y,z
   ENINI  =  520.0     initial cutoff
   ENAUG  =  500.7 eV  augmentation charge cutoff
   NELM   =    400;   NELMIN=  2; NELMDL=  0     # of ELM steps
   EDIFF  = 0.1E-03   stopping-criterion for ELM
   LREAL  =      T    real-space projection
   NLSPLINE    = F    spline interpolate recip. space projectors
   LCOMPAT=      F    compatible to vasp.4.4
   GGA_COMPAT  = T    GGA compatible to vasp.4.4-vasp.4.6
   LMAXPAW     = -100 max onsite density
   LMAXMIX     =    2 max onsite mixed and CHGCAR
   VOSKOWN=      0    Vosko Wilk Nusair interpolation
   ROPT   =   -0.00025  -0.00025  -0.00025  -0.00025
 Ionic relaxation
   EDIFFG = 0.1E-02   stopping-criterion for IOM
   NSW    =     99    number of steps for IOM
   NBLOCK =      1;   KBLOCK =     99    inner block; outer block
   IBRION =      2    ionic relax: 0-MD 1-quasi-New 2-CG
   NFREE  =      1    steps in history (QN), initial steepest desc. (CG)
   ISIF   =      3    stress and relaxation
   IWAVPR =     11    prediction:  0-non 1-charg 2-wave 3-comb
   ISYM   =      2    0-nonsym 1-usesym 2-fastsym
   LCORR  =      T    Harris-Foulkes like correction to forces

   POTIM  = 0.5000    time-step for ionic-motion
   TEIN   =    0.0    initial temperature
   TEBEG  =    0.0;   TEEND  =   0.0 temperature during run
   SMASS  =  -3.00    Nose mass-parameter (am)
   estimated Nose-frequenzy (Omega)   =  0.10E-29 period in steps =****** mass=  -0.109E-26a.u.
   SCALEE = 1.0000    scale energy and forces
   NPACO  =    256;   APACO  = 16.0  distance and # of slots for P.C.
   PSTRESS=    0.0 pullay stress

  Mass of Ions in am
   POMASS =  54.94 28.09 30.97 32.07
  Ionic Valenz
   ZVAL   =   7.00  4.00  5.00  6.00
  Atomic Wigner-Seitz radii
  virtual crystal weights
   VCA    =   1.00  1.00  1.00  1.00
   NELECT =      59.0000    total number of electrons
   NUPDOWN=      -1.0000    fix difference up-down

 DOS related values:
   EMIN   =  10.00;   EMAX   =-10.00  energy-range for DOS
   EFERMI =   0.00
   ISMEAR =    -5;   SIGMA  =   0.05  broadening in eV -4-tet -1-fermi 0-gaus

 Electronic relaxation 2 (details)
   IALGO  =     38    algorithm
   LDIAG  =      T    sub-space diagonalisation (order eigenvalues)
   LSUBROT=      F    optimize rotation matrix (better conditioning)
   TURBO    =      0    0=normal 1=particle mesh
   IRESTART =      0    0=no restart 2=restart with 2 vectors
   NREBOOT  =      0    no. of reboots
   NMIN     =      0    reboot dimension
   EREF     =   0.00    reference energy to select bands
   IMIX   =      4    mixing-type and parameters
     AMIX     =   0.40;   BMIX     =  1.00
     AMIX_MAG =   1.60;   BMIX_MAG =  1.00
     AMIN     =   0.01
     WC   =   100.;   INIMIX=   1;  MIXPRE=   1;  MAXMIX= -45

 Intra band minimization:
   WEIMIN = 0.0010     energy-eigenvalue tresh-hold
   EBREAK =  0.52E-06  absolut break condition
   DEPER  =   0.30     relativ break condition

   TIME   =   0.40     timestep for ELM

  volume/ion in A,a.u.               =      96.88       653.80
  Fermi-wavevector in a.u.,A,eV,Ry     =   0.644084  1.217141  5.644291  0.414844
  Thomas-Fermi vector in A             =   1.711295

 Write flags
[...]
     6.907777000 -0.000000000  0.000000000     0.144764372 -0.083579742  0.000000000
     3.453888000  5.982310000  0.000000000     0.000000000  0.167159509 -0.000000000
     0.000000000  0.000000000 23.444588000    -0.000000000  0.000000000  0.042653767

[...]

 FORCES acting on ions
    electron-ion (+dipol)            ewald-force                    non-local-force                 convergence-correction
   0.196E-03 0.802E-04 0.707E+01   0.390E-03 0.233E-03 -.702E+01   0.173E-17 0.000E+00 0.892E-02   0.641E-06 0.339E-06 0.944E-02
   -.169E-03 -.129E-03 0.549E+01   -.390E-03 -.233E-03 -.547E+01   0.000E+00 0.000E+00 0.309E-01   -.821E-06 -.483E-06 0.895E-02
   -.263E-04 0.247E-05 0.180E+03   -.141E-03 -.779E-04 -.177E+03   0.347E-16 0.139E-16 -.266E+01   -.185E-06 -.115E-06 0.328E-01
   0.309E-04 0.160E-04 -.205E+03   0.176E-03 0.973E-04 0.206E+03   -.278E-16 -.694E-17 -.525E+00   0.273E-06 0.150E-06 -.398E-01
   -.351E+01 0.164E+00 -.364E+03   0.118E+01 -.144E+00 0.367E+03   0.337E+01 -.112E-01 -.461E+01   -.789E-02 -.137E-01 -.868E-01
   0.189E+01 0.295E+01 -.364E+03   -.715E+00 -.950E+00 0.367E+03   -.169E+01 -.291E+01 -.461E+01   -.795E-02 0.137E-01 -.868E-01
   0.161E+01 -.312E+01 -.364E+03   -.465E+00 0.109E+01 0.367E+03   -.167E+01 0.292E+01 -.461E+01   0.158E-01 0.353E-04 -.868E-01
   0.107E+02 -.143E+00 0.369E+03   -.779E+01 0.151E+00 -.372E+03   -.450E+01 0.101E-01 0.468E+01   0.939E-02 -.133E-01 0.745E-01
   -.546E+01 -.917E+01 0.369E+03   0.403E+01 0.667E+01 -.372E+03   0.226E+01 0.389E+01 0.468E+01   -.162E-01 -.148E-02 0.745E-01
   -.521E+01 0.932E+01 0.369E+03   0.376E+01 -.682E+01 -.372E+03   0.224E+01 -.390E+01 0.468E+01   0.683E-02 0.148E-01 0.745E-01
   0.462E-04 -.287E-04 0.298E+01   0.133E-14 -.888E-15 0.568E-13   0.000E+00 -.888E-15 -.295E+01   -.313E-06 -.131E-06 -.257E-01

 POSITION                                       TOTAL-FORCE (eV/Angst)
      3.45388      1.99410     11.72054        -0.000000      0.000000      0.072216
      6.90778      3.98821     11.72405        -0.000000      0.000000      0.060675
      0.00000      0.00000     10.50824        -0.000000      0.000000      0.068545
      0.00000      0.00000     12.93635        -0.000000      0.000000      0.258310
      4.32819      0.00251     13.45138         1.035515     -0.003645     -1.593118
      1.29198      2.23274     13.45138        -0.520914     -0.894959     -1.593118
      4.74152      3.74706     13.45138        -0.514600      0.898605     -1.593118
      6.03348      5.97980      9.99321        -1.610564      0.004306      1.439869
      9.06969      3.74957      9.99321         0.809011      1.392636      1.439869
      5.62015      2.23525      9.99321         0.801553     -1.396942      1.439869
    total drift:                                0.000046     -0.000029      0.002906

  FREE ENERGIE OF THE ION-ELECTRON SYSTEM (eV)
  free  energy   TOTEN  =       -46.96789652 eV

  energy  without entropy=      -46.96789652  energy(sigma->0) =      -46.96789652

[...]

 Broyden mixing:
  rms(total) = 0.35529E-02    rms(broyden)= 0.31967E-02
  rms(prec ) = 0.40559E-02
  weight for this iteration     100.00
  WARNING: grid for Broyden might be to small

[...]

 d Force = 0.7337483E+00[ 0.387E+00, 0.108E+01]  d Energy = 0.6720753E+01-0.599E+01
 d Force =-0.1722755E+03[-0.198E+03,-0.146E+03]  d Ewald  =-0.1954408E+04 0.178E+04

 Steepest descent step on ions:
 trial-energy change:   -6.720753  1 .order   -5.805481   -9.682187   -1.928775
  (g-gl).g = 0.968E+01      g.g   = 0.968E+01  gl.gl    = 0.000E+00
 g(Force)  = 0.120E+01   g(Stress)= 0.848E+01 ortho     = 0.000E+00
 gamma     =   0.00000
 trial     =   1.00000
 opt step  =   1.13775  (harmonic =   1.24876) maximal distance =0.07903194
 next E    =   -53.823891   (d E  =  -6.85599)

[...]

 d Force =-0.1968782E-02[-0.212E-02,-0.182E-02]  d Energy = 0.5651251E-03-0.253E-02
 d Force = 0.2390735E+01[ 0.239E+01, 0.240E+01]  d Ewald  = 0.2702381E+02-0.246E+02

[...]

 Broyden mixing:
  rms(total) = 0.27293E-02    rms(broyden)= 0.22462E-02
  rms(prec ) = 0.26504E-02
  weight for this iteration     100.00
  WARNING: grid for Broyden might be to small

[...]

 d Force = 0.1302528E+00[ 0.728E-01, 0.188E+00]  d Energy = 0.1411076E+00-0.109E-01
 d Force = 0.3119029E+02[ 0.305E+02, 0.318E+02]  d Ewald  =-0.1454017E+03 0.177E+03

 Conjugate gradient step on ions:
 trial-energy change:   -0.141108  1 .order   -0.141640   -0.210202   -0.073078
  (g-gl).g = 0.270E+00      g.g   = 0.207E+00  gl.gl    = 0.968E+01
 g(Force)  = 0.178E+00   g(Stress)= 0.291E-01 ortho     =-0.637E-01
 gamma     =   0.02793
 trial     =   1.02542
 opt step  =   1.59243  (harmonic =   1.57191) maximal distance =0.06031120
 next E    =   -54.024427   (d E  =  -0.16122)

[...]

 d Force = 0.1504277E-01[-0.102E-01, 0.403E-01]  d Energy = 0.1266324E-01 0.238E-02
 d Force = 0.1659372E+02[ 0.164E+02, 0.168E+02]  d Ewald  =-0.8148013E+02 0.981E+02

[...]

 d Force = 0.3471991E-01[ 0.273E-01, 0.421E-01]  d Energy = 0.7197835E-01-0.373E-01
 d Force = 0.1851257E+02[ 0.183E+02, 0.187E+02]  d Ewald  = 0.5179699E+02-0.333E+02

[...]

 d Force = 0.7871615E-01[ 0.429E-01, 0.114E+00]  d Energy = 0.9271587E-01-0.140E-01
 d Force =-0.2155838E+01[-0.200E+01,-0.231E+01]  d Ewald  = 0.1531435E+03-0.155E+03

 Conjugate gradient step on ions:
 trial-energy change:   -0.092716  1 .order   -0.092419   -0.143239   -0.041599
  (g-gl).g = 0.386E-01      g.g   = 0.300E+00  gl.gl    = 0.359E+00
 g(Force)  = 0.244E+00   g(Stress)= 0.566E-01 ortho     = 0.528E-01
 gamma     =   0.10750
 trial     =   0.46807
 opt step  =   0.65965  (harmonic =   0.65965) maximal distance =0.02550511
 next E    =   -54.281638   (d E  =  -0.10093)

[...]

 d Force = 0.1091437E-01[ 0.424E-02, 0.176E-01]  d Energy = 0.8615337E-02 0.230E-02
 d Force =-0.7970296E+00[-0.773E+00,-0.821E+00]  d Ewald  = 0.6192935E+02-0.627E+02

[...]

 d Force = 0.2371630E-03[-0.106E-03, 0.580E-03]  d Energy = 0.5281668E-03-0.291E-03
 d Force = 0.1928408E+01[ 0.193E+01, 0.193E+01]  d Ewald  = 0.2199462E+01-0.271E+00

[...]

 d Force = 0.6678161E-04[ 0.653E-04, 0.683E-04]  d Energy = 0.4219835E-04 0.246E-04
 d Force = 0.5792918E-01[ 0.579E-01, 0.579E-01]  d Ewald  = 0.1041912E+01-0.984E+00

[...]

 d Force = 0.2060738E-02[ 0.161E-02, 0.251E-02]  d Energy = 0.2262426E-02-0.202E-03
 d Force =-0.1858757E+01[-0.184E+01,-0.188E+01]  d Ewald  =-0.1055455E+01-0.803E+00

 Conjugate gradient step on ions:
 trial-energy change:   -0.002262  1 .order   -0.002278   -0.002737   -0.001820
  (g-gl).g = 0.397E-02      g.g   = 0.409E-02  gl.gl    = 0.608E-02
 g(Force)  = 0.222E-02   g(Stress)= 0.187E-02 ortho     =-0.806E-04
 gamma     =   0.65389
 trial     =   0.67859
 opt step  =   2.02671  (harmonic =   2.02671) maximal distance =0.01886296
 next E    =   -54.327982   (d E  =  -0.00409)

[...]

 d Force = 0.1572331E-02[-0.568E-04, 0.320E-02]  d Energy = 0.1764351E-02-0.192E-03
 d Force =-0.3594336E+01[-0.353E+01,-0.366E+01]  d Ewald  =-0.1996179E+01-0.160E+01

[...]

 d Force = 0.1188030E-02[-0.238E-03, 0.261E-02]  d Energy = 0.4754319E-03 0.713E-03
 d Force =-0.8730053E+00[-0.856E+00,-0.890E+00]  d Ewald  =-0.2447587E+02 0.236E+02

 Conjugate gradient step on ions:
 trial-energy change:   -0.000475  1 .order   -0.000913   -0.003815    0.001989
  (g-gl).g = 0.279E-02      g.g   = 0.438E-02  gl.gl    = 0.409E-02
 g(Force)  = 0.312E-02   g(Stress)= 0.126E-02 ortho     = 0.185E-03
 gamma     =   0.68196
 trial     =   0.84639
 opt step  =   0.46140  (harmonic =   0.55635) maximal distance =0.00301546
 next E    =   -54.328892   (d E  =  -0.00097)

[...]

 eigenvalue-minimisations  :  1328
 total energy-change (2. order) : 0.8854153E-04  (-0.3068807E-03)
 number of electron      59.0000003 magnetization       9.0000017
 augmentation part        0.8549708 magnetization       5.5988340

 Broyden mixing:
  rms(total) = 0.11694E-01    rms(broyden)= 0.11693E-01
  rms(prec ) = 0.12183E-01
  weight for this iteration     100.00

 eigenvalues of (default mixing * dielectric matrix)
  average eigenvalue GAMMA=   0.6859
  0.6859

[...]

--------------------------------------- Iteration     21(   3)  ---------------------------------------

[...]

 eigenvalue-minimisations  :   976
 total energy-change (2. order) :-0.5686593E-04  (-0.3934966E-04)
 number of electron      59.0000003 magnetization       9.0000017
 augmentation part        0.8549708 magnetization       5.5988340

 Free energy of the ion-electron system (eV)
  alpha Z        PSCENC =        28.74255287
  Ewald energy   TEWEN  =      8814.85735069
  -Hartree energ DENC   =    -11309.93905500
  -exchange      EXHF   =         0.00000000
  -V(xc)+E(xc)   XCENC  =        48.46356443
  PAW double counting   =      1391.14590807    -1314.70665025
  entropy T*S    EENTRO =         0.00000000
  eigenvalues    EBANDS =      -497.10178371
  atomic energy  EATOM  =      2784.20928046
  Solvation  Ediel_sol  =         0.00000000
  free energy    TOTEN  =       -54.32883244 eV

  energy without entropy =      -54.32883244  energy(sigma->0) =      -54.32883244

 average (electrostatic) potential at core
  the test charge radii are     1.0210  0.9892  0.9587  0.9698
  (the norm of the test charge is              1.0000)
       1 -52.8756       2 -52.8756       3 -93.0131       4 -93.2183       5 -94.4615
       6 -94.4615       7 -94.4615       8 -94.1013       9 -94.1013      10 -94.1012

 E-fermi :  -2.7312     XC(G=0):  -3.3015     alpha+bet : -2.9296

[...]

 spin component 2

[...]

 k-point     5 :      -0.4000    0.2000    0.0000
  band No.  band energies     occupation
      1     -18.1899      1.00000
      2     -16.3553      1.00000
      3     -16.2087      1.00000
      4     -15.9914      1.00000
      5     -15.6220      1.00000
      6     -15.4799      1.00000
      7     -12.0162      1.00000
      8     -10.0032      1.00000
      9      -8.5699      1.00000
     10      -8.2186      1.00000
     11      -8.1207      1.00000
     12      -7.5658      1.00000
     13      -7.2355      1.00000
     14      -6.6031      1.00000
     15      -6.1470      1.00000
     16      -5.9272      1.00000
     17      -5.7457      1.00000
     18      -5.7051      1.00000
     19      -5.6124      1.00000
     20      -5.4822      1.00000
     21      -4.9040      1.00000
     22      -4.9017      1.00000
     23      -4.6809      1.00000
     24      -4.3769      1.00000
     25      -4.2342      1.00000
     26      -2.5901      0.00000
     27      -2.1478      0.00000
     28      -1.9902      0.00000
     29      -1.4058      0.00000
     30      -1.3805      0.00000
     31      -1.2991      0.00000
     32      -1.1247      0.00000
     33      -1.0037      0.00000
     34      -0.6721      0.00000
     35      -0.5766      0.00000
     36      -0.2219      0.00000
     37       0.4633      0.00000
     38       0.8847      0.00000
     39       1.0967      0.00000
     40       1.6961      0.00000
     41       1.8271      0.00000
     42       2.1712      0.00000
     43       2.8680      0.00000
     44       3.0652      0.00000
     45       3.2067      0.00000
     46       3.2999      0.00000
     47       3.4707      0.00000
     48       3.7110      0.00000

[...]

 soft charge-density along one line, spin component           2
         0         1         2         3         4         5         6         7         8         9
 total charge-density along one line

------------------------ aborting loop because EDIFF is reached ----------------------------------------

[...]

  FORCE on cell =-STRESS in cart. coord.  units (eV):
  Direction    XX          YY          ZZ          XY          YZ          ZX
  Alpha Z    28.74255    28.74255    28.74255
  Ewald   10639.08344 10639.08013-12463.30826    -0.00105    -0.00053    -0.00095
  Hartree 11060.74222 11060.74249-10811.86325     0.00002     0.00004     0.00007
  E(xc)    -229.78496  -229.78496  -229.46159     0.00001     0.00000     0.00001
  Local  -22614.46375-22614.46233 22321.95395     0.00061     0.00027     0.00049
  n-local   484.94507   487.21006   485.76110     1.06759    -0.01263     0.01048
  augment   -55.99354   -55.99353   -58.68150     0.00003     0.00003     0.00001
  Kinetic   689.48295   682.57610   727.24520    -4.48274    -1.08740    -0.56667
  Fock        0.00000     0.00000     0.00000     0.00000     0.00000     0.00000
  Total       0.43224     0.43224     0.38820    -0.00000     0.00000     0.00000
  in kB       1.00087     1.00087     0.89890    -0.00000     0.00000     0.00000

 VOLUME and BASIS-vectors are now :
  energy-cutoff  :      520.00
  volume of cell :      691.92
      direct lattice vectors                 reciprocal lattice vectors
     6.010337472  0.000000134  0.000000000     0.166380011 -0.096059534 -0.000000000
     3.005168330  5.205104791 -0.000000000    -0.000000004  0.192119093  0.000000000
     0.000000000 -0.000000000 22.117104997    -0.000000000  0.000000000  0.045213874

  length of vectors
     6.010337472  6.010337143 22.117104997     0.192119083  0.192119093  0.045213874

 FORCES acting on ions
    electron-ion (+dipol)            ewald-force                    non-local-force                 convergence-correction
   -.107E-03 -.404E-04 0.551E+01   0.506E-03 0.293E-03 -.637E+01   0.686E-18 -.216E-18 0.906E+00   -.239E-06 0.240E-06 -.473E-01
   0.913E-04 0.721E-04 0.515E+01   -.527E-03 -.305E-03 -.600E+01   -.279E-17 -.715E-17 0.900E+00   -.255E-06 0.206E-06 -.455E-01
   -.489E-04 -.303E-05 0.237E+03   -.225E-03 -.126E-03 -.233E+03   -.286E-17 -.604E-17 -.378E+01   0.500E-08 0.424E-07 -.152E-01
   0.435E-04 0.231E-04 -.254E+03   0.265E-03 0.148E-03 0.245E+03   0.204E-16 0.488E-17 0.861E+01   0.287E-07 0.655E-08 0.546E-02
   0.341E+02 -.625E-01 -.492E+03   -.372E+02 0.659E-01 0.495E+03   0.301E+01 0.249E-04 -.335E+01   0.276E-02 -.361E-02 -.685E-02
   -.171E+02 -.295E+02 -.492E+03   0.186E+02 0.322E+02 0.495E+03   -.150E+01 -.260E+01 -.335E+01   -.451E-02 -.588E-03 -.685E-02
   -.170E+02 0.296E+02 -.492E+03   0.185E+02 -.322E+02 0.495E+03   -.150E+01 0.260E+01 -.335E+01   0.174E-02 0.420E-02 -.685E-02
   -.116E+02 -.378E-01 0.492E+03   0.138E+02 0.420E-01 -.495E+03   -.225E+01 0.218E-02 0.262E+01   0.961E-02 -.422E-02 -.148E-01
   0.575E+01 0.100E+02 0.492E+03   -.688E+01 -.120E+02 -.495E+03   0.113E+01 0.195E+01 0.262E+01   -.846E-02 -.622E-02 -.148E-01
   0.582E+01 -.999E+01 0.492E+03   -.695E+01 0.120E+02 -.495E+03   0.112E+01 -.195E+01 0.262E+01   -.115E-02 0.104E-01 -.148E-01
   -.255E-04 0.520E-04 -.426E+01   -.533E-14 -.711E-14 -.114E-12   0.000E+00 -.222E-15 0.444E+01   -.632E-06 0.482E-06 -.167E+00

 POSITION                                       TOTAL-FORCE (eV/Angst)
      3.00517      1.73503     11.03025        -0.000000     -0.000000      0.002731
      6.01034      3.47007     11.03128        -0.000000      0.000000      0.001089
      0.00000     -0.00000      9.91477        -0.000000      0.000000     -0.112312
      0.00000     -0.00000     12.12973        -0.000000     -0.000000      0.029209
      4.01249     -0.00021     12.68375        -0.023595      0.000660      0.016969
      0.99875      1.73030     12.68375         0.012369      0.020104      0.016969
      4.00428      3.47502     12.68375         0.011226     -0.020764      0.016969
      5.07623      5.20444      9.47608         0.024267      0.001174      0.009459
      7.97940      3.41184      9.47608        -0.011117     -0.021603      0.009459
      4.97537      1.79392      9.47608        -0.013150      0.020429      0.009459
    total drift:                               -0.000026      0.000052      0.014834

  FREE ENERGIE OF THE ION-ELECTRON SYSTEM (eV)
  free  energy   TOTEN  =       -54.32883244 eV

  energy  without entropy=      -54.32883244  energy(sigma->0) =      -54.32883244

 d Force =-0.2129961E-03[-0.534E-03, 0.108E-03]  d Energy = 0.4344162E-03-0.647E-03
 d Force = 0.3934859E+00[ 0.397E+00, 0.390E+00]  d Ewald  = 0.1114259E+02-0.107E+02

 reached required accuracy - stopping structural energy minimisation

 total charge

[...]

 magnetization (x)

# of ion       s       p       d       tot
    1        0.030   0.027   3.943   4.000
    2        0.030   0.027   3.941   3.998
    3        0.006   0.027   0.000   0.033
    4        0.002   0.021   0.000   0.023
    5        0.009   0.028   0.000   0.037
    6        0.008   0.017   0.000   0.024
    7        0.008   0.017   0.000   0.026
    8        0.010   0.006   0.000   0.016
    9        0.008   0.022   0.000   0.030
   10        0.009   0.012   0.000   0.021
tot          0.121   0.204   7.883   8.208

 BZINTS: Fermi energy: -2.731153; 59.000000 electrons
         Band energy:-497.101784;  BLOECHL correction: -0.002084