 vasp.5.4.4.18Apr17-6-g9f103f2a35 (build May  1 2020 15:48:39) complex
 executed on             LinuxGNU date 2020.07.04  18:50:37

 INCAR:
 POTCAR:   PAW_PBE Fe 06Sep2000
 POTCAR:   PAW_PBE Si 05Jan2001
 POTCAR:    PAW_PBE P 17Jan2003
 POTCAR:   PAW_PBE Te 08Apr2002

 POTCAR:   PAW_PBE Fe 06Sep2000
   VRHFIN =Fe:  d7 s1

   TITEL  = PAW_PBE Fe 06Sep2000
   POMASS =   55.847; ZVAL   =    8.000    mass and valenz
   ENMAX  =  267.883; ENMIN  =  200.912 eV
   QCUT   =   -4.437; QGAM   =    8.874    optimization parameters

   Description
     l     E      TYP  RCUT    TYP  RCUT
     2   .000     23  2.300
     2   .000     23  2.300
     0   .000     23  2.300
     0   .000     23  2.300
     1  -.200     23  2.300
     1   .000     23  2.300
     3   .000      7   .000

 POTCAR:   PAW_PBE Si 05Jan2001
   VRHFIN =Si: s2p2

   TITEL  = PAW_PBE Si 05Jan2001
   POMASS =   28.085; ZVAL   =    4.000    mass and valenz
   ENMAX  =  245.345; ENMIN  =  184.009 eV
   QCUT   =   -4.246; QGAM   =    8.493    optimization parameters

[...]

 POTCAR:    PAW_PBE P 17Jan2003
   VRHFIN =P : s2p3

   TITEL  = PAW_PBE P 17Jan2003
   POMASS =   30.974; ZVAL   =    5.000    mass and valenz
   ENMAX  =  270.000; ENMIN  =  191.280 eV
   QCUT   =   -4.330; QGAM   =    8.659    optimization parameters

[...]

 POTCAR:   PAW_PBE Te 08Apr2002
   VRHFIN =Te: s2p4

   TITEL  = PAW_PBE Te 08Apr2002
   POMASS =  127.600; ZVAL   =    6.000    mass and valenz
   ENMAX  =  174.982; ENMIN  =  131.236 eV
   QCUT   =   -3.586; QGAM   =    7.172    optimization parameters

   Description
     l     E      TYP  RCUT    TYP  RCUT
     0   .000     23  2.300
     0   .000     23  2.300
     1   .000     23  2.300
     1   .000     23  2.300
     2   .000     23  2.300
     3  -.100     23  2.300

 Optimization of the real space projectors (new method)

 maximal supplied QI-value         = 16.25
 optimisation between [QCUT,QGAM] = [ 11.54, 23.24] = [ 37.28,151.24] Ry
 Optimized for a Real-space Cutoff    1.53 Angstroem

   l    n(q)    QCUT    max X(q) W(low)/X(q) W(high)/X(q)  e(spline)
   2     10    11.539     4.378    0.86E-05    0.15E-04    0.46E-07
   2     10    11.539    23.237    0.11E-03    0.14E-03    0.22E-06
   0     11    11.539    17.641    0.19E-04    0.14E-05    0.18E-07
   0     11    11.539    50.908    0.43E-04    0.16E-04    0.30E-06
   1     10    11.539     6.148    0.11E-04    0.38E-05    0.26E-07
   1     10    11.539     8.345    0.44E-04    0.25E-04    0.11E-06
 Optimization of the real space projectors (new method)

[...]

   l    n(q)    QCUT    max X(q) W(low)/X(q) W(high)/X(q)  e(spline)
   0      8    11.508     6.651    0.19E-04    0.31E-05    0.49E-08
   0      8    11.508    90.285    0.95E-04    0.17E-03    0.51E-07
   1      8    11.508     4.328    0.14E-04    0.32E-04    0.22E-07
   1      8    11.508    54.583    0.16E-03    0.71E-04    0.89E-07
 Optimization of the real space projectors (new method)

 maximal supplied QI-value         = 16.25
 optimisation between [QCUT,QGAM] = [ 11.54, 23.24] = [ 37.28,151.24] Ry
 Optimized for a Real-space Cutoff    1.36 Angstroem

   l    n(q)    QCUT    max X(q) W(low)/X(q) W(high)/X(q)  e(spline)
   0      9    11.539     7.090    0.13E-04    0.25E-05    0.51E-08
   0      9    11.539   101.654    0.53E-04    0.69E-04    0.12E-06
   1      9    11.539     5.276    0.20E-04    0.98E-05    0.24E-07
   1      9    11.539    81.891    0.24E-03    0.13E-04    0.15E-06
   2      9    11.539     5.599    0.30E-04    0.97E-04    0.54E-07

 PAW_PBE Fe 06Sep2000                   :
 PAW_PBE Si 05Jan2001                   :
  PAW_PBE P 17Jan2003                   :
 PAW_PBE Te 08Apr2002                   :

 POSCAR: Fe2 Si P Te6
  positions in direct lattice
  velocities in cartesian coordinates
 exchange correlation table for  LEXCH =       42
   RHO(1)=    0.500       N(1)  =     2000
   RHO(2)=  100.500       N(2)  =     4000

 ion  position               nearest neighbor table
   1  0.333  0.333  0.500-   6 2.78   5 2.78   7 2.78   8 2.78  10 2.78   9 2.78
   2  0.667  0.667  0.500-   9 2.78   8 2.78  10 2.78   5 2.78   7 2.78   6 2.78
   3  0.000  0.000  0.448-   4 2.43   8 2.63  10 2.63   9 2.63
   4  0.000  0.000  0.552-   3 2.43   5 2.63   7 2.63   6 2.63
   5  0.626  0.000  0.574-   4 2.63   1 2.78   2 2.78
   6  0.000  0.373  0.574-   4 2.63   1 2.78   2 2.78
   7  0.373  0.626  0.574-   4 2.63   1 2.78   2 2.78
   8  0.374  1.000  0.426-   3 2.63   2 2.78   1 2.78
   9  1.000  0.627  0.426-   3 2.63   2 2.78   1 2.78
  10  0.627  0.374  0.426-   3 2.63   2 2.78   1 2.78

  LATTYP: Found a hexagonal cell.
 ALAT       =     6.9077769333
 C/A-ratio  =     3.3939410937

  Lattice vectors:

 A1 = (   3.4538890000,  -5.9823100000,   0.0000000000)
 A2 = (  -6.9077770000,   0.0000000000,   0.0000000000)
 A3 = (   0.0000000000,   0.0000000000, -23.4445880000)

Analysis of symmetry for initial positions (statically):
 Subroutine PRICEL returns:
 Original cell was already a primitive cell.

 Routine SETGRP: Setting up the symmetry group for a
 hexagonal supercell.

 Subroutine GETGRP returns: Found  3 space group operations
 (whereof  3 operations were pure point group operations)
 out of a pool of 24 trial point group operations.

The static configuration has the point symmetry C_3 .

Analysis of symmetry for dynamics (positions and initial velocities):
 Subroutine PRICEL returns:
 Original cell was already a primitive cell.

[...]

The dynamic configuration has the point symmetry C_3 .

Analysis of constrained symmetry for selective dynamics:
 Subroutine PRICEL returns:
 Original cell was already a primitive cell.

[...]

The constrained configuration has the point symmetry C_3 .

Analysis of structural, dynamic, and magnetic symmetry:
 Subroutine PRICEL returns:
 Original cell was already a primitive cell.

 Routine SETGRP: Setting up the symmetry group for a
 hexagonal supercell.

 Subroutine GETGRP returns: Found  3 space group operations
 (whereof  3 operations were pure point group operations)
 out of a pool of 24 trial point group operations.

The magnetic configuration has the point symmetry C_3 .

 Subroutine INISYM returns: Found  3 space group operations
 (whereof  3 operations are pure point group operations),
 and found     1 'primitive' translations

 KPOINTS: Kpoints from vasprun.xml

Automatic generation of k-mesh.
Space group operators:
 irot       det(A)        alpha          n_x          n_y          n_z        tau_x        tau_y        tau_z
    1     1.000000     0.000000     1.000000     0.000000     0.000000     0.000000     0.000000     0.000000
    2     1.000000   120.000000     0.000000     0.000000     1.000000     0.000000     0.000000     0.000000
    3     1.000000   120.000000     0.000000     0.000000    -1.000000     0.000000     0.000000     0.000000

 Subroutine IBZKPT returns following result:

 Found      5 irreducible k-points:

 Following reciprocal coordinates:
            Coordinates               Weight
  0.000000  0.000000  0.000000      1.000000
  0.200000  0.000000  0.000000      6.000000
  0.400000  0.000000  0.000000      6.000000
  0.400000  0.200000  0.000000      6.000000
 -0.400000  0.200000  0.000000      6.000000

 Following cartesian coordinates:
            Coordinates               Weight
  0.000000  0.000000  0.000000      1.000000
  0.028953 -0.016716  0.000000      6.000000
  0.057906 -0.033432  0.000000      6.000000
  0.057906  0.000000  0.000000      6.000000
 -0.057906  0.066864  0.000000      6.000000

 TETIRR: Found     15 inequivalent tetrahedra from      150

 SYSTEM =  unknown system
 POSCAR =  Fe2 Si P Te6

 Startparameter for this run:
   NWRITE =      2    write-flag & timer
   PREC   = accura    normal or accurate (medium, high low for compatibility)
   ISTART =      0    job   : 0-new  1-cont  2-samecut
   ICHARG =      2    charge: 1-file 2-atom 10-const
   ISPIN  =      2    spin polarized calculation?
   LNONCOLLINEAR =      F non collinear calculations
   LSORBIT =      F    spin-orbit coupling
   INIWAV =      1    electr: 0-lowe 1-rand  2-diag
   LASPH  =      F    aspherical Exc in radial PAW
   METAGGA=      F    non-selfconsistent MetaGGA calc.

 Electronic Relaxation 1
   ENCUT  =  520.0 eV  38.22 Ry    6.18 a.u.  12.84 12.84 43.59*2*pi/ulx,y,z
   ENINI  =  520.0     initial cutoff
   ENAUG  =  511.4 eV  augmentation charge cutoff
   NELM   =    400;   NELMIN=  2; NELMDL=  0     # of ELM steps
   EDIFF  = 0.1E-03   stopping-criterion for ELM
   LREAL  =      T    real-space projection
   NLSPLINE    = F    spline interpolate recip. space projectors
   LCOMPAT=      F    compatible to vasp.4.4
   GGA_COMPAT  = T    GGA compatible to vasp.4.4-vasp.4.6
   LMAXPAW     = -100 max onsite density
   LMAXMIX     =    2 max onsite mixed and CHGCAR
   VOSKOWN=      0    Vosko Wilk Nusair interpolation
   ROPT   =   -0.00025  -0.00025  -0.00025  -0.00025
 Ionic relaxation
   EDIFFG = 0.1E-02   stopping-criterion for IOM
   NSW    =     99    number of steps for IOM
   NBLOCK =      1;   KBLOCK =     99    inner block; outer block
   IBRION =      2    ionic relax: 0-MD 1-quasi-New 2-CG
   NFREE  =      1    steps in history (QN), initial steepest desc. (CG)
   ISIF   =      3    stress and relaxation
   IWAVPR =     11    prediction:  0-non 1-charg 2-wave 3-comb
   ISYM   =      2    0-nonsym 1-usesym 2-fastsym
   LCORR  =      T    Harris-Foulkes like correction to forces

   POTIM  = 0.5000    time-step for ionic-motion
   TEIN   =    0.0    initial temperature
   TEBEG  =    0.0;   TEEND  =   0.0 temperature during run
   SMASS  =  -3.00    Nose mass-parameter (am)
   estimated Nose-frequenzy (Omega)   =  0.10E-29 period in steps =****** mass=  -0.109E-26a.u.
   SCALEE = 1.0000    scale energy and forces
   NPACO  =    256;   APACO  = 16.0  distance and # of slots for P.C.
   PSTRESS=    0.0 pullay stress

  Mass of Ions in am
   POMASS =  55.85 28.09 30.97127.60
  Ionic Valenz
   ZVAL   =   8.00  4.00  5.00  6.00
  Atomic Wigner-Seitz radii
  virtual crystal weights
   VCA    =   1.00  1.00  1.00  1.00
   NELECT =      61.0000    total number of electrons
   NUPDOWN=      -1.0000    fix difference up-down

 DOS related values:
   EMIN   =  10.00;   EMAX   =-10.00  energy-range for DOS
   EFERMI =   0.00
   ISMEAR =    -5;   SIGMA  =   0.05  broadening in eV -4-tet -1-fermi 0-gaus

 Electronic relaxation 2 (details)
   IALGO  =     38    algorithm
   LDIAG  =      T    sub-space diagonalisation (order eigenvalues)
   LSUBROT=      F    optimize rotation matrix (better conditioning)
   TURBO    =      0    0=normal 1=particle mesh
   IRESTART =      0    0=no restart 2=restart with 2 vectors
   NREBOOT  =      0    no. of reboots
   NMIN     =      0    reboot dimension
   EREF     =   0.00    reference energy to select bands
   IMIX   =      4    mixing-type and parameters
     AMIX     =   0.40;   BMIX     =  1.00
     AMIX_MAG =   1.60;   BMIX_MAG =  1.00
     AMIN     =   0.01
     WC   =   100.;   INIMIX=   1;  MIXPRE=   1;  MAXMIX= -45

 Intra band minimization:
   WEIMIN = 0.0010     energy-eigenvalue tresh-hold
   EBREAK =  0.52E-06  absolut break condition
[...]
  Fock        0.00000     0.00000     0.00000     0.00000     0.00000     0.00000
  Total      -7.78501    -7.78501    -7.34724     0.00000     0.00000     0.00000
  in kB     -12.87419   -12.87419   -12.15024     0.00000     0.00000     0.00000

 VOLUME and BASIS-vectors are now :
  energy-cutoff  :      520.00
  volume of cell :      968.84
      direct lattice vectors                 reciprocal lattice vectors
     6.907777000 -0.000000000  0.000000000     0.144764372 -0.083579742  0.000000000
     3.453888000  5.982310000  0.000000000     0.000000000  0.167159509 -0.000000000
     0.000000000  0.000000000 23.444588000    -0.000000000  0.000000000  0.042653767

[...]

 FORCES acting on ions
    electron-ion (+dipol)            ewald-force                    non-local-force                 convergence-correction
   0.146E-03 0.692E-04 0.801E+01   0.473E-03 0.283E-03 -.804E+01   0.000E+00 0.000E+00 0.183E+00   0.616E-06 0.388E-06 -.322E-01
   -.146E-03 -.791E-04 0.621E+01   -.473E-03 -.283E-03 -.623E+01   0.000E+00 0.000E+00 0.175E+00   -.297E-06 -.263E-06 -.320E-01
   -.370E-04 -.134E-04 0.185E+03   -.141E-03 -.779E-04 -.184E+03   0.000E+00 0.000E+00 0.479E+00   -.235E-07 -.129E-07 -.146E-01
   0.386E-04 0.269E-04 -.216E+03   0.176E-03 0.974E-04 0.215E+03   0.278E-16 0.000E+00 0.167E-01   0.770E-08 -.147E-05 -.309E-01
   -.865E+01 0.140E+00 -.384E+03   0.589E+01 -.145E+00 0.388E+03   0.300E+01 -.679E-02 -.421E+01   -.887E-02 0.634E-02 -.293E-01
   0.444E+01 0.742E+01 -.384E+03   -.307E+01 -.503E+01 0.388E+03   -.150E+01 -.259E+01 -.421E+01   0.994E-02 0.452E-02 -.294E-01
   0.420E+01 -.756E+01 -.384E+03   -.282E+01 0.517E+01 0.388E+03   -.149E+01 0.260E+01 -.421E+01   -.106E-02 -.109E-01 -.294E-01
   0.158E+02 -.164E+00 0.389E+03   -.125E+02 0.152E+00 -.393E+03   -.376E+01 0.139E-01 0.437E+01   0.326E-02 0.710E-02 -.172E-01
   -.802E+01 -.136E+02 0.389E+03   0.638E+01 0.107E+02 -.393E+03   0.189E+01 0.325E+01 0.437E+01   0.452E-02 -.637E-02 -.172E-01
   -.773E+01 0.137E+02 0.389E+03   0.612E+01 -.109E+02 -.393E+03   0.187E+01 -.326E+01 0.437E+01   -.778E-02 -.732E-03 -.172E-01
   0.406E-04 -.315E-05 -.110E+01   0.799E-14 -.355E-14 -.568E-13   -.222E-15 0.444E-15 0.133E+01   0.314E-05 0.272E-05 -.249E+00

 POSITION                                       TOTAL-FORCE (eV/Angst)
      3.45388      1.99410     11.72054        -0.000000      0.000000      0.120616
      6.90778      3.98821     11.72405        -0.000000      0.000000      0.121495
      0.00000      0.00000     10.50824        -0.000000      0.000000      0.675388
      0.00000      0.00000     12.93635        -0.000000      0.000000     -0.540242
      4.32819      0.00251     13.45138         0.228771     -0.004803     -0.624370
      1.29198      2.23274     13.45138        -0.118545     -0.195720     -0.624370
      4.74152      3.74706     13.45138        -0.110226      0.200523     -0.624370
      6.03348      5.97980      9.99321        -0.498910      0.008197      0.498618
      9.06969      3.74957      9.99321         0.256554      0.427970      0.498618
      5.62015      2.23525      9.99321         0.242356     -0.436167      0.498618
    total drift:                                0.000044     -0.000000     -0.013225

  FREE ENERGIE OF THE ION-ELECTRON SYSTEM (eV)
  free  energy   TOTEN  =       -38.76021535 eV

  energy  without entropy=      -38.76021535  energy(sigma->0) =      -38.76021535

[...]

 d Force = 0.2573143E-01[ 0.153E-01, 0.362E-01]  d Energy = 0.7285715E+00-0.703E+00
 d Force =-0.1168252E+02[-0.121E+02,-0.113E+02]  d Ewald  =-0.3198010E+03 0.308E+03

 Steepest descent step on ions:
 trial-energy change:   -0.728572  1 .order   -0.584355   -0.882686   -0.286023
  (g-gl).g = 0.883E+00      g.g   = 0.883E+00  gl.gl    = 0.000E+00
 g(Force)  = 0.375E-01   g(Stress)= 0.845E+00 ortho     = 0.000E+00
 gamma     =   0.00000
 trial     =   1.00000
 opt step  =   1.17708  (harmonic =   1.47937) maximal distance =0.03835230
 next E    =   -39.514913   (d E  =  -0.75470)

[...]

 eigenvalue-minimisations  :  1120
 total energy-change (2. order) :-0.1306046E+00  ( 0.8859802E-05)
 number of electron      61.0000009 magnetization       0.9522517
 augmentation part        0.0676709 magnetization       2.2492554

[...]

 d Force =-0.7675086E-02[-0.230E-01, 0.769E-02]  d Energy = 0.1332305E+00-0.141E+00
 d Force =-0.4855754E+01[-0.484E+01,-0.487E+01]  d Ewald  = 0.4927753E+03-0.498E+03

 Conjugate gradient step on ions:
 trial-energy change:   -0.133230  1 .order   -0.107938   -0.255244    0.039368
  (g-gl).g = 0.228E+00      g.g   = 0.243E+00  gl.gl    = 0.883E+00
 g(Force)  = 0.582E-02   g(Stress)= 0.237E+00 ortho     = 0.144E-01
 gamma     =   0.25868
 trial     =   1.03542
 opt step  =   0.94118  (harmonic =   0.89706) maximal distance =0.01489233
 next E    =   -39.648583   (d E  =  -0.13500)

[...]

 Broyden mixing:
  rms(total) = 0.38912E-01    rms(broyden)= 0.24333E-01
  rms(prec ) = 0.27327E-01
  weight for this iteration     100.00
  WARNING: grid for Broyden might be to small

[...]

 d Force = 0.2039780E-02[ 0.189E-02, 0.219E-02]  d Energy = 0.3027693E-02-0.988E-03
 d Force = 0.4604246E+00[ 0.461E+00, 0.460E+00]  d Ewald  =-0.4464313E+02 0.451E+02

[...]

 d Force = 0.6204592E-01[ 0.319E-01, 0.922E-01]  d Energy = 0.9194104E-01-0.299E-01
 d Force = 0.1890935E+02[ 0.188E+02, 0.190E+02]  d Ewald  = 0.4289724E+03-0.410E+03

 Conjugate gradient step on ions:
 trial-energy change:   -0.091941  1 .order   -0.095430   -0.153663   -0.037197
  (g-gl).g = 0.117E+00      g.g   = 0.162E+00  gl.gl    = 0.243E+00
 g(Force)  = 0.102E+00   g(Stress)= 0.604E-01 ortho     =-0.229E-01
 gamma     =   0.48349
 trial     =   1.01657
 opt step  =   1.45352  (harmonic =   1.34124) maximal distance =0.07057036
 next E    =   -39.749497   (d E  =  -0.09966)

[...]

 d Force = 0.9008656E-02[ 0.419E-02, 0.138E-01]  d Energy = 0.1248309E-02 0.776E-02
 d Force = 0.8143738E+01[ 0.813E+01, 0.816E+01]  d Ewald  = 0.1784176E+03-0.170E+03

[...]

 d Force =-0.2124069E-02[-0.274E-02,-0.151E-02]  d Energy = 0.1360721E-02-0.348E-02
 d Force =-0.2932032E+01[-0.293E+01,-0.293E+01]  d Ewald  =-0.6332568E+02 0.604E+02

[...]

 d Force = 0.2063953E-02[-0.414E-02, 0.827E-02]  d Energy = 0.1169110E-01-0.963E-02
 d Force = 0.8758907E+01[ 0.881E+01, 0.870E+01]  d Ewald  = 0.4226247E+02-0.335E+02

 Conjugate gradient step on ions:
 trial-energy change:   -0.011691  1 .order   -0.011228   -0.024691    0.002236
  (g-gl).g = 0.378E-01      g.g   = 0.237E-01  gl.gl    = 0.162E+00
 g(Force)  = 0.370E-02   g(Stress)= 0.200E-01 ortho     =-0.291E-02
 gamma     =   0.23301
 trial     =   1.07275
 opt step  =   0.99144  (harmonic =   0.98368) maximal distance =0.02194039
 next E    =   -39.756164   (d E  =  -0.01178)

[...]

 d Force = 0.2823047E-03[ 0.248E-03, 0.317E-03]  d Energy = 0.8193264E-05 0.274E-03
 d Force =-0.6740689E+00[-0.674E+00,-0.674E+00]  d Ewald  =-0.3231399E+01 0.256E+01

[...]

 d Force = 0.3707814E-03[-0.233E-03, 0.975E-03]  d Energy = 0.2807481E-03 0.900E-04
 d Force =-0.1903913E+01[-0.190E+01,-0.191E+01]  d Ewald  = 0.3251626E+02-0.344E+02

 Steepest descent step on ions:
 trial-energy change:   -0.000281  1 .order   -0.000439   -0.002090    0.001212
  (g-gl).g = 0.658E-02      g.g   = 0.198E-02  gl.gl    = 0.237E-01
 g(Force)  = 0.924E-03   g(Stress)= 0.105E-02 ortho     =-0.379E-02
 gamma     =   0.00000
 trial     =   1.05649
 opt step  =   0.66879  (harmonic =   0.66879) maximal distance =0.00403485
 next E    =   -39.756749   (d E  =  -0.00066)

[...]

 eigenvalue-minimisations  :  1200
 total energy-change (2. order) : 0.1374832E-02  (-0.4916202E-03)
 number of electron      60.9999989 magnetization       1.0001534
 augmentation part        0.5537056 magnetization       0.9144608

[...]

 Broyden mixing:
  rms(total) = 0.95158E-02    rms(broyden)= 0.95154E-02
  rms(prec ) = 0.10110E-01
  weight for this iteration     100.00

 eigenvalues of (default mixing * dielectric matrix)
  average eigenvalue GAMMA=   0.6786
  1.8184  0.6558  0.6558  0.0464  0.2165

[...]

--------------------------------------- Iteration     12(   7)  ---------------------------------------

[...]

 eigenvalue-minimisations  :   688
 total energy-change (2. order) :-0.7241807E-05  (-0.5659444E-05)
 number of electron      60.9999989 magnetization       1.0001260
 augmentation part        0.5611475 magnetization       0.9144749

 Free energy of the ion-electron system (eV)
  alpha Z        PSCENC =        16.80799646
  Ewald energy   TEWEN  =      6587.29516531
  -Hartree energ DENC   =     -9170.49462936
  -exchange      EXHF   =         0.00000000
  -V(xc)+E(xc)   XCENC  =      -174.06939026
  PAW double counting   =      1787.51186694    -1535.07201259
  entropy T*S    EENTRO =         0.00000000
  eigenvalues    EBANDS =      -372.29179697
  atomic energy  EATOM  =      2820.55608801
  Solvation  Ediel_sol  =         0.00000000
  free energy    TOTEN  =       -39.75671246 eV

  energy without entropy =      -39.75671246  energy(sigma->0) =      -39.75671246

 average (electrostatic) potential at core
  the test charge radii are     1.0103  0.9892  0.9587  1.1897
  (the norm of the test charge is              1.0000)
       1 -50.1818       2 -50.1440       3 -91.6968       4 -91.1505       5 -96.2982
       6 -96.2981       7 -96.2981       8 -95.9962       9 -95.9962      10 -95.9962

 E-fermi :  -1.4891     XC(G=0):  -3.6510     alpha+bet : -3.5439

[...]

 spin component 2

[...]

 k-point     5 :      -0.4000    0.2000    0.0000
  band No.  band energies     occupation
      1     -14.7334      1.00000
      2     -13.6038      1.00000
      3     -13.2430      1.00000
      4     -12.9962      1.00000
      5     -12.6829      1.00000
      6     -12.5368      1.00000
      7     -10.7850      1.00000
      8      -8.5155      1.00000
      9      -6.7801      1.00000
     10      -6.3321      1.00000
     11      -6.0709      1.00000
     12      -5.4770      1.00000
     13      -5.4344      1.00000
     14      -4.9257      1.00000
     15      -4.6882      1.00000
     16      -4.4656      1.00000
     17      -4.4343      1.00000
     18      -4.0298      1.00000
     19      -3.9231      1.00000
     20      -3.7189      1.00000
     21      -3.6860      1.00000
     22      -3.3313      1.00000
     23      -2.9036      1.00000
     24      -2.7368      1.00000
     25      -2.4850      1.00000
     26      -2.3380      1.00000
     27      -1.8610      1.00000
     28      -1.8323      1.00000
     29      -1.6190      1.00000
     30      -1.4958      1.06319
     31      -1.4609      0.00000
     32      -0.8274      0.00000
     33      -0.3691      0.00000
     34      -0.3019      0.00000
     35       0.0555      0.00000
     36       0.2788      0.00000
     37       0.5700      0.00000
     38       0.6096      0.00000
     39       1.1875      0.00000
     40       1.6435      0.00000
     41       1.9759      0.00000
     42       2.1375      0.00000
     43       3.1905      0.00000
     44       3.3068      0.00000
     45       3.3501      0.00000
     46       3.4502      0.00000
     47       3.5090      0.00000
     48       4.0498      0.00000

[...]

 soft charge-density along one line, spin component           2
         0         1         2         3         4         5         6         7         8         9
 total charge-density along one line

------------------------ aborting loop because EDIFF is reached ----------------------------------------

[...]

  FORCE on cell =-STRESS in cart. coord.  units (eV):
  Direction    XX          YY          ZZ          XY          YZ          ZX
  Alpha Z    16.80800    16.80800    16.80800
  Ewald    8385.92396  8385.92133-10184.55401    -0.00170    -0.00055    -0.00100
  Hartree  8853.25566  8853.25639 -8536.53485    -0.00014     0.00008     0.00013
  E(xc)    -252.67859  -252.67857  -252.34397     0.00002     0.00001     0.00002
  Local  -18132.08519-18132.08420 17794.66137     0.00153     0.00036     0.00067
  n-local   696.57224   695.08539   711.73515    -0.74160     0.51666     0.85454
  augment   -97.16099   -97.16085  -107.57288    -0.00004     0.00004     0.00004
  Kinetic   530.96265   528.85278   557.47094    -1.71029     1.11566     1.26221
  Fock        0.00000     0.00000     0.00000     0.00000     0.00000     0.00000
  Total      -0.20100    -0.20100    -0.33026     0.00000    -0.00000     0.00000
  in kB      -0.39062    -0.39062    -0.64183     0.00000    -0.00000     0.00000

 VOLUME and BASIS-vectors are now :
  energy-cutoff  :      520.00
  volume of cell :      824.42
      direct lattice vectors                 reciprocal lattice vectors
     6.724977514 -0.000000224 -0.000000000     0.148699379 -0.085851626  0.000000000
     3.362488495  5.824000922 -0.000000000     0.000000006  0.171703266 -0.000000000
    -0.000000000  0.000000000 21.049267626     0.000000000 -0.000000000  0.047507591

  length of vectors
     6.724977514  6.724976997 21.049267626     0.171703253  0.171703266  0.047507591

 FORCES acting on ions
    electron-ion (+dipol)            ewald-force                    non-local-force                 convergence-correction
   0.632E-04 0.254E-04 0.518E+01   0.560E-03 0.334E-03 -.548E+01   -.931E-18 0.290E-19 0.319E+00   0.977E-06 -.148E-06 -.230E-03
   -.624E-04 -.196E-04 0.199E+01   -.534E-03 -.320E-03 -.225E+01   -.179E-17 0.349E-17 0.263E+00   0.445E-06 0.489E-06 -.640E-03
   -.257E-04 -.361E-04 0.201E+03   -.148E-03 -.822E-04 -.199E+03   -.656E-17 -.173E-18 -.190E+01   0.729E-07 0.243E-07 0.162E-02
   0.303E-04 0.333E-04 -.235E+03   0.189E-03 0.105E-03 0.233E+03   -.215E-17 0.106E-16 0.207E+01   0.834E-07 0.455E-07 -.171E-02
   -.155E+02 -.187E+00 -.394E+03   0.113E+02 0.699E-01 0.398E+03   0.381E+01 -.126E-01 -.465E+01   -.113E-02 0.106E+00 -.422E-02
   0.757E+01 0.135E+02 -.394E+03   -.557E+01 -.979E+01 0.398E+03   -.191E+01 -.329E+01 -.465E+01   0.922E-01 -.519E-01 -.422E-02
   0.789E+01 -.133E+02 -.394E+03   -.569E+01 0.972E+01 0.398E+03   -.189E+01 0.330E+01 -.465E+01   -.911E-01 -.539E-01 -.422E-02
   0.201E+02 -.688E-01 0.402E+03   -.160E+02 -.630E-01 -.407E+03   -.398E+01 0.225E-01 0.493E+01   0.857E-03 0.996E-01 0.439E-02
   -.101E+02 -.174E+02 0.402E+03   0.792E+01 0.138E+02 -.407E+03   0.201E+01 0.344E+01 0.493E+01   0.858E-01 -.505E-01 0.439E-02
   -.999E+01 0.174E+02 0.402E+03   0.803E+01 -.138E+02 -.407E+03   0.197E+01 -.346E+01 0.493E+01   -.867E-01 -.491E-01 0.439E-02
   -.852E-04 -.651E-04 -.157E+01   -.266E-13 -.355E-14 0.171E-12   -.222E-15 0.444E-15 0.157E+01   0.180E-05 0.555E-06 -.460E-03

 POSITION                                       TOTAL-FORCE (eV/Angst)
      3.36249      1.94133     10.55608         0.000000     -0.000000      0.019011
      6.72498      3.88267     10.56456         0.000000     -0.000000      0.000239
     -0.00000      0.00000      9.42259         0.000000     -0.000000      0.040919
     -0.00000      0.00000     11.66241         0.000000     -0.000000      0.027609
      4.21365      0.00245     12.07706        -0.397985     -0.023702     -0.044449
      1.25779      2.17366     12.07706         0.178466      0.356516     -0.044449
      4.61604      3.64790     12.07706         0.219519     -0.332814     -0.044449
      5.87382      5.82155      8.97221         0.173954     -0.010196      0.015189
      8.82968      3.65034      8.97221        -0.095807     -0.145551      0.015189
      5.47142      2.17610      8.97221        -0.078147      0.155747      0.015189
    total drift:                               -0.000083     -0.000065      0.004301

  FREE ENERGIE OF THE ION-ELECTRON SYSTEM (eV)
  free  energy   TOTEN  =       -39.75671246 eV

  energy  without entropy=      -39.75671246  energy(sigma->0) =      -39.75671246

 d Force = 0.4425786E-05[-0.769E-04, 0.857E-04]  d Energy = 0.3437076E-03-0.339E-03
 d Force = 0.6985141E+00[ 0.699E+00, 0.698E+00]  d Ewald  =-0.1191277E+02 0.126E+02

 reached required accuracy - stopping structural energy minimisation

 total charge

[...]

 magnetization (x)

# of ion       s       p       d       tot
    1        0.004   0.008   0.636   0.648
    2        0.004   0.008   0.545   0.557
    3       -0.001   0.001   0.000  -0.000
    4       -0.004  -0.007   0.000  -0.011
    5       -0.001  -0.023  -0.001  -0.025
    6       -0.002  -0.015  -0.001  -0.018
    7       -0.001  -0.021  -0.001  -0.023
    8       -0.001  -0.022  -0.000  -0.023
    9       -0.001  -0.014  -0.001  -0.016
   10       -0.001  -0.021  -0.001  -0.022
tot         -0.003  -0.107   1.176   1.067

 BZINTS: Fermi energy: -1.489106; 61.000000 electrons
         Band energy:-372.291797;  BLOECHL correction: -0.002807