 vasp.5.4.4.18Apr17-6-g9f103f2a35 (build May  1 2020 15:48:39) complex
 executed on             LinuxGNU date 2020.06.22  07:51:19

 INCAR:
 POTCAR:   PAW_PBE Cr 06Sep2000
 POTCAR:    PAW_PBE P 17Jan2003
 POTCAR:    PAW_PBE S 17Jan2003

 POTCAR:   PAW_PBE Cr 06Sep2000
   VRHFIN =Cr : d5 s1

   TITEL  = PAW_PBE Cr 06Sep2000
   POMASS =   51.996; ZVAL   =    6.000    mass and valenz
   ENMAX  =  227.082; ENMIN  =  170.311 eV
   QCUT   =   -4.085; QGAM   =    8.171    optimization parameters

   Description
     l     E      TYP  RCUT    TYP  RCUT
     2   .000     23  2.500
     2   .000     23  2.500
     0   .000     23  2.500
     0   .000     23  2.500
     1  -.400     23  2.500
     1  2.000     23  2.500
     3   .000      7   .000

 POTCAR:    PAW_PBE P 17Jan2003
   VRHFIN =P : s2p3

   TITEL  = PAW_PBE P 17Jan2003
   POMASS =   30.974; ZVAL   =    5.000    mass and valenz
   ENMAX  =  270.000; ENMIN  =  191.280 eV
   QCUT   =   -4.330; QGAM   =    8.659    optimization parameters

[...]

 POTCAR:    PAW_PBE S 17Jan2003
   VRHFIN =S : s2p4

   TITEL  = PAW_PBE S 17Jan2003
   POMASS =   32.066; ZVAL   =    6.000    mass and valenz
   ENMAX  =  280.000; ENMIN  =  194.016 eV
   QCUT   =   -4.360; QGAM   =    8.721    optimization parameters

   Description
     l     E      TYP  RCUT    TYP  RCUT
     0   .000     23  1.900
     0   .000     23  1.900
     1   .000     23  1.900
     1   .000     23  1.900
     2   .000     23  1.900

 Optimization of the real space projectors (new method)

 maximal supplied QI-value         = 15.12
 optimisation between [QCUT,QGAM] = [ 11.64, 23.28] = [ 37.95,151.78] Ry
 Optimized for a Real-space Cutoff    1.49 Angstroem

   l    n(q)    QCUT    max X(q) W(low)/X(q) W(high)/X(q)  e(spline)
   2      9    11.641     4.777    0.25E-04    0.21E-05    0.63E-07
   2      9    11.641    31.132    0.13E-03    0.22E-03    0.64E-06
   0     10    11.641    20.416    0.11E-04    0.74E-05    0.19E-07
   0     10    11.641    45.408    0.10E-03    0.85E-04    0.30E-06
   1     10    11.641     7.848    0.22E-04    0.23E-04    0.56E-07
   1     10    11.641     9.895    0.85E-04    0.54E-04    0.16E-06
 Optimization of the real space projectors (new method)

[...]

   l    n(q)    QCUT    max X(q) W(low)/X(q) W(high)/X(q)  e(spline)
   0      8    11.508     6.651    0.19E-04    0.31E-05    0.49E-08
   0      8    11.508    90.285    0.95E-04    0.17E-03    0.51E-07
   1      8    11.508     4.328    0.14E-04    0.32E-04    0.22E-07
   1      8    11.508    54.583    0.16E-03    0.71E-04    0.89E-07
 Optimization of the real space projectors (new method)

 maximal supplied QI-value         = 19.84
 optimisation between [QCUT,QGAM] = [ 11.51, 23.22] = [ 37.09,150.92] Ry
 Optimized for a Real-space Cutoff    1.21 Angstroem

   l    n(q)    QCUT    max X(q) W(low)/X(q) W(high)/X(q)  e(spline)
   0      8    11.508     5.487    0.18E-04    0.22E-05    0.47E-08
   0      8    11.508    85.627    0.96E-04    0.18E-03    0.54E-07
   1      8    11.508     3.530    0.17E-04    0.28E-04    0.21E-07
   1      8    11.508    42.714    0.18E-03    0.63E-04    0.92E-07

 PAW_PBE Cr 06Sep2000                   :
  PAW_PBE P 17Jan2003                   :
  PAW_PBE S 17Jan2003                   :

 POSCAR: Cr2 P2 S6
  positions in direct lattice
  velocities in cartesian coordinates
 exchange correlation table for  LEXCH =       42
   RHO(1)=    0.500       N(1)  =     2000
   RHO(2)=  100.500       N(2)  =     4000

 ion  position               nearest neighbor table
   1  0.333  0.333  0.500-   6 2.78   5 2.78   7 2.78   8 2.78  10 2.78   9 2.78
   2  0.667  0.667  0.500-   9 2.78   8 2.78  10 2.78   5 2.78   7 2.78   6 2.78
   3  0.000  0.000  0.448-   4 2.43   8 2.63  10 2.63   9 2.63
   4  0.000  0.000  0.552-   3 2.43   5 2.63   7 2.63   6 2.63
   5  0.626  0.000  0.574-   4 2.63   1 2.78   2 2.78
   6  0.000  0.373  0.574-   4 2.63   1 2.78   2 2.78
   7  0.373  0.626  0.574-   4 2.63   1 2.78   2 2.78
   8  0.374  1.000  0.426-   3 2.63   2 2.78   1 2.78
   9  1.000  0.627  0.426-   3 2.63   2 2.78   1 2.78
  10  0.627  0.374  0.426-   3 2.63   2 2.78   1 2.78

  LATTYP: Found a hexagonal cell.
 ALAT       =     6.9077769333
 C/A-ratio  =     3.3939410937

  Lattice vectors:

 A1 = (   3.4538890000,  -5.9823100000,   0.0000000000)
 A2 = (  -6.9077770000,   0.0000000000,   0.0000000000)
 A3 = (   0.0000000000,   0.0000000000, -23.4445880000)

Analysis of symmetry for initial positions (statically):
 Subroutine PRICEL returns:
 Original cell was already a primitive cell.

 Routine SETGRP: Setting up the symmetry group for a
 hexagonal supercell.

 Subroutine GETGRP returns: Found  6 space group operations
 (whereof  6 operations were pure point group operations)
 out of a pool of 24 trial point group operations.

The static configuration has the point symmetry S_6 .

Analysis of symmetry for dynamics (positions and initial velocities):
 Subroutine PRICEL returns:
 Original cell was already a primitive cell.

[...]

The dynamic configuration has the point symmetry S_6 .

Analysis of constrained symmetry for selective dynamics:
 Subroutine PRICEL returns:
 Original cell was already a primitive cell.

[...]

The constrained configuration has the point symmetry S_6 .

Analysis of structural, dynamic, and magnetic symmetry:
 Subroutine PRICEL returns:
 Original cell was already a primitive cell.

 Routine SETGRP: Setting up the symmetry group for a
 hexagonal supercell.

 Subroutine GETGRP returns: Found  6 space group operations
 (whereof  6 operations were pure point group operations)
 out of a pool of 24 trial point group operations.

The magnetic configuration has the point symmetry S_6 .

 Subroutine INISYM returns: Found  6 space group operations
 (whereof  6 operations are pure point group operations),
 and found     1 'primitive' translations

 KPOINTS: Kpoints from vasprun.xml

Automatic generation of k-mesh.
Space group operators:
 irot       det(A)        alpha          n_x          n_y          n_z        tau_x        tau_y        tau_z
    1     1.000000     0.000000     1.000000     0.000000     0.000000     0.000000     0.000000     0.000000
    2    -1.000000     0.000000     1.000000     0.000000     0.000000     0.000000     0.000000     0.000000
    3     1.000000   120.000000     0.000000     0.000000     1.000000     0.000000     0.000000     0.000000
    4    -1.000000   120.000000     0.000000     0.000000     1.000000     0.000000     0.000000     0.000000
    5     1.000000   120.000000     0.000000     0.000000    -1.000000     0.000000     0.000000     0.000000
    6    -1.000000   120.000000     0.000000     0.000000    -1.000000     0.000000     0.000000     0.000000

 Subroutine IBZKPT returns following result:

 Found      5 irreducible k-points:

 Following reciprocal coordinates:
            Coordinates               Weight
  0.000000  0.000000  0.000000      1.000000
  0.200000  0.000000  0.000000      6.000000
  0.400000  0.000000  0.000000      6.000000
  0.400000  0.200000  0.000000      6.000000
 -0.400000  0.200000  0.000000      6.000000

 Following cartesian coordinates:
            Coordinates               Weight
  0.000000  0.000000  0.000000      1.000000
  0.028953 -0.016716  0.000000      6.000000
  0.057906 -0.033432  0.000000      6.000000
  0.057906  0.000000  0.000000      6.000000
 -0.057906  0.066864  0.000000      6.000000

 TETIRR: Found     15 inequivalent tetrahedra from      150

 SYSTEM =  unknown system
 POSCAR =  Cr2 P2 S6

 Startparameter for this run:
   NWRITE =      2    write-flag & timer
   PREC   = accura    normal or accurate (medium, high low for compatibility)
   ISTART =      0    job   : 0-new  1-cont  2-samecut
   ICHARG =      2    charge: 1-file 2-atom 10-const
   ISPIN  =      2    spin polarized calculation?
   LNONCOLLINEAR =      F non collinear calculations
   LSORBIT =      F    spin-orbit coupling
   INIWAV =      1    electr: 0-lowe 1-rand  2-diag
   LASPH  =      F    aspherical Exc in radial PAW
   METAGGA=      F    non-selfconsistent MetaGGA calc.

 Electronic Relaxation 1
   ENCUT  =  520.0 eV  38.22 Ry    6.18 a.u.  12.84 12.84 43.59*2*pi/ulx,y,z
   ENINI  =  520.0     initial cutoff
   ENAUG  =  402.1 eV  augmentation charge cutoff
   NELM   =    400;   NELMIN=  2; NELMDL=  0     # of ELM steps
   EDIFF  = 0.1E-03   stopping-criterion for ELM
   LREAL  =      T    real-space projection
   NLSPLINE    = F    spline interpolate recip. space projectors
   LCOMPAT=      F    compatible to vasp.4.4
   GGA_COMPAT  = T    GGA compatible to vasp.4.4-vasp.4.6
   LMAXPAW     = -100 max onsite density
   LMAXMIX     =    2 max onsite mixed and CHGCAR
   VOSKOWN=      0    Vosko Wilk Nusair interpolation
   ROPT   =   -0.00025  -0.00025  -0.00025
 Ionic relaxation
   EDIFFG = 0.1E-02   stopping-criterion for IOM
   NSW    =     99    number of steps for IOM
   NBLOCK =      1;   KBLOCK =     99    inner block; outer block
   IBRION =      2    ionic relax: 0-MD 1-quasi-New 2-CG
   NFREE  =      1    steps in history (QN), initial steepest desc. (CG)
   ISIF   =      3    stress and relaxation
   IWAVPR =     11    prediction:  0-non 1-charg 2-wave 3-comb
   ISYM   =      2    0-nonsym 1-usesym 2-fastsym
   LCORR  =      T    Harris-Foulkes like correction to forces

   POTIM  = 0.5000    time-step for ionic-motion
   TEIN   =    0.0    initial temperature
   TEBEG  =    0.0;   TEEND  =   0.0 temperature during run
   SMASS  =  -3.00    Nose mass-parameter (am)
   estimated Nose-frequenzy (Omega)   =  0.10E-29 period in steps =****** mass=  -0.109E-26a.u.
   SCALEE = 1.0000    scale energy and forces
   NPACO  =    256;   APACO  = 16.0  distance and # of slots for P.C.
   PSTRESS=    0.0 pullay stress

  Mass of Ions in am
   POMASS =  52.00 30.97 32.07
  Ionic Valenz
   ZVAL   =   6.00  5.00  6.00
  Atomic Wigner-Seitz radii
  virtual crystal weights
   VCA    =   1.00  1.00  1.00
   NELECT =      58.0000    total number of electrons
   NUPDOWN=      -1.0000    fix difference up-down

 DOS related values:
   EMIN   =  10.00;   EMAX   =-10.00  energy-range for DOS
   EFERMI =   0.00
   ISMEAR =    -5;   SIGMA  =   0.05  broadening in eV -4-tet -1-fermi 0-gaus

 Electronic relaxation 2 (details)
   IALGO  =     38    algorithm
   LDIAG  =      T    sub-space diagonalisation (order eigenvalues)
   LSUBROT=      F    optimize rotation matrix (better conditioning)
   TURBO    =      0    0=normal 1=particle mesh
   IRESTART =      0    0=no restart 2=restart with 2 vectors
   NREBOOT  =      0    no. of reboots
   NMIN     =      0    reboot dimension
   EREF     =   0.00    reference energy to select bands
   IMIX   =      4    mixing-type and parameters
     AMIX     =   0.40;   BMIX     =  1.00
     AMIX_MAG =   1.60;   BMIX_MAG =  1.00
     AMIN     =   0.01
     WC   =   100.;   INIMIX=   1;  MIXPRE=   1;  MAXMIX= -45

 Intra band minimization:
   WEIMIN = 0.0010     energy-eigenvalue tresh-hold
   EBREAK =  0.52E-06  absolut break condition
   DEPER  =   0.30     relativ break condition

   TIME   =   0.40     timestep for ELM

  volume/ion in A,a.u.               =      96.88       653.80
[...]
     3.453888000  5.982310000  0.000000000     0.000000000  0.167159509 -0.000000000
     0.000000000  0.000000000 23.444588000    -0.000000000  0.000000000  0.042653767

[...]

 FORCES acting on ions
    electron-ion (+dipol)            ewald-force                    non-local-force                 convergence-correction
   -.679E-04 -.491E-04 0.668E+00   0.323E-03 0.191E-03 -.652E+00   0.260E-17 0.173E-17 -.641E-02   0.709E-05 0.408E-05 0.366E-04
   0.679E-04 0.491E-04 -.668E+00   -.323E-03 -.191E-03 0.652E+00   0.173E-17 0.173E-17 0.641E-02   -.709E-05 -.408E-05 -.366E-04
   -.259E-04 -.237E-04 0.210E+03   -.176E-03 -.973E-04 -.213E+03   0.113E-16 0.347E-17 0.233E+01   -.332E-05 -.184E-05 0.105E-01
   0.259E-04 0.237E-04 -.210E+03   0.176E-03 0.973E-04 0.213E+03   -.867E-17 -.347E-17 -.233E+01   0.332E-05 0.184E-05 -.105E-01
   0.276E+01 0.147E+00 -.352E+03   -.488E+01 -.141E+00 0.355E+03   0.281E+01 -.107E-01 -.556E+01   -.330E-02 0.147E-03 -.564E-01
   -.125E+01 -.247E+01 -.352E+03   0.232E+01 0.430E+01 0.355E+03   -.141E+01 -.243E+01 -.556E+01   0.176E-02 0.277E-02 -.564E-01
   -.151E+01 0.232E+01 -.352E+03   0.256E+01 -.416E+01 0.355E+03   -.139E+01 0.244E+01 -.556E+01   0.152E-02 -.293E-02 -.565E-01
   -.276E+01 -.147E+00 0.352E+03   0.488E+01 0.141E+00 -.355E+03   -.281E+01 0.107E-01 0.556E+01   0.330E-02 -.147E-03 0.564E-01
   0.125E+01 0.247E+01 0.352E+03   -.232E+01 -.430E+01 -.355E+03   0.141E+01 0.243E+01 0.556E+01   -.176E-02 -.277E-02 0.564E-01
   0.151E+01 -.232E+01 0.352E+03   -.256E+01 0.416E+01 -.355E+03   0.139E+01 -.244E+01 0.556E+01   -.152E-02 0.293E-02 0.565E-01
   -.942E-10 -.167E-09 -.635E-10   0.888E-14 0.533E-14 0.568E-13   0.888E-15 -.444E-15 0.178E-14   0.108E-13 -.244E-13 -.208E-11

 POSITION                                       TOTAL-FORCE (eV/Angst)
      3.45388      1.99410     11.72054         0.000000      0.000000      0.010168
      6.90778      3.98821     11.72405         0.000000      0.000000     -0.010168
      0.00000      0.00000     10.50824         0.000000      0.000000      0.263132
      0.00000      0.00000     12.93635         0.000000     -0.000000     -0.263132
      4.32819      0.00251     13.45138         0.681976     -0.004033     -1.847126
      1.29198      2.23274     13.45138        -0.344481     -0.588592     -1.847126
      4.74152      3.74706     13.45138        -0.337495      0.592626     -1.847126
      6.03348      5.97980      9.99321        -0.681976      0.004033      1.847126
      9.06969      3.74957      9.99321         0.344481      0.588592      1.847126
      5.62015      2.23525      9.99321         0.337495     -0.592626      1.847126
    total drift:                               -0.000000     -0.000000     -0.000000

  FREE ENERGIE OF THE ION-ELECTRON SYSTEM (eV)
  free  energy   TOTEN  =       -47.78120518 eV

  energy  without entropy=      -47.78120518  energy(sigma->0) =      -47.78120518

[...]

 d Force = 0.6082333E+00[ 0.201E+00, 0.102E+01]  d Energy = 0.6582433E+01-0.597E+01
 d Force =-0.2065855E+03[-0.236E+03,-0.177E+03]  d Ewald  =-0.1593121E+04 0.139E+04

 Steepest descent step on ions:
 trial-energy change:   -6.582433  1 .order   -5.365531   -9.960942   -0.770121
  (g-gl).g = 0.996E+01      g.g   = 0.996E+01  gl.gl    = 0.000E+00
 g(Force)  = 0.113E+01   g(Stress)= 0.883E+01 ortho     = 0.000E+00
 gamma     =   0.00000
 trial     =   1.00000
 opt step  =   1.04577  (harmonic =   1.08379) maximal distance =0.09318870
 next E    =   -54.381379   (d E  =  -6.60017)

[...]

 d Force = 0.8379962E-02[ 0.647E-02, 0.103E-01]  d Energy = 0.1052600E-01-0.215E-02
 d Force =-0.1197977E+02[-0.121E+02,-0.119E+02]  d Ewald  =-0.8887060E+02 0.769E+02

[...]

 d Force = 0.1387797E+00[ 0.353E-02, 0.274E+00]  d Energy = 0.1290031E+00 0.978E-02
 d Force = 0.1108249E+02[ 0.114E+02, 0.107E+02]  d Ewald  =-0.1250960E+03 0.136E+03

 Conjugate gradient step on ions:
 trial-energy change:   -0.129003  1 .order   -0.138429   -0.281897    0.005039
  (g-gl).g = 0.238E+00      g.g   = 0.278E+00  gl.gl    = 0.996E+01
 g(Force)  = 0.267E+00   g(Stress)= 0.110E-01 ortho     = 0.403E-01
 gamma     =   0.02390
 trial     =   1.00915
 opt step  =   0.98720  (harmonic =   0.99143) maximal distance =0.06738469
 next E    =   -54.503222   (d E  =  -0.12906)

[...]

 d Force =-0.1517415E-03[-0.217E-03,-0.860E-04]  d Energy =-0.6844035E-04-0.833E-04
 d Force =-0.2472089E+00[-0.247E+00,-0.247E+00]  d Ewald  = 0.2733560E+01-0.298E+01

[...]

 d Force = 0.4042846E-01[ 0.350E-01, 0.458E-01]  d Energy = 0.5304550E-01-0.126E-01
 d Force =-0.7284344E+01[-0.744E+01,-0.713E+01]  d Ewald  = 0.7825989E+02-0.855E+02

[...]

 d Force = 0.8341752E-02[-0.759E-02, 0.243E-01]  d Energy = 0.1831797E-01-0.998E-02
 d Force =-0.7743956E+01[-0.788E+01,-0.761E+01]  d Ewald  =-0.1147010E+03 0.107E+03

 Conjugate gradient step on ions:
 trial-energy change:   -0.018318  1 .order   -0.012943   -0.045124    0.019237
  (g-gl).g = 0.272E-01      g.g   = 0.316E-01  gl.gl    = 0.514E-01
 g(Force)  = 0.130E-01   g(Stress)= 0.186E-01 ortho     =-0.150E-02
 gamma     =   0.52889
 trial     =   1.46480
 opt step  =   1.15063  (harmonic =   1.02698) maximal distance =0.02007681
 next E    =   -54.622348   (d E  =  -0.02033)

[...]

 d Force = 0.8772884E-03[ 0.113E-03, 0.164E-02]  d Energy =-0.1619216E-02 0.250E-02
 d Force = 0.1692852E+01[ 0.169E+01, 0.170E+01]  d Ewald  = 0.2482364E+02-0.231E+02

[...]

 d Force = 0.7425019E-02[ 0.503E-02, 0.982E-02]  d Energy = 0.2271203E-01-0.153E-01
 d Force = 0.2589445E+02[ 0.261E+02, 0.257E+02]  d Ewald  =-0.1116589E+03 0.138E+03

 Conjugate gradient step on ions:
 trial-energy change:   -0.022712  1 .order   -0.016432   -0.018366   -0.014498
  (g-gl).g = 0.141E-01      g.g   = 0.147E-01  gl.gl    = 0.316E-01
 g(Force)  = 0.710E-02   g(Stress)= 0.761E-02 ortho     =-0.362E-02
 gamma     =   0.44618
 trial     =   1.40197
 opt step  =   5.60788  (harmonic =   6.65666) maximal distance =0.04736705
 next E    =   -54.662320   (d E  =  -0.04360)

[...]

 d Force =-0.2501244E-01[-0.653E-01, 0.153E-01]  d Energy =-0.1427008E-01-0.107E-01
 d Force = 0.8097266E+02[ 0.826E+02, 0.794E+02]  d Ewald  =-0.3376263E+03 0.419E+03

[...]

 d Force = 0.1566466E-02[-0.605E-02, 0.919E-02]  d Energy = 0.3718603E-02-0.215E-02
 d Force = 0.2055333E+02[ 0.205E+02, 0.206E+02]  d Ewald  =-0.5856644E+02 0.791E+02

 Conjugate gradient step on ions:
 trial-energy change:   -0.003719  1 .order   -0.001159   -0.011567    0.009249
  (g-gl).g = 0.459E-02      g.g   = 0.640E-02  gl.gl    = 0.147E-01
 g(Force)  = 0.554E-02   g(Stress)= 0.864E-03 ortho     = 0.119E-02
 gamma     =   0.31204
 trial     =   1.70788
 opt step  =   1.20945  (harmonic =   0.94903) maximal distance =0.00787311
 next E    =   -54.649445   (d E  =  -0.00500)

[...]

 d Force = 0.1106973E-02[ 0.461E-03, 0.175E-02]  d Energy = 0.1226074E-02-0.119E-03
 d Force =-0.5935731E+01[-0.594E+01,-0.593E+01]  d Ewald  = 0.1712218E+02-0.231E+02

[...]

 d Force = 0.9195835E-04[-0.252E-02, 0.270E-02]  d Energy =-0.7047345E-03 0.797E-03
 d Force =-0.8132013E+01[-0.812E+01,-0.815E+01]  d Ewald  = 0.5527551E+02-0.634E+02

 Steepest descent step on ions:
 trial-energy change:    0.000705  1 .order   -0.000490   -0.004348    0.003367
  (g-gl).g = 0.494E-02      g.g   = 0.270E-02  gl.gl    = 0.640E-02
 g(Force)  = 0.169E-02   g(Stress)= 0.102E-02 ortho     =-0.237E-02
 gamma     =   0.00000
 trial     =   1.60820
 opt step  =   0.56555  (harmonic =   0.90628) maximal distance =0.00333985
 next E    =   -54.650098   (d E  =  -0.00071)

[...]

 eigenvalue-minimisations  :  1152
 total energy-change (2. order) : 0.1356990E-03  (-0.4441316E-04)
 number of electron      58.0000003 magnetization       6.4036861
 augmentation part       -0.7383400 magnetization       4.1159949

 Broyden mixing:
  rms(total) = 0.26078E-02    rms(broyden)= 0.26078E-02
  rms(prec ) = 0.29052E-02
  weight for this iteration     100.00

 eigenvalues of (default mixing * dielectric matrix)
  average eigenvalue GAMMA=   1.1558
  2.2293  0.8052  0.4328

[...]

--------------------------------------- Iteration     16(   5)  ---------------------------------------

[...]

 eigenvalue-minimisations  :   880
 total energy-change (2. order) :-0.3067560E-04  (-0.9867397E-05)
 number of electron      58.0000003 magnetization       6.4036861
 augmentation part       -0.7383400 magnetization       4.1159949

 Free energy of the ion-electron system (eV)
  alpha Z        PSCENC =        29.09558288
  Ewald energy   TEWEN  =      8358.30245924
  -Hartree energ DENC   =    -10657.23603515
  -exchange      EXHF   =         0.00000000
  -V(xc)+E(xc)   XCENC  =        44.18703613
  PAW double counting   =      1258.32871739    -1179.75906758
  entropy T*S    EENTRO =         0.00000000
  eigenvalues    EBANDS =      -484.04256713
  atomic energy  EATOM  =      2576.47363623
  Solvation  Ediel_sol  =         0.00000000
  free energy    TOTEN  =       -54.65023799 eV

  energy without entropy =      -54.65023799  energy(sigma->0) =      -54.65023799

 average (electrostatic) potential at core
  the test charge radii are     1.1394  0.9587  0.9698
  (the norm of the test charge is              1.0000)
       1 -50.7360       2 -50.7360       3 -93.0647       4 -93.0647       5 -94.3047
       6 -94.3047       7 -94.3047       8 -94.3047       9 -94.3047      10 -94.3047

 E-fermi :  -1.5820     XC(G=0):  -3.4271     alpha+bet : -3.1260

[...]

 spin component 2

[...]

 k-point     5 :      -0.4000    0.2000    0.0000
  band No.  band energies     occupation
      1     -18.3489      1.00000
      2     -17.0827      1.00000
      3     -16.3166      1.00000
      4     -16.0276      1.00000
      5     -15.7521      1.00000
      6     -15.6620      1.00000
      7     -12.4745      1.00000
      8     -11.1066      1.00000
      9      -8.7260      1.00000
     10      -8.4374      1.00000
     11      -8.3712      1.00000
     12      -7.9952      1.00000
     13      -7.5683      1.00000
     14      -6.6084      1.00000
     15      -6.1379      1.00000
     16      -6.0242      1.00000
     17      -5.8232      1.00000
     18      -5.7913      1.00000
     19      -5.7855      1.00000
     20      -5.4410      1.00000
     21      -4.9206      1.00000
     22      -4.7131      1.00000
     23      -4.4601      1.00000
     24      -4.3289      1.00000
     25      -4.3084      1.00000
     26      -2.4705      1.00000
     27      -1.5120      0.00000
     28      -1.1746      0.00000
     29      -1.1295      0.00000
     30      -0.4654      0.00000
     31      -0.2775      0.00000
     32      -0.2427      0.00000
     33      -0.2234      0.00000
     34      -0.0470      0.00000
     35       0.2768      0.00000
     36       0.5566      0.00000
     37       0.7350      0.00000
     38       0.9699      0.00000
     39       1.1312      0.00000
     40       1.5347      0.00000
     41       1.8136      0.00000
     42       1.9916      0.00000
     43       3.0998      0.00000
     44       3.4512      0.00000
     45       3.4545      0.00000
     46       3.5287      0.00000
     47       3.6082      0.00000
     48       3.9544      0.00000

[...]

 soft charge-density along one line, spin component           2
         0         1         2         3         4         5         6         7         8         9
 total charge-density along one line

------------------------ aborting loop because EDIFF is reached ----------------------------------------

[...]

  FORCE on cell =-STRESS in cart. coord.  units (eV):
  Direction    XX          YY          ZZ          XY          YZ          ZX
  Alpha Z    29.09558    29.09558    29.09558
  Ewald   10143.45745 10143.45394-11928.61140    -0.00104    -0.00051    -0.00091
  Hartree 10482.99104 10482.99128-10308.66946     0.00005     0.00004     0.00006
  E(xc)    -219.11482  -219.11482  -219.05779     0.00001     0.00000     0.00001
  Local  -21569.37510-21569.37355 21243.74251     0.00051     0.00026     0.00047
  n-local   524.00409   526.70323   531.33129     1.44138     0.76273     0.73957
  augment   -64.30291   -64.30286   -69.01252     0.00002     0.00002     0.00002
  Kinetic   676.34739   667.32266   721.03880    -5.26142    -1.84125    -2.00916
  Fock        0.00000     0.00000     0.00000     0.00000     0.00000     0.00000
  Total      -0.06090    -0.06090    -0.14299    -0.00000     0.00000     0.00000
  in kB      -0.14889    -0.14889    -0.34957    -0.00000     0.00000     0.00000

 VOLUME and BASIS-vectors are now :
  energy-cutoff  :      520.00
  volume of cell :      655.34
      direct lattice vectors                 reciprocal lattice vectors
     5.949944796  0.000000102  0.000000000     0.168068788 -0.097034551 -0.000000000
     2.974972018  5.152803182  0.000000000    -0.000000003  0.194069126 -0.000000000
     0.000000000  0.000000000 21.375190047    -0.000000000 -0.000000000  0.046783210

  length of vectors
     5.949944796  5.949944465 21.375190047     0.194069115  0.194069126  0.046783210

 FORCES acting on ions
    electron-ion (+dipol)            ewald-force                    non-local-force                 convergence-correction
   -.182E-03 -.104E-03 0.467E+00   0.450E-03 0.260E-03 -.469E+00   0.436E-18 0.373E-20 0.104E-01   -.551E-08 -.842E-08 -.778E-04
   0.182E-03 0.104E-03 -.467E+00   -.450E-03 -.260E-03 0.469E+00   -.870E-18 -.871E-18 -.104E-01   0.551E-08 0.842E-08 0.778E-04
   -.461E-04 -.291E-04 0.289E+03   -.284E-03 -.159E-03 -.289E+03   -.989E-18 0.427E-18 -.319E+00   0.587E-07 0.294E-07 -.140E-01
   0.461E-04 0.291E-04 -.289E+03   0.284E-03 0.159E-03 0.289E+03   -.908E-18 -.390E-17 0.319E+00   -.587E-07 -.294E-07 0.140E-01
   0.276E+02 -.600E-01 -.478E+03   -.309E+02 0.641E-01 0.481E+03   0.335E+01 -.460E-02 -.329E+01   -.655E-02 -.655E-04 0.822E-02
   -.139E+02 -.239E+02 -.478E+03   0.155E+02 0.267E+02 0.481E+03   -.168E+01 -.290E+01 -.329E+01   0.322E-02 0.571E-02 0.822E-02
   -.138E+02 0.239E+02 -.478E+03   0.154E+02 -.268E+02 0.481E+03   -.167E+01 0.290E+01 -.329E+01   0.333E-02 -.564E-02 0.822E-02
   -.276E+02 0.600E-01 0.478E+03   0.309E+02 -.641E-01 -.481E+03   -.335E+01 0.460E-02 0.329E+01   0.655E-02 0.655E-04 -.822E-02
   0.139E+02 0.239E+02 0.478E+03   -.155E+02 -.267E+02 -.481E+03   0.168E+01 0.290E+01 0.329E+01   -.322E-02 -.571E-02 -.822E-02
   0.138E+02 -.239E+02 0.478E+03   -.154E+02 0.268E+02 -.481E+03   0.167E+01 -.290E+01 0.329E+01   -.333E-02 0.564E-02 -.822E-02
   0.767E-11 0.290E-09 -.613E-10   0.124E-13 -.711E-14 0.114E-12   -.222E-15 0.000E+00 0.888E-15   0.164E-12 0.115E-13 0.664E-10

 POSITION                                       TOTAL-FORCE (eV/Angst)
      2.97497      1.71760     10.68599        -0.000000      0.000000      0.008692
      5.94995      3.43520     10.68920        -0.000000     -0.000000     -0.008692
      0.00000      0.00000      9.57294        -0.000000      0.000000      0.025650
      0.00000      0.00000     11.80225        -0.000000     -0.000000     -0.025650
      3.88488      0.00059     12.19619         0.033715      0.000369     -0.013154
      1.03304      1.78811     12.19619        -0.016538     -0.029383     -0.013154
      4.00700      3.36411     12.19619        -0.017177      0.029014     -0.013154
      5.04004      5.15222      9.17900        -0.033715     -0.000369      0.013154
      7.89187      3.36469      9.17900         0.016538      0.029383      0.013154
      4.91791      1.78869      9.17900         0.017177     -0.029014      0.013154
    total drift:                                0.000000      0.000000      0.000000

  FREE ENERGIE OF THE ION-ELECTRON SYSTEM (eV)
  free  energy   TOTEN  =       -54.65023799 eV

  energy  without entropy=      -54.65023799  energy(sigma->0) =      -54.65023799

 d Force = 0.5067264E-03[-0.630E-03, 0.164E-02]  d Energy = 0.1557742E-02-0.105E-02
 d Force = 0.5293310E+01[ 0.530E+01, 0.529E+01]  d Ewald  =-0.3579837E+02 0.411E+02

 reached required accuracy - stopping structural energy minimisation

 total charge

[...]

 magnetization (x)

# of ion       s       p       d       tot
    1        0.030   0.034   2.953   3.017
    2        0.030   0.034   2.953   3.017
    3       -0.001   0.042   0.000   0.041
    4       -0.001   0.042   0.000   0.041
    5        0.007  -0.040   0.000  -0.033
    6        0.004  -0.037   0.000  -0.033
    7        0.005  -0.037   0.000  -0.032
    8        0.007  -0.040   0.000  -0.033
    9        0.004  -0.037   0.000  -0.033
   10        0.005  -0.037   0.000  -0.032
tot          0.088  -0.074   5.906   5.920

 BZINTS: Fermi energy: -1.582026; 58.000000 electrons
         Band energy:-484.042567;  BLOECHL correction: -0.042750