 vasp.5.4.4.18Apr17-6-g9f103f2a35 (build May  1 2020 15:48:39) complex
 executed on             LinuxGNU date 2020.07.09  20:57:41

 INCAR:
 POTCAR:   PAW_PBE Mn 06Sep2000
 POTCAR:   PAW_PBE Ge 05Jan2001
 POTCAR:    PAW_PBE P 17Jan2003
 POTCAR:    PAW_PBE S 17Jan2003

 POTCAR:   PAW_PBE Mn 06Sep2000
   VRHFIN =Mn: d6 s1

   TITEL  = PAW_PBE Mn 06Sep2000
   POMASS =   54.938; ZVAL   =    7.000    mass and valenz
   ENMAX  =  269.865; ENMIN  =  202.399 eV
   QCUT   =   -4.454; QGAM   =    8.907    optimization parameters

   Description
     l     E      TYP  RCUT    TYP  RCUT
     2   .000     23  2.300
     2   .000     23  2.300
     0   .000     23  2.300
     0   .000     23  2.300
     1  -.200     23  2.300
     1  1.500     23  2.300
     3   .000      7   .000

 POTCAR:   PAW_PBE Ge 05Jan2001
   VRHFIN =Ge: s2p2

   TITEL  = PAW_PBE Ge 05Jan2001
   POMASS =   72.610; ZVAL   =    4.000    mass and valenz
   ENMAX  =  173.807; ENMIN  =  130.355 eV
   QCUT   =   -3.574; QGAM   =    7.148    optimization parameters

[...]

 POTCAR:    PAW_PBE P 17Jan2003
   VRHFIN =P : s2p3

[...]

 POTCAR:    PAW_PBE S 17Jan2003
   VRHFIN =S : s2p4

   TITEL  = PAW_PBE S 17Jan2003
   POMASS =   32.066; ZVAL   =    6.000    mass and valenz
   ENMAX  =  280.000; ENMIN  =  194.016 eV
   QCUT   =   -4.360; QGAM   =    8.721    optimization parameters

   Description
     l     E      TYP  RCUT    TYP  RCUT
     0   .000     23  1.900
     0   .000     23  1.900
     1   .000     23  1.900
     1   .000     23  1.900
     2   .000     23  1.900

 Optimization of the real space projectors (new method)

 maximal supplied QI-value         = 16.25
 optimisation between [QCUT,QGAM] = [ 11.54, 23.24] = [ 37.28,151.24] Ry
 Optimized for a Real-space Cutoff    1.53 Angstroem

   l    n(q)    QCUT    max X(q) W(low)/X(q) W(high)/X(q)  e(spline)
   2     10    11.539     4.144    0.87E-05    0.14E-04    0.48E-07
   2     10    11.539    35.116    0.12E-03    0.13E-03    0.25E-06
   0     11    11.539    20.431    0.20E-04    0.18E-05    0.19E-07
   0     11    11.539    61.159    0.37E-04    0.19E-04    0.29E-06
   1     10    11.539     6.695    0.11E-04    0.24E-05    0.29E-07
   1     10    11.539     8.642    0.41E-04    0.18E-04    0.11E-06
 Optimization of the real space projectors (new method)

[...]

   l    n(q)    QCUT    max X(q) W(low)/X(q) W(high)/X(q)  e(spline)
   0      8    11.508     6.651    0.19E-04    0.31E-05    0.49E-08
   0      8    11.508    90.285    0.95E-04    0.17E-03    0.51E-07
   1      8    11.508     4.328    0.14E-04    0.32E-04    0.22E-07
   1      8    11.508    54.583    0.16E-03    0.71E-04    0.89E-07
 Optimization of the real space projectors (new method)

 maximal supplied QI-value         = 19.84
 optimisation between [QCUT,QGAM] = [ 11.51, 23.22] = [ 37.09,150.92] Ry
 Optimized for a Real-space Cutoff    1.21 Angstroem

   l    n(q)    QCUT    max X(q) W(low)/X(q) W(high)/X(q)  e(spline)
   0      8    11.508     5.487    0.18E-04    0.22E-05    0.47E-08
   0      8    11.508    85.627    0.96E-04    0.18E-03    0.54E-07
   1      8    11.508     3.530    0.17E-04    0.28E-04    0.21E-07
   1      8    11.508    42.714    0.18E-03    0.63E-04    0.92E-07

 PAW_PBE Mn 06Sep2000                   :
 PAW_PBE Ge 05Jan2001                   :
  PAW_PBE P 17Jan2003                   :
  PAW_PBE S 17Jan2003                   :

 POSCAR: Mn2 Ge P S6
  positions in direct lattice
  velocities in cartesian coordinates
 exchange correlation table for  LEXCH =       42
   RHO(1)=    0.500       N(1)  =     2000
   RHO(2)=  100.500       N(2)  =     4000

 ion  position               nearest neighbor table
   1  0.333  0.333  0.500-   6 2.78   5 2.78   7 2.78   8 2.78  10 2.78   9 2.78
   2  0.667  0.667  0.500-   9 2.78   8 2.78  10 2.78   5 2.78   7 2.78   6 2.78
   3  0.000  0.000  0.448-   4 2.43   8 2.63  10 2.63   9 2.63
   4  0.000  0.000  0.552-   3 2.43   5 2.63   7 2.63   6 2.63
   5  0.626  0.000  0.574-   4 2.63   1 2.78   2 2.78
   6  0.000  0.373  0.574-   4 2.63   1 2.78   2 2.78
   7  0.373  0.626  0.574-   4 2.63   1 2.78   2 2.78
   8  0.374  1.000  0.426-   3 2.63   2 2.78   1 2.78
   9  1.000  0.627  0.426-   3 2.63   2 2.78   1 2.78
  10  0.627  0.374  0.426-   3 2.63   2 2.78   1 2.78

  LATTYP: Found a hexagonal cell.
 ALAT       =     6.9077769333
 C/A-ratio  =     3.3939410937

  Lattice vectors:

 A1 = (   3.4538890000,  -5.9823100000,   0.0000000000)
 A2 = (  -6.9077770000,   0.0000000000,   0.0000000000)
 A3 = (   0.0000000000,   0.0000000000, -23.4445880000)

Analysis of symmetry for initial positions (statically):
 Subroutine PRICEL returns:
 Original cell was already a primitive cell.

 Routine SETGRP: Setting up the symmetry group for a
 hexagonal supercell.

 Subroutine GETGRP returns: Found  3 space group operations
 (whereof  3 operations were pure point group operations)
 out of a pool of 24 trial point group operations.

The static configuration has the point symmetry C_3 .

Analysis of symmetry for dynamics (positions and initial velocities):
 Subroutine PRICEL returns:
 Original cell was already a primitive cell.

[...]

The dynamic configuration has the point symmetry C_3 .

Analysis of constrained symmetry for selective dynamics:
 Subroutine PRICEL returns:
 Original cell was already a primitive cell.

[...]

The constrained configuration has the point symmetry C_3 .

Analysis of structural, dynamic, and magnetic symmetry:
 Subroutine PRICEL returns:
 Original cell was already a primitive cell.

 Routine SETGRP: Setting up the symmetry group for a
 hexagonal supercell.

 Subroutine GETGRP returns: Found  3 space group operations
 (whereof  3 operations were pure point group operations)
 out of a pool of 24 trial point group operations.

The magnetic configuration has the point symmetry C_3 .

 Subroutine INISYM returns: Found  3 space group operations
 (whereof  3 operations are pure point group operations),
 and found     1 'primitive' translations

 KPOINTS: Kpoints from vasprun.xml

Automatic generation of k-mesh.
Space group operators:
 irot       det(A)        alpha          n_x          n_y          n_z        tau_x        tau_y        tau_z
    1     1.000000     0.000000     1.000000     0.000000     0.000000     0.000000     0.000000     0.000000
    2     1.000000   120.000000     0.000000     0.000000     1.000000     0.000000     0.000000     0.000000
    3     1.000000   120.000000     0.000000     0.000000    -1.000000     0.000000     0.000000     0.000000

 Subroutine IBZKPT returns following result:

 Found      5 irreducible k-points:

 Following reciprocal coordinates:
            Coordinates               Weight
  0.000000  0.000000  0.000000      1.000000
  0.200000  0.000000  0.000000      6.000000
  0.400000  0.000000  0.000000      6.000000
  0.400000  0.200000  0.000000      6.000000
 -0.400000  0.200000  0.000000      6.000000

 Following cartesian coordinates:
            Coordinates               Weight
  0.000000  0.000000  0.000000      1.000000
  0.028953 -0.016716  0.000000      6.000000
  0.057906 -0.033432  0.000000      6.000000
  0.057906  0.000000  0.000000      6.000000
 -0.057906  0.066864  0.000000      6.000000

 TETIRR: Found     15 inequivalent tetrahedra from      150

 SYSTEM =  unknown system
 POSCAR =  Mn2 Ge P S6

 Startparameter for this run:
   NWRITE =      2    write-flag & timer
   PREC   = accura    normal or accurate (medium, high low for compatibility)
   ISTART =      0    job   : 0-new  1-cont  2-samecut
   ICHARG =      2    charge: 1-file 2-atom 10-const
   ISPIN  =      2    spin polarized calculation?
   LNONCOLLINEAR =      F non collinear calculations
   LSORBIT =      F    spin-orbit coupling
   INIWAV =      1    electr: 0-lowe 1-rand  2-diag
   LASPH  =      F    aspherical Exc in radial PAW
   METAGGA=      F    non-selfconsistent MetaGGA calc.

 Electronic Relaxation 1
   ENCUT  =  520.0 eV  38.22 Ry    6.18 a.u.  12.84 12.84 43.59*2*pi/ulx,y,z
   ENINI  =  520.0     initial cutoff
   ENAUG  =  500.7 eV  augmentation charge cutoff
   NELM   =    400;   NELMIN=  2; NELMDL=  0     # of ELM steps
   EDIFF  = 0.1E-03   stopping-criterion for ELM
   LREAL  =      T    real-space projection
   NLSPLINE    = F    spline interpolate recip. space projectors
   LCOMPAT=      F    compatible to vasp.4.4
   GGA_COMPAT  = T    GGA compatible to vasp.4.4-vasp.4.6
   LMAXPAW     = -100 max onsite density
   LMAXMIX     =    2 max onsite mixed and CHGCAR
   VOSKOWN=      0    Vosko Wilk Nusair interpolation
   ROPT   =   -0.00025  -0.00025  -0.00025  -0.00025
 Ionic relaxation
   EDIFFG = 0.1E-02   stopping-criterion for IOM
   NSW    =     99    number of steps for IOM
   NBLOCK =      1;   KBLOCK =     99    inner block; outer block
   IBRION =      2    ionic relax: 0-MD 1-quasi-New 2-CG
   NFREE  =      1    steps in history (QN), initial steepest desc. (CG)
   ISIF   =      3    stress and relaxation
   IWAVPR =     11    prediction:  0-non 1-charg 2-wave 3-comb
   ISYM   =      2    0-nonsym 1-usesym 2-fastsym
   LCORR  =      T    Harris-Foulkes like correction to forces

   POTIM  = 0.5000    time-step for ionic-motion
   TEIN   =    0.0    initial temperature
   TEBEG  =    0.0;   TEEND  =   0.0 temperature during run
   SMASS  =  -3.00    Nose mass-parameter (am)
   estimated Nose-frequenzy (Omega)   =  0.10E-29 period in steps =****** mass=  -0.109E-26a.u.
   SCALEE = 1.0000    scale energy and forces
   NPACO  =    256;   APACO  = 16.0  distance and # of slots for P.C.
   PSTRESS=    0.0 pullay stress

  Mass of Ions in am
   POMASS =  54.94 72.61 30.97 32.07
  Ionic Valenz
   ZVAL   =   7.00  4.00  5.00  6.00
  Atomic Wigner-Seitz radii
  virtual crystal weights
   VCA    =   1.00  1.00  1.00  1.00
   NELECT =      59.0000    total number of electrons
   NUPDOWN=      -1.0000    fix difference up-down

 DOS related values:
   EMIN   =  10.00;   EMAX   =-10.00  energy-range for DOS
   EFERMI =   0.00
   ISMEAR =    -5;   SIGMA  =   0.05  broadening in eV -4-tet -1-fermi 0-gaus

 Electronic relaxation 2 (details)
   IALGO  =     38    algorithm
   LDIAG  =      T    sub-space diagonalisation (order eigenvalues)
   LSUBROT=      F    optimize rotation matrix (better conditioning)
   TURBO    =      0    0=normal 1=particle mesh
   IRESTART =      0    0=no restart 2=restart with 2 vectors
   NREBOOT  =      0    no. of reboots
   NMIN     =      0    reboot dimension
   EREF     =   0.00    reference energy to select bands
   IMIX   =      4    mixing-type and parameters
     AMIX     =   0.40;   BMIX     =  1.00
     AMIX_MAG =   1.60;   BMIX_MAG =  1.00
     AMIN     =   0.01
     WC   =   100.;   INIMIX=   1;  MIXPRE=   1;  MAXMIX= -45

 Intra band minimization:
   WEIMIN = 0.0010     energy-eigenvalue tresh-hold
   EBREAK =  0.52E-06  absolut break condition
   DEPER  =   0.30     relativ break condition

   TIME   =   0.40     timestep for ELM

  volume/ion in A,a.u.               =      96.88       653.80
  Fermi-wavevector in a.u.,A,eV,Ry     =   0.644084  1.217141  5.644291  0.414844
  Thomas-Fermi vector in A             =   1.711295

 Write flags
[...]
  Hartree  8865.80629  8865.80673 -8537.91746    -0.00012     0.00005     0.00007
  E(xc)    -222.58465  -222.58472  -222.19718     0.00008     0.00000     0.00001
  Local  -18075.55414-18075.55333 17539.75357     0.00114     0.00025     0.00048
  n-local   451.26610   452.81372   465.98068     0.80656    -0.20849    -0.17255
  augment   -50.67282   -50.67261   -55.09285    -0.00014     0.00002     0.00001
  Kinetic   654.50698   651.52529   695.53373    -1.98823    -1.13730    -0.69962
  Fock        0.00000     0.00000     0.00000     0.00000     0.00000     0.00000
  Total     -25.57748   -25.57747   -14.31603     0.00000    -0.00000     0.00000
  in kB     -42.29787   -42.29786   -23.67464     0.00000    -0.00000     0.00000

 VOLUME and BASIS-vectors are now :
  energy-cutoff  :      520.00
  volume of cell :      968.84
      direct lattice vectors                 reciprocal lattice vectors
     6.907777000 -0.000000000  0.000000000     0.144764372 -0.083579742  0.000000000
     3.453888000  5.982310000  0.000000000     0.000000000  0.167159509 -0.000000000
     0.000000000  0.000000000 23.444588000    -0.000000000  0.000000000  0.042653767

[...]

 FORCES acting on ions
    electron-ion (+dipol)            ewald-force                    non-local-force                 convergence-correction
   0.201E-03 0.771E-04 0.703E+01   0.390E-03 0.233E-03 -.702E+01   0.312E-18 0.129E-17 0.327E-01   0.215E-05 0.120E-05 0.190E-01
   -.164E-03 -.129E-03 0.544E+01   -.390E-03 -.233E-03 -.547E+01   0.347E-17 0.000E+00 0.547E-01   -.190E-05 -.114E-05 0.202E-01
   -.275E-04 0.141E-04 0.178E+03   -.141E-03 -.779E-04 -.177E+03   0.347E-17 0.347E-17 -.160E+01   -.414E-06 -.226E-06 0.435E-01
   0.339E-04 0.147E-04 -.205E+03   0.176E-03 0.973E-04 0.206E+03   0.694E-17 0.694E-17 0.292E+00   0.672E-06 0.356E-06 -.397E-01
   -.345E+01 0.127E+00 -.364E+03   0.118E+01 -.144E+00 0.367E+03   0.329E+01 -.497E-02 -.456E+01   -.136E-01 0.182E-01 -.110E+00
   0.183E+01 0.292E+01 -.364E+03   -.715E+00 -.950E+00 0.367E+03   -.165E+01 -.285E+01 -.456E+01   0.226E-01 0.267E-02 -.110E+00
   0.161E+01 -.305E+01 -.364E+03   -.465E+00 0.109E+01 0.367E+03   -.164E+01 0.285E+01 -.456E+01   -.899E-02 -.209E-01 -.110E+00
   0.104E+02 -.180E+00 0.369E+03   -.779E+01 0.151E+00 -.372E+03   -.373E+01 0.142E-01 0.457E+01   0.196E-01 0.208E-01 0.995E-01
   -.537E+01 -.893E+01 0.369E+03   0.403E+01 0.667E+01 -.372E+03   0.188E+01 0.323E+01 0.457E+01   0.822E-02 -.274E-01 0.995E-01
   -.505E+01 0.912E+01 0.369E+03   0.376E+01 -.682E+01 -.372E+03   0.186E+01 -.324E+01 0.457E+01   -.278E-01 0.656E-02 0.995E-01
   0.606E-04 -.848E-05 0.118E+01   0.133E-14 -.888E-15 0.568E-13   -.888E-15 -.888E-15 -.119E+01   0.440E-06 0.230E-06 0.123E-01

 POSITION                                       TOTAL-FORCE (eV/Angst)
      3.45388      1.99410     11.72054         0.000000      0.000000      0.058824
      6.90778      3.98821     11.72405        -0.000000     -0.000000      0.047233
      0.00000      0.00000     10.50824        -0.000000      0.000000     -0.412215
      0.00000      0.00000     12.93635        -0.000000      0.000000      1.009970
      4.32819      0.00251     13.45138         1.012178     -0.002065     -1.610837
      1.29198      2.23274     13.45138        -0.507877     -0.875539     -1.610837
      4.74152      3.74706     13.45138        -0.504301      0.877604     -1.610837
      6.03348      5.97980      9.99321        -1.082896      0.005076      1.376233
      9.06969      3.74957      9.99321         0.545844      0.935277      1.376233
      5.62015      2.23525      9.99321         0.537052     -0.940353      1.376233
    total drift:                                0.000061     -0.000008      0.004362

  FREE ENERGIE OF THE ION-ELECTRON SYSTEM (eV)
  free  energy   TOTEN  =       -46.22272871 eV

  energy  without entropy=      -46.22272871  energy(sigma->0) =      -46.22272871

[...]

 d Force = 0.5770314E+00[ 0.224E+00, 0.930E+00]  d Energy = 0.5586951E+01-0.501E+01
 d Force =-0.1600631E+03[-0.182E+03,-0.138E+03]  d Ewald  =-0.1830785E+04 0.167E+04

 Steepest descent step on ions:
 trial-energy change:   -5.586951  1 .order   -4.624049   -8.318003   -0.930095
  (g-gl).g = 0.832E+01      g.g   = 0.832E+01  gl.gl    = 0.000E+00
 g(Force)  = 0.102E+01   g(Stress)= 0.730E+01 ortho     = 0.000E+00
 gamma     =   0.00000
 trial     =   1.00000
 opt step  =   1.06858  (harmonic =   1.12589) maximal distance =0.07094660
 next E    =   -51.841885   (d E  =  -5.61916)

[...]

 d Force = 0.1304628E-01[ 0.910E-02, 0.170E-01]  d Energy = 0.3310709E-01-0.201E-01
 d Force =-0.1347551E+02[-0.136E+02,-0.133E+02]  d Ewald  =-0.1539509E+03 0.140E+03

[...]

 d Force = 0.1049182E+00[ 0.553E-01, 0.154E+00]  d Energy = 0.6558038E-01 0.393E-01
 d Force = 0.1464645E+02[ 0.144E+02, 0.149E+02]  d Ewald  =-0.1035918E+03 0.118E+03

 Conjugate gradient step on ions:
 trial-energy change:   -0.065580  1 .order   -0.106693   -0.163765   -0.049622
  (g-gl).g = 0.157E+00      g.g   = 0.161E+00  gl.gl    = 0.832E+01
 g(Force)  = 0.150E+00   g(Stress)= 0.116E-01 ortho     = 0.488E-02
 gamma     =   0.01882
 trial     =   1.01372
 opt step  =   1.45441  (harmonic =   1.45441) maximal distance =0.06222342
 next E    =   -51.960266   (d E  =  -0.11748)

[...]

 d Force = 0.6168311E-01[ 0.528E-01, 0.706E-01]  d Energy = 0.7140683E-01-0.972E-02
 d Force = 0.7990576E+01[ 0.769E+01, 0.829E+01]  d Ewald  = 0.1175118E+03-0.110E+03

[...]

 d Force = 0.4556184E-01[ 0.367E-01, 0.545E-01]  d Energy = 0.2145533E-01 0.241E-01
 d Force = 0.9219991E+01[ 0.866E+01, 0.978E+01]  d Ewald  = 0.1519892E+03-0.143E+03

[...]

 d Force =-0.1088504E+00[-0.291E+00, 0.733E-01]  d Energy =-0.1278204E+00 0.190E-01
 d Force = 0.1487691E+02[ 0.125E+02, 0.172E+02]  d Ewald  = 0.2911995E+03-0.276E+03

[...]

 d Force = 0.1052130E+00[-0.313E-01, 0.242E+00]  d Energy = 0.1279970E+00-0.228E-01
 d Force =-0.1265704E+02[-0.143E+02,-0.110E+02]  d Ewald  =-0.2470793E+03 0.234E+03

[...]

 d Force = 0.3954147E-01[ 0.182E-01, 0.609E-01]  d Energy =-0.4810290E-01 0.876E-01
 d Force = 0.2180485E+02[ 0.219E+02, 0.217E+02]  d Ewald  =-0.2820058E+02 0.500E+02

[...]

 d Force = 0.3203816E-02[-0.176E-02, 0.816E-02]  d Energy = 0.9958950E-01-0.964E-01
 d Force = 0.9800834E+01[ 0.981E+01, 0.979E+01]  d Ewald  =-0.1249021E+02 0.223E+02

[...]

 Conjugate gradient step on ions:
 trial-energy change:   -0.031827  1 .order   -0.031529   -0.042098   -0.020959
  (g-gl).g = 0.415E-03      g.g   = 0.553E-01  gl.gl    = 0.974E-01
 g(Force)  = 0.362E-01   g(Stress)= 0.191E-01 ortho     = 0.860E-02
 gamma     =   0.00426
 trial     =   0.76040
 opt step  =   1.51433  (harmonic =   1.51433) maximal distance =0.02524995
 next E    =   -52.182106   (d E  =  -0.04192)

[...]

 d Force = 0.9877175E-02[ 0.383E-02, 0.159E-01]  d Energy = 0.1079880E-01-0.922E-03
 d Force = 0.6834546E+01[ 0.680E+01, 0.687E+01]  d Ewald  =-0.1223818E+03 0.129E+03

[...]

 eigenvalues of (default mixing * dielectric matrix)
  average eigenvalue GAMMA=   0.5070
  0.6499  0.3640

[...]

 d Force = 0.2292736E-02[ 0.108E-02, 0.351E-02]  d Energy = 0.5553805E-02-0.326E-02
 d Force =-0.5619599E+01[-0.562E+01,-0.562E+01]  d Ewald  = 0.9254266E+00-0.655E+01

 Conjugate gradient step on ions:
 trial-energy change:   -0.005554  1 .order   -0.002285   -0.003529   -0.001040
  (g-gl).g =-0.829E-03      g.g   = 0.394E-02  gl.gl    = 0.553E-01
 g(Force)  = 0.393E-02   g(Stress)= 0.168E-04 ortho     = 0.476E-02
 gamma     =  -0.01498
 trial     =   0.91118
 opt step  =   0.95240  (harmonic =   1.29186) maximal distance =0.00365483
 next E    =   -52.188389   (d E  =  -0.00558)

[...]

 eigenvalue-minimisations  :  1168
 total energy-change (2. order) : 0.2033197E-04  (-0.3381973E-04)
 number of electron      59.0000000 magnetization       8.9999494
 augmentation part        0.4607515 magnetization       5.5957662

 Broyden mixing:
  rms(total) = 0.20893E-02    rms(broyden)= 0.20892E-02
  rms(prec ) = 0.29868E-02
  weight for this iteration     100.00

[...]

--------------------------------------- Iteration     16(   2)  ---------------------------------------

[...]

 eigenvalue-minimisations  :   816
 total energy-change (2. order) :-0.6275945E-06  (-0.1302696E-05)
 number of electron      59.0000000 magnetization       8.9999494
 augmentation part        0.4607515 magnetization       5.5957662

 Free energy of the ion-electron system (eV)
  alpha Z        PSCENC =        31.09145748
  Ewald energy   TEWEN  =      8762.54132871
  -Hartree energ DENC   =    -11250.54053877
  -exchange      EXHF   =         0.00000000
  -V(xc)+E(xc)   XCENC  =        49.77307837
  PAW double counting   =      1400.16846370    -1327.41373791
  entropy T*S    EENTRO =         0.00000000
  eigenvalues    EBANDS =      -504.51184031
  atomic energy  EATOM  =      2786.70337683
  Solvation  Ediel_sol  =         0.00000000
  free energy    TOTEN  =       -52.18841190 eV

  energy without entropy =      -52.18841190  energy(sigma->0) =      -52.18841190

 average (electrostatic) potential at core
  the test charge radii are     1.0210  1.1631  0.9587  0.9698
  (the norm of the test charge is              1.0000)
       1 -52.9927       2 -52.9934       3 -40.2856       4 -93.4582       5 -94.5824
       6 -94.5824       7 -94.5824       8 -94.4025       9 -94.4024      10 -94.4024

 E-fermi :  -2.8672     XC(G=0):  -3.6823     alpha+bet : -2.7920

[...]

 spin component 2

[...]

 k-point     5 :      -0.4000    0.2000    0.0000
  band No.  band energies     occupation
      1     -18.2878      1.00000
      2     -16.3905      1.00000
      3     -16.2953      1.00000
      4     -16.0845      1.00000
      5     -15.7673      1.00000
      6     -15.5966      1.00000
      7     -12.2050      1.00000
      8     -10.6617      1.00000
      9      -8.6422      1.00000
     10      -8.3161      1.00000
     11      -8.1197      1.00000
     12      -7.6240      1.00000
     13      -7.2416      1.00000
     14      -6.6834      1.00000
     15      -6.2394      1.00000
     16      -6.0218      1.00000
     17      -5.9137      1.00000
     18      -5.7825      1.00000
     19      -5.7641      1.00000
     20      -5.6000      1.00000
     21      -5.1243      1.00000
     22      -5.0172      1.00000
     23      -4.8380      1.00000
     24      -4.5378      1.00000
     25      -4.3028      1.00000
     26      -2.8107      0.00000
     27      -2.2441      0.00000
     28      -2.1284      0.00000
     29      -1.5593      0.00000
     30      -1.5574      0.00000
     31      -1.4533      0.00000
     32      -1.2767      0.00000
     33      -1.0867      0.00000
     34      -1.0327      0.00000
     35      -0.7343      0.00000
     36      -0.6878      0.00000
     37       0.2054      0.00000
     38       0.3680      0.00000
     39       0.7624      0.00000
     40       1.2901      0.00000
     41       1.5293      0.00000
     42       1.7709      0.00000
     43       2.6324      0.00000
     44       2.7379      0.00000
     45       2.8720      0.00000
     46       3.0389      0.00000
     47       3.0707      0.00000
     48       3.3798      0.00000

[...]

 soft charge-density along one line, spin component           2
         0         1         2         3         4         5         6         7         8         9
 total charge-density along one line

------------------------ aborting loop because EDIFF is reached ----------------------------------------

[...]

  FORCE on cell =-STRESS in cart. coord.  units (eV):
  Direction    XX          YY          ZZ          XY          YZ          ZX
  Alpha Z    31.09146    31.09146    31.09146
  Ewald   10566.68416 10566.68109-12370.82588    -0.00115    -0.00050    -0.00091
  Hartree 10995.91515 10995.91548-10738.13566    -0.00002     0.00004     0.00007
  E(xc)    -230.28221  -230.28223  -229.97225     0.00003     0.00000     0.00001
  Local  -22464.53118-22464.52995 22163.24975     0.00076     0.00026     0.00048
  n-local   466.17896   468.58556   469.74243     1.07317     0.00088    -0.09391
  augment   -49.32580   -49.32584   -52.71869     0.00007     0.00001     0.00002
  Kinetic   686.73337   679.18150   727.64403    -4.41973    -0.77449    -0.93301
  Fock        0.00000     0.00000     0.00000     0.00000     0.00000     0.00000
  Total      -0.10951    -0.10951     0.07518    -0.00000     0.00000     0.00000
  in kB      -0.24562    -0.24562     0.16862    -0.00000     0.00000     0.00000

 VOLUME and BASIS-vectors are now :
  energy-cutoff  :      520.00
  volume of cell :      714.35
      direct lattice vectors                 reciprocal lattice vectors
     6.069229996  0.000000127  0.000000000     0.164765549 -0.095127424 -0.000000000
     3.034614577  5.256107194  0.000000000    -0.000000004  0.190254874  0.000000000
     0.000000000 -0.000000000 22.393118711    -0.000000000 -0.000000000  0.044656576

  length of vectors
     6.069229996  6.069229644 22.393118711     0.190254863  0.190254874  0.044656576

 FORCES acting on ions
    electron-ion (+dipol)            ewald-force                    non-local-force                 convergence-correction
   -.450E-04 -.422E-04 0.156E+00   0.491E-03 0.286E-03 -.140E+01   0.402E-18 0.299E-17 0.130E+01   0.489E-06 0.784E-07 0.156E-01
   0.580E-04 0.192E-04 -.871E-01   -.502E-03 -.292E-03 -.115E+01   0.387E-17 -.478E-18 0.129E+01   0.469E-06 0.876E-07 0.127E-01
   -.283E-04 -.206E-04 0.235E+03   -.207E-03 -.116E-03 -.232E+03   -.759E-18 0.785E-17 -.246E+01   -.203E-06 -.120E-06 -.233E-01
   0.465E-04 0.253E-04 -.253E+03   0.269E-03 0.150E-03 0.247E+03   0.562E-17 0.436E-17 0.696E+01   -.487E-06 -.283E-06 0.274E-01
   0.356E+02 -.513E-01 -.480E+03   -.388E+02 0.481E-01 0.483E+03   0.318E+01 -.529E-03 -.318E+01   -.159E-02 0.348E-02 0.499E-01
   -.178E+02 -.308E+02 -.480E+03   0.194E+02 0.336E+02 0.483E+03   -.159E+01 -.276E+01 -.318E+01   0.381E-02 -.361E-03 0.499E-01
   -.178E+02 0.308E+02 -.480E+03   0.193E+02 -.336E+02 0.483E+03   -.159E+01 0.276E+01 -.318E+01   -.222E-02 -.312E-02 0.499E-01
   0.424E+01 0.657E-01 0.484E+03   -.586E+00 -.714E-01 -.487E+03   -.367E+01 0.849E-03 0.283E+01   -.955E-03 0.463E-02 -.476E-01
   -.206E+01 -.370E+01 0.484E+03   0.232E+00 0.543E+00 -.487E+03   0.184E+01 0.318E+01 0.283E+01   0.449E-02 -.149E-02 -.476E-01
   -.217E+01 0.364E+01 0.484E+03   0.355E+00 -.471E+00 -.487E+03   0.183E+01 -.318E+01 0.283E+01   -.353E-02 -.314E-02 -.476E-01
   0.995E-04 -.142E-04 -.612E+01   0.921E-14 -.500E-15 -.114E-12   0.666E-15 0.444E-15 0.604E+01   0.213E-06 -.576E-07 0.394E-01

 POSITION                                       TOTAL-FORCE (eV/Angst)
      3.03461      1.75203     11.15360         0.000000     -0.000000      0.077255
      6.06923      3.50407     11.15488         0.000000     -0.000000      0.072677
      0.00000     -0.00000     10.03695        -0.000000      0.000000     -0.269055
      0.00000     -0.00000     12.33208         0.000000     -0.000000      0.016913
      4.05865     -0.00004     12.83570        -0.002273      0.000746     -0.018993
      1.00525      1.74124     12.83570         0.001782      0.001596     -0.018993
      4.03995      3.51492     12.83570         0.000491     -0.002341     -0.018993
      2.20170      0.00009      9.59803        -0.019197     -0.001128      0.053063
      1.93384      3.34933      9.59803         0.008622      0.017190      0.053063
      4.96830      1.90668      9.59803         0.010576     -0.016061      0.053063
    total drift:                                0.000100     -0.000014     -0.041527

  FREE ENERGIE OF THE ION-ELECTRON SYSTEM (eV)
  free  energy   TOTEN  =       -52.18841190 eV

  energy  without entropy=      -52.18841190  energy(sigma->0) =      -52.18841190

 d Force = 0.4429122E-04[ 0.399E-04, 0.487E-04]  d Energy = 0.4626931E-04-0.198E-05
 d Force =-0.2542108E+00[-0.254E+00,-0.254E+00]  d Ewald  = 0.4185481E-01-0.296E+00

 reached required accuracy - stopping structural energy minimisation

 total charge

[...]

 magnetization (x)

# of ion       s       p       d       tot
    1        0.031   0.028   3.945   4.004
    2        0.031   0.027   3.946   4.005
    3        0.008   0.040   0.005   0.053
    4        0.003   0.021   0.000   0.023
    5        0.009   0.030   0.000   0.039
    6        0.008   0.017   0.000   0.025
    7        0.008   0.022   0.000   0.031
    8        0.011  -0.007   0.000   0.004
    9        0.008   0.019   0.000   0.027
   10        0.010   0.003   0.000   0.013
tot          0.127   0.200   7.896   8.223

 BZINTS: Fermi energy: -2.867237; 59.000000 electrons
         Band energy:-504.511840;  BLOECHL correction: -0.013178