 vasp.5.4.4.18Apr17-6-g9f103f2a35 (build May  1 2020 15:48:39) complex
 executed on             LinuxGNU date 2020.06.18  18:40:54

 INCAR:
 POTCAR:   PAW_PBE Ni 06Sep2000
 POTCAR:   PAW_PBE Ge 05Jan2001
 POTCAR:    PAW_PBE S 17Jan2003

 POTCAR:   PAW_PBE Ni 06Sep2000
   VRHFIN =Ni:

   TITEL  = PAW_PBE Ni 06Sep2000
   POMASS =   58.690; ZVAL   =   10.000    mass and valenz
   ENMAX  =  269.533; ENMIN  =  202.150 eV
   QCUT   =   -4.451; QGAM   =    8.902    optimization parameters

   Description
     l     E      TYP  RCUT    TYP  RCUT
     2   .000     23  2.300
     2   .000     23  2.300
     0   .000     23  2.300
     0   .000     23  2.300
     1  -.200     23  2.300
     1   .000     23  2.300
     3   .000      7   .000

 POTCAR:   PAW_PBE Ge 05Jan2001
   VRHFIN =Ge: s2p2

   TITEL  = PAW_PBE Ge 05Jan2001
   POMASS =   72.610; ZVAL   =    4.000    mass and valenz
   ENMAX  =  173.807; ENMIN  =  130.355 eV
   QCUT   =   -3.574; QGAM   =    7.148    optimization parameters

[...]

 POTCAR:    PAW_PBE S 17Jan2003
   VRHFIN =S : s2p4

   TITEL  = PAW_PBE S 17Jan2003
   POMASS =   32.066; ZVAL   =    6.000    mass and valenz
   ENMAX  =  280.000; ENMIN  =  194.016 eV
   QCUT   =   -4.360; QGAM   =    8.721    optimization parameters

   Description
     l     E      TYP  RCUT    TYP  RCUT
     0   .000     23  1.900
     0   .000     23  1.900
     1   .000     23  1.900
     1   .000     23  1.900
     2   .000     23  1.900

 Optimization of the real space projectors (new method)

 maximal supplied QI-value         = 16.25
 optimisation between [QCUT,QGAM] = [ 11.54, 23.24] = [ 37.28,151.24] Ry
 Optimized for a Real-space Cutoff    1.49 Angstroem

   l    n(q)    QCUT    max X(q) W(low)/X(q) W(high)/X(q)  e(spline)
   2      9    11.539     4.811    0.20E-04    0.14E-04    0.45E-07
   2      9    11.539    15.146    0.24E-03    0.12E-03    0.20E-06
   0     10    11.539    14.357    0.18E-04    0.12E-05    0.14E-07
   0     10    11.539    43.282    0.39E-04    0.17E-04    0.23E-06
   1     10    11.539     5.514    0.99E-05    0.13E-04    0.19E-07
   1     10    11.539     7.697    0.38E-04    0.79E-04    0.91E-07
 Optimization of the real space projectors (new method)

[...]

   l    n(q)    QCUT    max X(q) W(low)/X(q) W(high)/X(q)  e(spline)
   0      9    11.539     8.651    0.22E-04    0.16E-04    0.10E-07
   0      9    11.539    33.192    0.11E-03    0.16E-03    0.65E-07
   1      8    11.539     5.899    0.37E-04    0.28E-04    0.43E-07
   1      8    11.539    27.289    0.22E-03    0.28E-04    0.14E-06
   2      8    11.539     4.673    0.11E-03    0.18E-03    0.58E-07
 Optimization of the real space projectors (new method)

 maximal supplied QI-value         = 19.84
 optimisation between [QCUT,QGAM] = [ 11.51, 23.22] = [ 37.09,150.92] Ry
 Optimized for a Real-space Cutoff    1.21 Angstroem

   l    n(q)    QCUT    max X(q) W(low)/X(q) W(high)/X(q)  e(spline)
   0      8    11.508     5.487    0.18E-04    0.22E-05    0.47E-08
   0      8    11.508    85.627    0.96E-04    0.18E-03    0.54E-07
   1      8    11.508     3.530    0.17E-04    0.28E-04    0.21E-07
   1      8    11.508    42.714    0.18E-03    0.63E-04    0.92E-07

 PAW_PBE Ni 06Sep2000                   :
 PAW_PBE Ge 05Jan2001                   :
  PAW_PBE S 17Jan2003                   :

 POSCAR: Ni2 Ge2 S6
  positions in direct lattice
  velocities in cartesian coordinates
 exchange correlation table for  LEXCH =       42
   RHO(1)=    0.500       N(1)  =     2000
   RHO(2)=  100.500       N(2)  =     4000

 ion  position               nearest neighbor table
   1  0.333  0.333  0.500-   6 2.78   5 2.78   7 2.78   8 2.78  10 2.78   9 2.78
   2  0.667  0.667  0.500-   9 2.78   8 2.78  10 2.78   5 2.78   7 2.78   6 2.78
   3  0.000  0.000  0.448-   4 2.43   8 2.63  10 2.63   9 2.63
   4  0.000  0.000  0.552-   3 2.43   5 2.63   7 2.63   6 2.63
   5  0.626  0.000  0.574-   4 2.63   1 2.78   2 2.78
   6  0.000  0.373  0.574-   4 2.63   1 2.78   2 2.78
   7  0.373  0.626  0.574-   4 2.63   1 2.78   2 2.78
   8  0.374  1.000  0.426-   3 2.63   2 2.78   1 2.78
   9  1.000  0.627  0.426-   3 2.63   2 2.78   1 2.78
  10  0.627  0.374  0.426-   3 2.63   2 2.78   1 2.78

  LATTYP: Found a hexagonal cell.
 ALAT       =     6.9077769333
 C/A-ratio  =     3.3939410937

  Lattice vectors:

 A1 = (   3.4538890000,  -5.9823100000,   0.0000000000)
 A2 = (  -6.9077770000,   0.0000000000,   0.0000000000)
 A3 = (   0.0000000000,   0.0000000000, -23.4445880000)

Analysis of symmetry for initial positions (statically):
 Subroutine PRICEL returns:
 Original cell was already a primitive cell.

 Routine SETGRP: Setting up the symmetry group for a
 hexagonal supercell.

 Subroutine GETGRP returns: Found  6 space group operations
 (whereof  6 operations were pure point group operations)
 out of a pool of 24 trial point group operations.

The static configuration has the point symmetry S_6 .

Analysis of symmetry for dynamics (positions and initial velocities):
 Subroutine PRICEL returns:
 Original cell was already a primitive cell.

[...]

The dynamic configuration has the point symmetry S_6 .

Analysis of constrained symmetry for selective dynamics:
 Subroutine PRICEL returns:
 Original cell was already a primitive cell.

[...]

The constrained configuration has the point symmetry S_6 .

Analysis of structural, dynamic, and magnetic symmetry:
 Subroutine PRICEL returns:
 Original cell was already a primitive cell.

 Routine SETGRP: Setting up the symmetry group for a
 hexagonal supercell.

 Subroutine GETGRP returns: Found  6 space group operations
 (whereof  6 operations were pure point group operations)
 out of a pool of 24 trial point group operations.

The magnetic configuration has the point symmetry S_6 .

 Subroutine INISYM returns: Found  6 space group operations
 (whereof  6 operations are pure point group operations),
 and found     1 'primitive' translations

 KPOINTS: Kpoints from vasprun.xml

Automatic generation of k-mesh.
Space group operators:
 irot       det(A)        alpha          n_x          n_y          n_z        tau_x        tau_y        tau_z
    1     1.000000     0.000000     1.000000     0.000000     0.000000     0.000000     0.000000     0.000000
    2    -1.000000     0.000000     1.000000     0.000000     0.000000     0.000000     0.000000     0.000000
    3     1.000000   120.000000     0.000000     0.000000     1.000000     0.000000     0.000000     0.000000
    4    -1.000000   120.000000     0.000000     0.000000     1.000000     0.000000     0.000000     0.000000
    5     1.000000   120.000000     0.000000     0.000000    -1.000000     0.000000     0.000000     0.000000
    6    -1.000000   120.000000     0.000000     0.000000    -1.000000     0.000000     0.000000     0.000000

 Subroutine IBZKPT returns following result:

 Found      5 irreducible k-points:

 Following reciprocal coordinates:
            Coordinates               Weight
  0.000000  0.000000  0.000000      1.000000
  0.200000  0.000000  0.000000      6.000000
  0.400000  0.000000  0.000000      6.000000
  0.400000  0.200000  0.000000      6.000000
 -0.400000  0.200000  0.000000      6.000000

 Following cartesian coordinates:
            Coordinates               Weight
  0.000000  0.000000  0.000000      1.000000
  0.028953 -0.016716  0.000000      6.000000
  0.057906 -0.033432  0.000000      6.000000
  0.057906  0.000000  0.000000      6.000000
 -0.057906  0.066864  0.000000      6.000000

 TETIRR: Found     15 inequivalent tetrahedra from      150

 SYSTEM =  unknown system
 POSCAR =  Ni2 Ge2 S6

 Startparameter for this run:
   NWRITE =      2    write-flag & timer
   PREC   = accura    normal or accurate (medium, high low for compatibility)
   ISTART =      0    job   : 0-new  1-cont  2-samecut
   ICHARG =      2    charge: 1-file 2-atom 10-const
   ISPIN  =      2    spin polarized calculation?
   LNONCOLLINEAR =      F non collinear calculations
   LSORBIT =      F    spin-orbit coupling
   INIWAV =      1    electr: 0-lowe 1-rand  2-diag
   LASPH  =      F    aspherical Exc in radial PAW
   METAGGA=      F    non-selfconsistent MetaGGA calc.

 Electronic Relaxation 1
   ENCUT  =  520.0 eV  38.22 Ry    6.18 a.u.  12.84 12.84 43.59*2*pi/ulx,y,z
   ENINI  =  520.0     initial cutoff
   ENAUG  =  544.6 eV  augmentation charge cutoff
   NELM   =    400;   NELMIN=  2; NELMDL=  0     # of ELM steps
   EDIFF  = 0.1E-03   stopping-criterion for ELM
   LREAL  =      T    real-space projection
   NLSPLINE    = F    spline interpolate recip. space projectors
   LCOMPAT=      F    compatible to vasp.4.4
   GGA_COMPAT  = T    GGA compatible to vasp.4.4-vasp.4.6
   LMAXPAW     = -100 max onsite density
   LMAXMIX     =    2 max onsite mixed and CHGCAR
   VOSKOWN=      0    Vosko Wilk Nusair interpolation
   ROPT   =   -0.00025  -0.00025  -0.00025
 Ionic relaxation
   EDIFFG = 0.1E-02   stopping-criterion for IOM
   NSW    =     99    number of steps for IOM
   NBLOCK =      1;   KBLOCK =     99    inner block; outer block
   IBRION =      2    ionic relax: 0-MD 1-quasi-New 2-CG
   NFREE  =      1    steps in history (QN), initial steepest desc. (CG)
   ISIF   =      3    stress and relaxation
   IWAVPR =     11    prediction:  0-non 1-charg 2-wave 3-comb
   ISYM   =      2    0-nonsym 1-usesym 2-fastsym
   LCORR  =      T    Harris-Foulkes like correction to forces

   POTIM  = 0.5000    time-step for ionic-motion
   TEIN   =    0.0    initial temperature
   TEBEG  =    0.0;   TEEND  =   0.0 temperature during run
   SMASS  =  -3.00    Nose mass-parameter (am)
   estimated Nose-frequenzy (Omega)   =  0.10E-29 period in steps =****** mass=  -0.109E-26a.u.
   SCALEE = 1.0000    scale energy and forces
   NPACO  =    256;   APACO  = 16.0  distance and # of slots for P.C.
   PSTRESS=    0.0 pullay stress

  Mass of Ions in am
   POMASS =  58.69 72.61 32.07
  Ionic Valenz
   ZVAL   =  10.00  4.00  6.00
  Atomic Wigner-Seitz radii
  virtual crystal weights
   VCA    =   1.00  1.00  1.00
   NELECT =      64.0000    total number of electrons
   NUPDOWN=      -1.0000    fix difference up-down

 DOS related values:
   EMIN   =  10.00;   EMAX   =-10.00  energy-range for DOS
   EFERMI =   0.00
   ISMEAR =    -5;   SIGMA  =   0.05  broadening in eV -4-tet -1-fermi 0-gaus

 Electronic relaxation 2 (details)
   IALGO  =     38    algorithm
   LDIAG  =      T    sub-space diagonalisation (order eigenvalues)
   LSUBROT=      F    optimize rotation matrix (better conditioning)
   TURBO    =      0    0=normal 1=particle mesh
   IRESTART =      0    0=no restart 2=restart with 2 vectors
   NREBOOT  =      0    no. of reboots
   NMIN     =      0    reboot dimension
   EREF     =   0.00    reference energy to select bands
   IMIX   =      4    mixing-type and parameters
     AMIX     =   0.40;   BMIX     =  1.00
     AMIX_MAG =   1.60;   BMIX_MAG =  1.00
     AMIN     =   0.01
     WC   =   100.;   INIMIX=   1;  MIXPRE=   1;  MAXMIX= -45

 Intra band minimization:
   WEIMIN = 0.0010     energy-eigenvalue tresh-hold
   EBREAK =  0.52E-06  absolut break condition
   DEPER  =   0.30     relativ break condition

   TIME   =   0.40     timestep for ELM

[...]
  E(xc)    -260.94606  -260.94615  -260.59214     0.00009    -0.00002     0.00002
  Local  -21763.08087-21763.08085 21214.37025     0.00246     0.00033     0.00065
  n-local   391.89603   392.75268   401.16193     0.36962     0.10433    -0.07395
  augment     2.85743     2.85731    -0.55678     0.00025    -0.00003     0.00003
  Kinetic   658.77054   655.55200   691.34020    -1.81935    -0.86521    -1.18095
  Fock        0.00000     0.00000     0.00000     0.00000     0.00000     0.00000
  Total     -24.76990   -24.76990   -10.65425     0.00001     0.00000     0.00000
  in kB     -40.96237   -40.96237   -17.61909     0.00001     0.00000     0.00000

 VOLUME and BASIS-vectors are now :
  energy-cutoff  :      520.00
  volume of cell :      968.84
      direct lattice vectors                 reciprocal lattice vectors
     6.907777000 -0.000000000  0.000000000     0.144764372 -0.083579742  0.000000000
     3.453888000  5.982310000  0.000000000     0.000000000  0.167159509 -0.000000000
     0.000000000  0.000000000 23.444588000    -0.000000000  0.000000000  0.042653767

[...]

 FORCES acting on ions
    electron-ion (+dipol)            ewald-force                    non-local-force                 convergence-correction
   0.250E-03 0.122E-03 0.120E+01   0.643E-03 0.389E-03 -.118E+01   -.694E-17 -.694E-17 -.720E-02   -.438E-05 -.259E-05 0.161E-02
   -.250E-03 -.122E-03 -.120E+01   -.643E-03 -.389E-03 0.118E+01   0.520E-17 0.694E-17 0.720E-02   0.438E-05 0.259E-05 -.161E-02
   -.489E-04 0.486E-04 0.188E+03   -.141E-03 -.779E-04 -.186E+03   -.347E-17 0.000E+00 -.305E+01   0.227E-06 0.178E-06 -.906E-01
   0.489E-04 -.486E-04 -.188E+03   0.141E-03 0.779E-04 0.186E+03   -.520E-17 0.000E+00 0.305E+01   -.227E-06 -.178E-06 0.906E-01
   -.263E+02 0.158E+00 -.422E+03   0.233E+02 -.155E+00 0.425E+03   0.377E+01 -.800E-02 -.513E+01   0.969E-01 0.109E-02 0.288E+00
   0.133E+02 0.227E+02 -.422E+03   -.118E+02 -.201E+02 0.425E+03   -.189E+01 -.326E+01 -.513E+01   -.475E-01 -.844E-01 0.288E+00
   0.130E+02 -.228E+02 -.422E+03   -.115E+02 0.202E+02 0.425E+03   -.188E+01 0.327E+01 -.513E+01   -.494E-01 0.834E-01 0.288E+00
   0.263E+02 -.158E+00 0.422E+03   -.233E+02 0.155E+00 -.425E+03   -.377E+01 0.800E-02 0.513E+01   -.969E-01 -.109E-02 -.288E+00
   -.133E+02 -.227E+02 0.422E+03   0.118E+02 0.201E+02 -.425E+03   0.189E+01 0.326E+01 0.513E+01   0.475E-01 0.844E-01 -.288E+00
   -.130E+02 0.228E+02 0.422E+03   0.115E+02 -.202E+02 -.425E+03   0.188E+01 -.327E+01 0.513E+01   0.494E-01 -.834E-01 -.288E+00
   0.292E-10 0.586E-11 0.126E-09   0.355E-14 0.000E+00 -.171E-12   -.444E-15 0.444E-15 -.178E-14   0.127E-13 -.155E-12 -.447E-11

 POSITION                                       TOTAL-FORCE (eV/Angst)
      3.45388      1.99410     11.72054        -0.000000      0.000000      0.009074
      6.90778      3.98821     11.72405        -0.000000      0.000000     -0.009074
      0.00000      0.00000     10.50824        -0.000000      0.000000     -1.227528
      0.00000      0.00000     12.93635        -0.000000     -0.000000      1.227528
      4.32819      0.00251     13.45138         0.870796     -0.003122     -1.592522
      1.29198      2.23274     13.45138        -0.438102     -0.752571     -1.592522
      4.74152      3.74706     13.45138        -0.432695      0.755693     -1.592522
      6.03348      5.97980      9.99321        -0.870796      0.003122      1.592522
      9.06969      3.74957      9.99321         0.438102      0.752571      1.592522
      5.62015      2.23525      9.99321         0.432695     -0.755693      1.592522
    total drift:                                0.000000      0.000000      0.000000

  FREE ENERGIE OF THE ION-ELECTRON SYSTEM (eV)
  free  energy   TOTEN  =       -34.70939858 eV

  energy  without entropy=      -34.70939858  energy(sigma->0) =      -34.70939858

[...]

 d Force = 0.5477950E+00[ 0.206E+00, 0.890E+00]  d Energy = 0.6064083E+01-0.552E+01
 d Force =-0.2091500E+03[-0.237E+03,-0.181E+03]  d Ewald  =-0.2378278E+04 0.217E+04

 Steepest descent step on ions:
 trial-energy change:   -6.064083  1 .order   -4.673807   -7.421052   -1.926562
  (g-gl).g = 0.742E+01      g.g   = 0.742E+01  gl.gl    = 0.000E+00
 g(Force)  = 0.954E+00   g(Stress)= 0.647E+01 ortho     = 0.000E+00
 gamma     =   0.00000
 trial     =   1.00000
 opt step  =   1.12918  (harmonic =   1.35064) maximal distance =0.08675208
 next E    =   -40.900916   (d E  =  -6.19152)

[...]

 d Force = 0.1318033E-01[-0.841E-03, 0.272E-01]  d Energy = 0.1501092E+00-0.137E+00
 d Force =-0.3268244E+02[-0.333E+02,-0.321E+02]  d Ewald  =-0.3815112E+03 0.349E+03

[...]

 Conjugate gradient step on ions:
 trial-energy change:   -0.158351  1 .order   -0.156355   -0.198376   -0.114334
  (g-gl).g = 0.147E+00      g.g   = 0.192E+00  gl.gl    = 0.742E+01
 g(Force)  = 0.192E+00   g(Stress)= 0.710E-03 ortho     = 0.452E-01
 gamma     =   0.01985
 trial     =   1.02584
 opt step  =   2.10560  (harmonic =   2.42141) maximal distance =0.07155872
 next E    =   -41.144442   (d E  =  -0.22085)

[...]

 d Force =-0.4281099E-02[-0.412E-02,-0.444E-02]  d Energy = 0.1731635E-02-0.601E-02
 d Force = 0.1818388E+02[ 0.181E+02, 0.182E+02]  d Ewald  = 0.1627730E+03-0.145E+03

[...]

 Conjugate gradient step on ions:
 trial-energy change:   -0.023448  1 .order   -0.025266   -0.029160   -0.021373
  (g-gl).g = 0.207E-01      g.g   = 0.189E-01  gl.gl    = 0.395E-01
 g(Force)  = 0.109E-01   g(Stress)= 0.806E-02 ortho     =-0.143E-02
 gamma     =   0.52588
 trial     =   1.60566
 opt step  =   6.01290  (harmonic =   6.01290) maximal distance =0.08165511
 next E    =   -41.262457   (d E  =  -0.05460)

[...]

 Conjugate gradient step on ions:
 trial-energy change:   -0.011234  1 .order   -0.011223   -0.012891   -0.009554
  (g-gl).g = 0.588E-01      g.g   = 0.582E-01  gl.gl    = 0.189E-01
 g(Force)  = 0.147E-01   g(Stress)= 0.435E-01 ortho     = 0.837E-03
 gamma     =   3.10870
 trial     =   0.21203
 opt step  =   0.81914  (harmonic =   0.81914) maximal distance =0.04348089
 next E    =   -41.266607   (d E  =  -0.02490)

[...]

 d Force = 0.1633687E-01[ 0.126E-03, 0.325E-01]  d Energy = 0.1298875E-01 0.335E-02
 d Force =-0.1130100E+03[-0.113E+03,-0.113E+03]  d Ewald  =-0.1795299E+03 0.665E+02

[...]

 d Force = 0.4714820E-03[ 0.428E-03, 0.515E-03]  d Energy = 0.1823847E-02-0.135E-02
 d Force = 0.5476933E+01[ 0.548E+01, 0.547E+01]  d Ewald  =-0.1859020E+02 0.241E+02

 Conjugate gradient step on ions:
 trial-energy change:   -0.001824  1 .order   -0.001425   -0.001611   -0.001239
  (g-gl).g =-0.560E-02      g.g   = 0.485E-02  gl.gl    = 0.582E-01
 g(Force)  = 0.157E-02   g(Stress)= 0.328E-02 ortho     = 0.180E-03
 gamma     =  -0.09621
 trial     =   0.33345
 opt step  =   1.33380  (harmonic =   1.44184) maximal distance =0.00656744
 next E    =   -41.269411   (d E  =  -0.00348)

[...]

 d Force = 0.1152040E-02[ 0.102E-02, 0.128E-02]  d Energy = 0.2237786E-02-0.109E-02
 d Force = 0.1650379E+02[ 0.166E+02, 0.164E+02]  d Ewald  =-0.5603830E+02 0.725E+02

[...]

 d Force = 0.5034860E-03[ 0.367E-03, 0.640E-03]  d Energy = 0.5606044E-03-0.571E-04
 d Force = 0.1847067E+01[ 0.185E+01, 0.185E+01]  d Ewald  = 0.3238090E+01-0.139E+01

 Conjugate gradient step on ions:
 trial-energy change:   -0.000561  1 .order   -0.000560   -0.000701   -0.000420
  (g-gl).g = 0.153E-02      g.g   = 0.141E-02  gl.gl    = 0.485E-02
 g(Force)  = 0.875E-03   g(Stress)= 0.538E-03 ortho     =-0.313E-03
 gamma     =   0.31560
 trial     =   0.53352
 opt step  =   1.32860  (harmonic =   1.32860) maximal distance =0.00506264
 next E    =   -41.270862   (d E  =  -0.00087)

[...]

 eigenvalue-minimisations  :   896
 total energy-change (2. order) :-0.6441815E-03  (-0.2568651E-04)
 number of electron      64.0000006 magnetization       0.1434109
 augmentation part        6.0648446 magnetization       0.0827652

 Broyden mixing:
  rms(total) = 0.28892E-02    rms(broyden)= 0.28891E-02
  rms(prec ) = 0.33153E-02
  weight for this iteration     100.00

 eigenvalues of (default mixing * dielectric matrix)
  average eigenvalue GAMMA=   0.9369
  0.2532  1.2788  1.2788

[...]

--------------------------------------- Iteration     17(   5)  ---------------------------------------

[...]

 eigenvalue-minimisations  :   688
 total energy-change (2. order) : 0.5803202E-05  (-0.2466326E-05)
 number of electron      64.0000006 magnetization       0.1434109
 augmentation part        6.0648446 magnetization       0.0827652

 Free energy of the ion-electron system (eV)
  alpha Z        PSCENC =        39.68187742
  Ewald energy   TEWEN  =     12573.12489411
  -Hartree energ DENC   =    -16207.74200790
  -exchange      EXHF   =         0.00000000
  -V(xc)+E(xc)   XCENC  =       118.38644256
  PAW double counting   =      2564.29584627    -2649.72509324
  entropy T*S    EENTRO =         0.00000000
  eigenvalues    EBANDS =      -522.05035265
  atomic energy  EATOM  =      4042.75775707
  Solvation  Ediel_sol  =         0.00000000
  free energy    TOTEN  =       -41.27063637 eV

  energy without entropy =      -41.27063637  energy(sigma->0) =      -41.27063637

 average (electrostatic) potential at core
  the test charge radii are     0.9791  1.1631  0.9698
  (the norm of the test charge is              1.0000)
       1 -50.5932       2 -50.5932       3 -40.0395       4 -40.0395       5 -94.8363
       6 -94.8363       7 -94.8362       8 -94.8363       9 -94.8363      10 -94.8362

 E-fermi :  -2.8510     XC(G=0):  -3.4805     alpha+bet : -2.6307

[...]

 spin component 2

[...]

 k-point     5 :      -0.4000    0.2000    0.0000
  band No.  band energies     occupation
      1     -16.8687      1.00000
      2     -16.6669      1.00000
      3     -16.2003      1.00000
      4     -16.0764      1.00000
      5     -15.8767      1.00000
      6     -15.6828      1.00000
      7     -11.6729      1.00000
      8     -10.3958      1.00000
      9      -8.5615      1.00000
     10      -8.0448      1.00000
     11      -7.9803      1.00000
     12      -7.4734      1.00000
     13      -7.1538      1.00000
     14      -7.1278      1.00000
     15      -6.8985      1.00000
     16      -6.6760      1.00000
     17      -6.4867      1.00000
     18      -6.4369      1.00000
     19      -6.1537      1.00000
     20      -6.1302      1.00000
     21      -5.9164      1.00000
     22      -5.3308      1.00000
     23      -5.1479      1.00000
     24      -5.0067      1.00000
     25      -4.9608      1.00000
     26      -4.6747      1.00000
     27      -4.6263      1.00000
     28      -4.4682      1.00000
     29      -4.4358      1.00000
     30      -4.3853      1.00000
     31      -3.8435      1.00000
     32      -2.9901      1.00000
     33      -2.8379      0.00000
     34      -2.6683      0.00000
     35      -2.2844      0.00000
     36      -1.7172      0.00000
     37      -0.8939      0.00000
     38       0.6368      0.00000
     39       0.6411      0.00000
     40       1.2866      0.00000
     41       1.3016      0.00000
     42       1.4572      0.00000
     43       2.7006      0.00000
     44       2.7557      0.00000
     45       2.7593      0.00000
     46       2.9287      0.00000
     47       3.3045      0.00000
     48       3.6217      0.00000

[...]

 soft charge-density along one line, spin component           2
         0         1         2         3         4         5         6         7         8         9
 total charge-density along one line

------------------------ aborting loop because EDIFF is reached ----------------------------------------

[...]

  FORCE on cell =-STRESS in cart. coord.  units (eV):
  Direction    XX          YY          ZZ          XY          YZ          ZX
  Alpha Z    39.68188    39.68188    39.68188
  Ewald   14813.49160 14813.48947-17053.85838    -0.00275    -0.00058    -0.00104
  Hartree 15553.18460 15553.18585-14896.30467    -0.00071     0.00006     0.00009
  E(xc)    -268.41314  -268.41321  -267.94968     0.00007     0.00000     0.00001
  Local  -31238.07836-31238.07877 31042.27192     0.00301     0.00034     0.00064
  n-local   409.97394   411.76812   413.04655     0.99932     1.05156     0.90299
  augment     3.45255     3.45246    -0.12730     0.00021     0.00016    -0.00004
  Kinetic   690.61369   680.94380   723.13741    -5.23468    -1.46221    -1.35218
  Fock        0.00000     0.00000     0.00000     0.00000     0.00000     0.00000
  Total      -0.03182    -0.03182    -0.10228    -0.00001     0.00000     0.00000
  in kB      -0.07054    -0.07054    -0.22671    -0.00001     0.00000     0.00000

 VOLUME and BASIS-vectors are now :
  energy-cutoff  :      520.00
  volume of cell :      722.78
      direct lattice vectors                 reciprocal lattice vectors
     5.960882472  0.000000101 -0.000000000     0.167760397 -0.096856501  0.000000000
     2.980440856  5.162275486 -0.000000000    -0.000000003  0.193713027  0.000000000
    -0.000000000 -0.000000000 23.488500042     0.000000000  0.000000000  0.042574026

  length of vectors
     5.960882472  5.960882140 23.488500042     0.193713016  0.193713027  0.042574026

 FORCES acting on ions
    electron-ion (+dipol)            ewald-force                    non-local-force                 convergence-correction
   -.191E-03 -.125E-03 -.451E+00   0.872E-03 0.523E-03 0.458E+00   0.139E-16 0.175E-20 -.601E-02   0.165E-06 -.275E-06 -.255E-02
   0.191E-03 0.125E-03 0.451E+00   -.872E-03 -.523E-03 -.458E+00   -.347E-17 -.175E-20 0.601E-02   -.165E-06 0.275E-06 0.255E-02
   -.844E-05 -.521E-04 0.291E+03   -.203E-03 -.114E-03 -.288E+03   -.621E-17 0.111E-16 -.253E+01   0.143E-06 0.629E-07 -.124E-01
   0.844E-05 0.521E-04 -.291E+03   0.203E-03 0.114E-03 0.288E+03   0.621E-17 -.181E-16 0.253E+01   -.143E-06 -.629E-07 0.124E-01
   -.403E+02 -.353E-01 -.585E+03   0.369E+02 0.332E-01 0.589E+03   0.337E+01 0.384E-02 -.385E+01   0.457E-02 -.139E-03 0.251E-01
   0.201E+02 0.349E+02 -.585E+03   -.184E+02 -.320E+02 0.589E+03   -.168E+01 -.292E+01 -.385E+01   -.241E-02 -.389E-02 0.251E-01
   0.202E+02 -.348E+02 -.585E+03   -.185E+02 0.319E+02 0.589E+03   -.169E+01 0.292E+01 -.385E+01   -.217E-02 0.403E-02 0.251E-01
   0.403E+02 0.353E-01 0.585E+03   -.369E+02 -.332E-01 -.589E+03   -.337E+01 -.384E-02 0.385E+01   -.457E-02 0.139E-03 -.251E-01
   -.201E+02 -.349E+02 0.585E+03   0.184E+02 0.320E+02 -.589E+03   0.168E+01 0.292E+01 0.385E+01   0.241E-02 0.389E-02 -.251E-01
   -.202E+02 0.348E+02 0.585E+03   0.185E+02 -.319E+02 -.589E+03   0.169E+01 -.292E+01 0.385E+01   0.217E-02 -.403E-02 -.251E-01
   -.442E-09 -.185E-09 -.648E-10   -.142E-13 0.213E-13 0.000E+00   -.222E-15 -.444E-15 -.444E-15   -.781E-12 0.845E-12 0.446E-11

 POSITION                                       TOTAL-FORCE (eV/Angst)
      2.98044      1.72076     11.74474         0.000000      0.000000     -0.001335
      5.96089      3.44152     11.74376         0.000000      0.000000      0.001335
     -0.00000     -0.00000     10.52792         0.000000      0.000000     -0.022881
     -0.00000     -0.00000     12.96058         0.000000      0.000000      0.022881
      3.68152     -0.00050     13.19294        -0.005170      0.002496     -0.029616
      1.13925      1.97424     13.19294         0.004747      0.003229     -0.029616
      4.12057      3.18854     13.19294         0.000423     -0.005725     -0.029616
      2.27936      0.00050     10.29556         0.005170     -0.002496      0.029616
      1.84119      3.18803     10.29556        -0.004747     -0.003229      0.029616
      4.82076      1.97373     10.29556        -0.000423      0.005725      0.029616
    total drift:                               -0.000000     -0.000000     -0.000000

  FREE ENERGIE OF THE ION-ELECTRON SYSTEM (eV)
  free  energy   TOTEN  =       -41.27063637 eV

  energy  without entropy=      -41.27063637  energy(sigma->0) =      -41.27063637

 d Force = 0.2359652E-03[-0.754E-04, 0.547E-03]  d Energy = 0.8684187E-04 0.149E-03
 d Force = 0.2751231E+01[ 0.275E+01, 0.275E+01]  d Ewald  = 0.4823194E+01-0.207E+01

 reached required accuracy - stopping structural energy minimisation

 total charge

[...]

 magnetization (x)

# of ion       s       p       d       tot
    1       -0.000  -0.000   0.048   0.048
    2       -0.000  -0.000   0.048   0.048
    3       -0.000  -0.001   0.000  -0.001
    4       -0.000  -0.001   0.000  -0.001
    5        0.001   0.005   0.000   0.006
    6        0.000   0.003   0.000   0.003
    7        0.001   0.005   0.000   0.006
    8        0.001   0.005   0.000   0.006
    9        0.000   0.003   0.000   0.003
   10        0.001   0.005   0.000   0.006
tot          0.003   0.023   0.097   0.124

 BZINTS: Fermi energy: -2.850992; 64.000000 electrons
         Band energy:-522.050353;  BLOECHL correction: -0.009178