 vasp.5.4.4.18Apr17-6-g9f103f2a35 (build May  1 2020 15:48:39) complex
 executed on             LinuxGNU date 2020.06.20  10:52:00

 INCAR:
 POTCAR:   PAW_PBE Ni 06Sep2000
 POTCAR:   PAW_PBE Si 05Jan2001
 POTCAR:    PAW_PBE P 17Jan2003
 POTCAR:   PAW_PBE Se 06Sep2000

 POTCAR:   PAW_PBE Ni 06Sep2000
   VRHFIN =Ni:

   TITEL  = PAW_PBE Ni 06Sep2000
   POMASS =   58.690; ZVAL   =   10.000    mass and valenz
   ENMAX  =  269.533; ENMIN  =  202.150 eV
   QCUT   =   -4.451; QGAM   =    8.902    optimization parameters

   Description
     l     E      TYP  RCUT    TYP  RCUT
     2   .000     23  2.300
     2   .000     23  2.300
     0   .000     23  2.300
     0   .000     23  2.300
     1  -.200     23  2.300
     1   .000     23  2.300
     3   .000      7   .000

 POTCAR:   PAW_PBE Si 05Jan2001
   VRHFIN =Si: s2p2

   TITEL  = PAW_PBE Si 05Jan2001
   POMASS =   28.085; ZVAL   =    4.000    mass and valenz
   ENMAX  =  245.345; ENMIN  =  184.009 eV
   QCUT   =   -4.246; QGAM   =    8.493    optimization parameters

[...]

 POTCAR:    PAW_PBE P 17Jan2003
   VRHFIN =P : s2p3

   TITEL  = PAW_PBE P 17Jan2003
   POMASS =   30.974; ZVAL   =    5.000    mass and valenz
   ENMAX  =  270.000; ENMIN  =  191.280 eV
   QCUT   =   -4.330; QGAM   =    8.659    optimization parameters

[...]

 POTCAR:   PAW_PBE Se 06Sep2000
   VRHFIN =Se: s2p4

   TITEL  = PAW_PBE Se 06Sep2000
   POMASS =   78.960; ZVAL   =    6.000    mass and valenz
   ENMAX  =  211.534; ENMIN  =  158.651 eV
   QCUT   =   -3.943; QGAM   =    7.886    optimization parameters

   Description
     l     E      TYP  RCUT    TYP  RCUT
     0   .000     23  2.100
     0   .000     23  2.100
     1   .000     23  2.100
     1   .000     23  2.100
     2   .000     23  2.100
     3  -.100      7  2.100

 Optimization of the real space projectors (new method)

 maximal supplied QI-value         = 16.25
 optimisation between [QCUT,QGAM] = [ 11.54, 23.24] = [ 37.28,151.24] Ry
 Optimized for a Real-space Cutoff    1.49 Angstroem

   l    n(q)    QCUT    max X(q) W(low)/X(q) W(high)/X(q)  e(spline)
   2      9    11.539     4.811    0.20E-04    0.14E-04    0.45E-07
   2      9    11.539    15.146    0.24E-03    0.12E-03    0.20E-06
   0     10    11.539    14.357    0.18E-04    0.12E-05    0.14E-07
   0     10    11.539    43.282    0.39E-04    0.17E-04    0.23E-06
   1     10    11.539     5.514    0.99E-05    0.13E-04    0.19E-07
   1     10    11.539     7.697    0.38E-04    0.79E-04    0.91E-07
 Optimization of the real space projectors (new method)

[...]

   l    n(q)    QCUT    max X(q) W(low)/X(q) W(high)/X(q)  e(spline)
   0      8    11.508     6.651    0.19E-04    0.31E-05    0.49E-08
   0      8    11.508    90.285    0.95E-04    0.17E-03    0.51E-07
   1      8    11.508     4.328    0.14E-04    0.32E-04    0.22E-07
   1      8    11.508    54.583    0.16E-03    0.71E-04    0.89E-07
 Optimization of the real space projectors (new method)

 maximal supplied QI-value         = 17.95
 optimisation between [QCUT,QGAM] = [ 11.67, 23.34] = [ 38.13,152.52] Ry
 Optimized for a Real-space Cutoff    1.25 Angstroem

   l    n(q)    QCUT    max X(q) W(low)/X(q) W(high)/X(q)  e(spline)
   0      9    11.669     6.499    0.13E-04    0.81E-05    0.11E-07
   0      9    11.669    52.623    0.18E-03    0.46E-04    0.72E-07
   1      8    11.669     4.229    0.40E-04    0.45E-04    0.31E-07
   1      8    11.669    29.991    0.22E-03    0.36E-03    0.10E-06
   2      8    11.669     3.719    0.19E-03    0.46E-04    0.50E-07

 PAW_PBE Ni 06Sep2000                   :
 PAW_PBE Si 05Jan2001                   :
  PAW_PBE P 17Jan2003                   :
 PAW_PBE Se 06Sep2000                   :

 POSCAR: Ni2 Si P Se6
  positions in direct lattice
  velocities in cartesian coordinates
 exchange correlation table for  LEXCH =       42
   RHO(1)=    0.500       N(1)  =     2000
   RHO(2)=  100.500       N(2)  =     4000

 ion  position               nearest neighbor table
   1  0.333  0.333  0.500-   6 2.78   5 2.78   7 2.78   8 2.78  10 2.78   9 2.78
   2  0.667  0.667  0.500-   9 2.78   8 2.78  10 2.78   5 2.78   7 2.78   6 2.78
   3  0.000  0.000  0.448-   4 2.43   8 2.63  10 2.63   9 2.63
   4  0.000  0.000  0.552-   3 2.43   5 2.63   7 2.63   6 2.63
   5  0.626  0.000  0.574-   4 2.63   1 2.78   2 2.78
   6  0.000  0.373  0.574-   4 2.63   1 2.78   2 2.78
   7  0.373  0.626  0.574-   4 2.63   1 2.78   2 2.78
   8  0.374  1.000  0.426-   3 2.63   2 2.78   1 2.78
   9  1.000  0.627  0.426-   3 2.63   2 2.78   1 2.78
  10  0.627  0.374  0.426-   3 2.63   2 2.78   1 2.78

  LATTYP: Found a hexagonal cell.
 ALAT       =     6.9077769333
 C/A-ratio  =     3.3939410937

  Lattice vectors:

 A1 = (   3.4538890000,  -5.9823100000,   0.0000000000)
 A2 = (  -6.9077770000,   0.0000000000,   0.0000000000)
 A3 = (   0.0000000000,   0.0000000000, -23.4445880000)

Analysis of symmetry for initial positions (statically):
 Subroutine PRICEL returns:
 Original cell was already a primitive cell.

 Routine SETGRP: Setting up the symmetry group for a
 hexagonal supercell.

 Subroutine GETGRP returns: Found  3 space group operations
 (whereof  3 operations were pure point group operations)
 out of a pool of 24 trial point group operations.

The static configuration has the point symmetry C_3 .

Analysis of symmetry for dynamics (positions and initial velocities):
 Subroutine PRICEL returns:
 Original cell was already a primitive cell.

[...]

The dynamic configuration has the point symmetry C_3 .

Analysis of constrained symmetry for selective dynamics:
 Subroutine PRICEL returns:
 Original cell was already a primitive cell.

[...]

The constrained configuration has the point symmetry C_3 .

Analysis of structural, dynamic, and magnetic symmetry:
 Subroutine PRICEL returns:
 Original cell was already a primitive cell.

 Routine SETGRP: Setting up the symmetry group for a
 hexagonal supercell.

 Subroutine GETGRP returns: Found  3 space group operations
 (whereof  3 operations were pure point group operations)
 out of a pool of 24 trial point group operations.

The magnetic configuration has the point symmetry C_3 .

 Subroutine INISYM returns: Found  3 space group operations
 (whereof  3 operations are pure point group operations),
 and found     1 'primitive' translations

 KPOINTS: Kpoints from vasprun.xml

Automatic generation of k-mesh.
Space group operators:
 irot       det(A)        alpha          n_x          n_y          n_z        tau_x        tau_y        tau_z
    1     1.000000     0.000000     1.000000     0.000000     0.000000     0.000000     0.000000     0.000000
    2     1.000000   120.000000     0.000000     0.000000     1.000000     0.000000     0.000000     0.000000
    3     1.000000   120.000000     0.000000     0.000000    -1.000000     0.000000     0.000000     0.000000

 Subroutine IBZKPT returns following result:

 Found      5 irreducible k-points:

 Following reciprocal coordinates:
            Coordinates               Weight
  0.000000  0.000000  0.000000      1.000000
  0.200000  0.000000  0.000000      6.000000
  0.400000  0.000000  0.000000      6.000000
  0.400000  0.200000  0.000000      6.000000
 -0.400000  0.200000  0.000000      6.000000

 Following cartesian coordinates:
            Coordinates               Weight
  0.000000  0.000000  0.000000      1.000000
  0.028953 -0.016716  0.000000      6.000000
  0.057906 -0.033432  0.000000      6.000000
  0.057906  0.000000  0.000000      6.000000
 -0.057906  0.066864  0.000000      6.000000

 TETIRR: Found     15 inequivalent tetrahedra from      150

 SYSTEM =  unknown system
 POSCAR =  Ni2 Si P Se6

 Startparameter for this run:
   NWRITE =      2    write-flag & timer
   PREC   = accura    normal or accurate (medium, high low for compatibility)
   ISTART =      0    job   : 0-new  1-cont  2-samecut
   ICHARG =      2    charge: 1-file 2-atom 10-const
   ISPIN  =      2    spin polarized calculation?
   LNONCOLLINEAR =      F non collinear calculations
   LSORBIT =      F    spin-orbit coupling
   INIWAV =      1    electr: 0-lowe 1-rand  2-diag
   LASPH  =      F    aspherical Exc in radial PAW
   METAGGA=      F    non-selfconsistent MetaGGA calc.

 Electronic Relaxation 1
   ENCUT  =  520.0 eV  38.22 Ry    6.18 a.u.  12.84 12.84 43.59*2*pi/ulx,y,z
   ENINI  =  520.0     initial cutoff
   ENAUG  =  544.6 eV  augmentation charge cutoff
   NELM   =    400;   NELMIN=  2; NELMDL=  0     # of ELM steps
   EDIFF  = 0.1E-03   stopping-criterion for ELM
   LREAL  =      T    real-space projection
   NLSPLINE    = F    spline interpolate recip. space projectors
   LCOMPAT=      F    compatible to vasp.4.4
   GGA_COMPAT  = T    GGA compatible to vasp.4.4-vasp.4.6
   LMAXPAW     = -100 max onsite density
   LMAXMIX     =    2 max onsite mixed and CHGCAR
   VOSKOWN=      0    Vosko Wilk Nusair interpolation
   ROPT   =   -0.00025  -0.00025  -0.00025  -0.00025
 Ionic relaxation
   EDIFFG = 0.1E-02   stopping-criterion for IOM
   NSW    =     99    number of steps for IOM
   NBLOCK =      1;   KBLOCK =     99    inner block; outer block
   IBRION =      2    ionic relax: 0-MD 1-quasi-New 2-CG
   NFREE  =      1    steps in history (QN), initial steepest desc. (CG)
   ISIF   =      3    stress and relaxation
   IWAVPR =     11    prediction:  0-non 1-charg 2-wave 3-comb
   ISYM   =      2    0-nonsym 1-usesym 2-fastsym
   LCORR  =      T    Harris-Foulkes like correction to forces

   POTIM  = 0.5000    time-step for ionic-motion
   TEIN   =    0.0    initial temperature
   TEBEG  =    0.0;   TEEND  =   0.0 temperature during run
   SMASS  =  -3.00    Nose mass-parameter (am)
   estimated Nose-frequenzy (Omega)   =  0.10E-29 period in steps =****** mass=  -0.109E-26a.u.
   SCALEE = 1.0000    scale energy and forces
   NPACO  =    256;   APACO  = 16.0  distance and # of slots for P.C.
   PSTRESS=    0.0 pullay stress

  Mass of Ions in am
   POMASS =  58.69 28.09 30.97 78.96
  Ionic Valenz
   ZVAL   =  10.00  4.00  5.00  6.00
  Atomic Wigner-Seitz radii
  virtual crystal weights
   VCA    =   1.00  1.00  1.00  1.00
   NELECT =      65.0000    total number of electrons
   NUPDOWN=      -1.0000    fix difference up-down

 DOS related values:
   EMIN   =  10.00;   EMAX   =-10.00  energy-range for DOS
   EFERMI =   0.00
   ISMEAR =    -5;   SIGMA  =   0.05  broadening in eV -4-tet -1-fermi 0-gaus

 Electronic relaxation 2 (details)
   IALGO  =     38    algorithm
   LDIAG  =      T    sub-space diagonalisation (order eigenvalues)
   LSUBROT=      F    optimize rotation matrix (better conditioning)
   TURBO    =      0    0=normal 1=particle mesh
   IRESTART =      0    0=no restart 2=restart with 2 vectors
   NREBOOT  =      0    no. of reboots
   NMIN     =      0    reboot dimension
   EREF     =   0.00    reference energy to select bands
   IMIX   =      4    mixing-type and parameters
     AMIX     =   0.40;   BMIX     =  1.00
     AMIX_MAG =   1.60;   BMIX_MAG =  1.00
     AMIN     =   0.01
     WC   =   100.;   INIMIX=   1;  MIXPRE=   1;  MAXMIX= -45

 Intra band minimization:
   WEIMIN = 0.0010     energy-eigenvalue tresh-hold
   EBREAK =  0.52E-06  absolut break condition
[...]
    1        0.304   0.232   8.247   8.784
    2        0.304   0.232   8.247   8.783
    3        0.797   0.650   0.000   1.447
    4        1.100   1.202   0.000   2.301
    5        1.504   2.131   0.018   3.653
    6        1.499   2.112   0.018   3.629
    7        1.502   2.125   0.018   3.646
    8        1.496   2.146   0.017   3.659
    9        1.493   2.165   0.017   3.675
   10        1.495   2.153   0.017   3.665
tot         11.493  15.148  16.601  43.241

 magnetization (x)

[...]

  FORCE on cell =-STRESS in cart. coord.  units (eV):
  Direction    XX          YY          ZZ          XY          YZ          ZX
  Alpha Z    38.82080    38.82080    38.82080
  Ewald   10336.73094 10336.72865-12334.57977    -0.00203    -0.00054    -0.00098
  Hartree 11205.72696 11205.72805-10498.29375    -0.00044     0.00009     0.00014
  E(xc)    -270.43468  -270.43479  -270.50632     0.00011    -0.00002     0.00002
  Local  -22277.82180-22277.82161 22062.17296     0.00226     0.00030     0.00059
  n-local   260.98441   261.73285   270.82824     0.28550    -0.04342    -0.15618
  augment    62.83175    62.83180    58.46923     0.00009     0.00002     0.00003
  Kinetic   620.94337   616.45436   659.04192    -2.53527    -0.51487    -0.63959
  Fock        0.00000     0.00000     0.00000     0.00000     0.00000     0.00000
  Total     -24.08906   -24.08906   -14.04668     0.00000     0.00000     0.00000
  in kB     -39.83645   -39.83645   -23.22921     0.00000     0.00000     0.00000

 VOLUME and BASIS-vectors are now :
  energy-cutoff  :      520.00
  volume of cell :      968.84
      direct lattice vectors                 reciprocal lattice vectors
     6.907777000 -0.000000000  0.000000000     0.144764372 -0.083579742  0.000000000
     3.453888000  5.982310000  0.000000000     0.000000000  0.167159509 -0.000000000
     0.000000000  0.000000000 23.444588000    -0.000000000  0.000000000  0.042653767

[...]

 FORCES acting on ions
    electron-ion (+dipol)            ewald-force                    non-local-force                 convergence-correction
   0.239E-03 0.146E-03 0.982E+01   0.658E-03 0.396E-03 -.101E+02   0.000E+00 -.139E-16 0.299E+00   0.865E-05 0.481E-05 -.141E-01
   -.252E-03 -.123E-03 0.742E+01   -.658E-03 -.396E-03 -.773E+01   -.694E-17 0.000E+00 0.302E+00   -.860E-05 -.516E-05 -.136E-01
   -.951E-05 -.654E-04 0.200E+03   -.141E-03 -.779E-04 -.199E+03   -.694E-17 0.139E-16 -.948E+00   -.917E-06 -.468E-06 -.162E-01
   0.244E-04 0.457E-04 -.235E+03   0.176E-03 0.974E-04 0.233E+03   -.694E-17 0.000E+00 0.187E+01   0.135E-05 0.754E-06 0.486E-02
   -.164E+02 0.151E+00 -.428E+03   0.153E+02 -.146E+00 0.429E+03   0.199E+01 -.693E-02 -.255E+01   0.164E-01 -.415E-02 0.287E-01
   0.833E+01 0.141E+02 -.428E+03   -.778E+01 -.132E+02 0.429E+03   -.100E+01 -.172E+01 -.255E+01   -.118E-01 -.121E-01 0.287E-01
   0.806E+01 -.143E+02 -.428E+03   -.752E+01 0.133E+02 0.429E+03   -.990E+00 0.173E+01 -.255E+01   -.459E-02 0.162E-01 0.287E-01
   0.232E+02 -.154E+00 0.433E+03   -.219E+02 0.154E+00 -.435E+03   -.234E+01 0.117E-01 0.273E+01   -.152E-01 -.524E-02 -.478E-01
   -.117E+02 -.200E+02 0.433E+03   0.111E+02 0.189E+02 -.435E+03   0.118E+01 0.202E+01 0.273E+01   0.308E-02 0.158E-01 -.478E-01
   -.114E+02 0.201E+02 0.433E+03   0.108E+02 -.191E+02 -.435E+03   0.116E+01 -.203E+01 0.273E+01   0.121E-01 -.106E-01 -.478E-01
   0.511E-04 -.193E-05 -.196E+01   0.000E+00 0.355E-14 0.568E-13   0.000E+00 0.000E+00 0.207E+01   0.470E-06 -.743E-07 -.962E-01

 POSITION                                       TOTAL-FORCE (eV/Angst)
      3.45388      1.99410     11.72054        -0.000000     -0.000000     -0.007662
      6.90778      3.98821     11.72405        -0.000000     -0.000000     -0.022769
      0.00000      0.00000     10.50824        -0.000000     -0.000000      0.258063
      0.00000      0.00000     12.93635        -0.000000     -0.000000     -0.248132
      4.32819      0.00251     13.45138         0.921496     -0.005730     -1.318375
      1.29198      2.23274     13.45138        -0.465710     -0.795173     -1.318375
      4.74152      3.74706     13.45138        -0.455785      0.800904     -1.318375
      6.03348      5.97980      9.99321        -1.100863      0.005811      1.325208
      9.06969      3.74957      9.99321         0.555464      0.950469      1.325208
      5.62015      2.23525      9.99321         0.545399     -0.956280      1.325208
    total drift:                                0.000052     -0.000002      0.005400

  FREE ENERGIE OF THE ION-ELECTRON SYSTEM (eV)
  free  energy   TOTEN  =       -34.59642768 eV

  energy  without entropy=      -34.59642768  energy(sigma->0) =      -34.59642768

[...]

 d Force = 0.3484608E+00[-0.440E-01, 0.741E+00]  d Energy = 0.4264141E+01-0.392E+01
 d Force =-0.1771811E+03[-0.200E+03,-0.154E+03]  d Ewald  =-0.2060425E+04 0.188E+04

 Steepest descent step on ions:
 trial-energy change:   -4.264141  1 .order   -3.095037   -7.360983    1.170908
  (g-gl).g = 0.736E+01      g.g   = 0.736E+01  gl.gl    = 0.000E+00
 g(Force)  = 0.810E+00   g(Stress)= 0.655E+01 ortho     = 0.000E+00
 gamma     =   0.00000
 trial     =   1.00000
 opt step  =   0.92193  (harmonic =   0.86276) maximal distance =0.05894064
 next E    =   -38.905717   (d E  =  -4.30929)

[...]

 d Force =-0.1288386E-02[-0.627E-02, 0.369E-02]  d Energy = 0.2502259E-01-0.263E-01
 d Force = 0.1666447E+02[ 0.165E+02, 0.168E+02]  d Ewald  = 0.1893081E+03-0.173E+03

[...]

 d Force = 0.8182544E-03[ 0.711E-03, 0.925E-03]  d Energy = 0.2639085E-02-0.182E-02
 d Force =-0.2446015E+01[-0.245E+01,-0.244E+01]  d Ewald  =-0.2787056E+02 0.254E+02

[...]

 d Force = 0.7033576E-02[ 0.243E-02, 0.116E-01]  d Energy = 0.6807456E-02 0.226E-03
 d Force =-0.6913599E+00[-0.693E+00,-0.690E+00]  d Ewald  = 0.1543458E+01-0.223E+01

 Conjugate gradient step on ions:
 trial-energy change:   -0.006807  1 .order   -0.006861   -0.011550   -0.002173
  (g-gl).g =-0.685E-01      g.g   = 0.125E-01  gl.gl    = 0.736E+01
 g(Force)  = 0.124E-01   g(Stress)= 0.107E-03 ortho     = 0.809E-01
 gamma     =  -0.00930
 trial     =   0.98671
 opt step  =   1.21540  (harmonic =   1.21540) maximal distance =0.01306624
 next E    =   -38.895344   (d E  =  -0.00711)

[...]

 d Force = 0.2394751E-02[ 0.125E-02, 0.354E-02]  d Energy = 0.3349534E-02-0.955E-03
 d Force =-0.8188146E+01[-0.818E+01,-0.819E+01]  d Ewald  = 0.4191405E+02-0.501E+02

 Conjugate gradient step on ions:
 trial-energy change:   -0.003350  1 .order   -0.003187   -0.004592   -0.001781
  (g-gl).g = 0.400E-02      g.g   = 0.439E-02  gl.gl    = 0.125E-01
 g(Force)  = 0.332E-02   g(Stress)= 0.108E-02 ortho     = 0.170E-03
 gamma     =   0.32117
 trial     =   1.03245
 opt step  =   1.68654  (harmonic =   1.68654) maximal distance =0.01164708
 next E    =   -38.899066   (d E  =  -0.00375)

[...]

 d Force = 0.3273073E-03[-0.135E-03, 0.790E-03]  d Energy = 0.1998355E-03 0.127E-03
 d Force =-0.5185086E+01[-0.518E+01,-0.519E+01]  d Ewald  = 0.2649675E+02-0.317E+02

[...]

 d Force = 0.1555280E-03[ 0.141E-03, 0.170E-03]  d Energy =-0.4966064E-03 0.652E-03
 d Force =-0.2596074E+00[-0.258E+00,-0.261E+00]  d Ewald  = 0.4716893E+02-0.474E+02

 Conjugate gradient step on ions:
 trial-energy change:    0.000497  1 .order   -0.000240   -0.001562    0.001083
  (g-gl).g = 0.127E-02      g.g   = 0.132E-02  gl.gl    = 0.439E-02
 g(Force)  = 0.206E-03   g(Stress)= 0.111E-02 ortho     = 0.886E-04
 gamma     =   0.28801
 trial     =   1.16327
 opt step  =   0.68709  (harmonic =   0.68709) maximal distance =0.00136008
 next E    =   -38.899326   (d E  =  -0.00046)

[...]

 eigenvalue-minimisations  :  1024
 total energy-change (2. order) : 0.6894822E-03  (-0.1726910E-03)
 number of electron      64.9999992 magnetization       0.0018636
 augmentation part        4.8708083 magnetization       0.0046432

 Broyden mixing:
  rms(total) = 0.76875E-02    rms(broyden)= 0.76841E-02
  rms(prec ) = 0.83457E-02
  weight for this iteration     100.00

 eigenvalues of (default mixing * dielectric matrix)
  average eigenvalue GAMMA=   0.7296
  1.7298  0.7658  0.2878  0.1351

[...]

--------------------------------------- Iteration     10(   6)  ---------------------------------------

[...]

 eigenvalue-minimisations  :   816
 total energy-change (2. order) :-0.9240360E-04  (-0.1888035E-04)
 number of electron      64.9999992 magnetization       0.0018636
 augmentation part        4.8708083 magnetization       0.0046432

 Free energy of the ion-electron system (eV)
  alpha Z        PSCENC =        51.87051724
  Ewald energy   TEWEN  =     10139.66140530
  -Hartree energ DENC   =    -13747.59425488
  -exchange      EXHF   =         0.00000000
  -V(xc)+E(xc)   XCENC  =        48.25123562
  PAW double counting   =      2587.26825602    -2609.06233292
  entropy T*S    EENTRO =         0.00000000
  eigenvalues    EBANDS =      -503.44799273
  atomic energy  EATOM  =      3994.15407262
  Solvation  Ediel_sol  =         0.00000000
  free energy    TOTEN  =       -38.89909374 eV

  energy without entropy =      -38.89909374  energy(sigma->0) =      -38.89909374

 average (electrostatic) potential at core
  the test charge radii are     0.9791  0.9892  0.9587  1.0808
  (the norm of the test charge is              1.0000)
       1 -49.8397       2 -49.8403       3 -92.8882       4 -92.7939       5 -61.5389
       6 -61.5389       7 -61.5389       8 -61.1417       9 -61.1417      10 -61.1417

 E-fermi :  -2.5505     XC(G=0):  -3.6520     alpha+bet : -2.7718

[...]

 spin component 2

[...]

 k-point     5 :      -0.4000    0.2000    0.0000
  band No.  band energies     occupation
      1     -17.3660      1.00000
      2     -16.4124      1.00000
      3     -16.1189      1.00000
      4     -16.0061      1.00000
      5     -15.7346      1.00000
      6     -15.5535      1.00000
      7     -12.5093      1.00000
      8      -9.9870      1.00000
      9      -8.3954      1.00000
     10      -7.9172      1.00000
     11      -7.7341      1.00000
     12      -7.1518      1.00000
     13      -7.1145      1.00000
     14      -6.4880      1.00000
     15      -6.2476      1.00000
     16      -6.0312      1.00000
     17      -6.0141      1.00000
     18      -5.8295      1.00000
     19      -5.6146      1.00000
     20      -5.4638      1.00000
     21      -5.3233      1.00000
     22      -4.7825      1.00000
     23      -4.6212      1.00000
     24      -4.4954      1.00000
     25      -4.3698      1.00000
     26      -4.3045      1.00000
     27      -4.2073      1.00000
     28      -4.0966      1.00000
     29      -3.8992      1.00000
     30      -3.8463      1.00000
     31      -3.7157      1.00000
     32      -2.7752      1.00000
     33      -2.6482      0.96901
     34      -2.2102      0.00000
     35      -1.8545      0.00000
     36      -1.4467      0.00000
     37      -0.1433      0.00000
     38      -0.0344      0.00000
     39       0.2965      0.00000
     40       1.0733      0.00000
     41       1.3067      0.00000
     42       1.4461      0.00000
     43       2.5580      0.00000
     44       2.7656      0.00000
     45       2.8054      0.00000
     46       2.9688      0.00000
     47       3.0473      0.00000
     48       3.6046      0.00000

[...]

 soft charge-density along one line, spin component           2
         0         1         2         3         4         5         6         7         8         9
 total charge-density along one line

------------------------ aborting loop because EDIFF is reached ----------------------------------------

[...]

  FORCE on cell =-STRESS in cart. coord.  units (eV):
  Direction    XX          YY          ZZ          XY          YZ          ZX
  Alpha Z    51.87052    51.87052    51.87052
  Ewald   12387.09829 12387.09540-14634.53514    -0.00215    -0.00063    -0.00113
  Hartree 13139.42586 13139.42693-12531.63273    -0.00040     0.00009     0.00014
  E(xc)    -277.09143  -277.09151  -277.03178     0.00009     0.00000     0.00001
  Local  -26286.74729-26286.74687 26369.29130     0.00216     0.00034     0.00063
  n-local   275.37590   276.22821   278.57371     0.30685     0.36870     0.33635
  augment    63.46509    63.46491    59.40816     0.00031     0.00002     0.00005
  Kinetic   650.68182   641.01618   684.00624    -5.19686    -1.59438    -1.78088
  Fock        0.00000     0.00000     0.00000     0.00000     0.00000     0.00000
  Total      -0.32874    -0.32874    -0.04974    -0.00000     0.00000     0.00000
  in kB      -0.72638    -0.72638    -0.10990    -0.00000     0.00000     0.00000

 VOLUME and BASIS-vectors are now :
  energy-cutoff  :      520.00
  volume of cell :      725.09
      direct lattice vectors                 reciprocal lattice vectors
     6.179892735  0.000000366  0.000000000     0.161815112 -0.093423980 -0.000000000
     3.089945709  5.351944035 -0.000000000    -0.000000011  0.186847999  0.000000000
    -0.000000000 -0.000000000 21.923063339    -0.000000000  0.000000000  0.045614063

  length of vectors
     6.179892735  6.179892349 21.923063339     0.186847987  0.186847999  0.045614063

 FORCES acting on ions
    electron-ion (+dipol)            ewald-force                    non-local-force                 convergence-correction
   -.123E-03 -.733E-04 0.115E+02   0.830E-03 0.493E-03 -.123E+02   -.278E-16 0.137E-16 0.779E+00   0.209E-06 0.198E-06 0.184E-02
   0.113E-03 0.827E-04 0.102E+02   -.833E-03 -.494E-03 -.109E+02   -.278E-16 -.173E-18 0.759E+00   -.208E-06 0.106E-06 0.365E-02
   -.272E-04 -.566E-04 0.254E+03   -.190E-03 -.106E-03 -.252E+03   0.240E-18 0.472E-18 -.208E+01   0.188E-07 0.752E-09 0.838E-02
   0.421E-04 0.535E-04 -.302E+03   0.238E-03 0.133E-03 0.297E+03   0.272E-16 -.104E-17 0.460E+01   -.110E-07 0.444E-08 -.111E-01
   -.139E+02 0.123E-01 -.536E+03   0.122E+02 -.252E-01 0.538E+03   0.173E+01 -.290E-02 -.200E+01   -.568E-02 0.125E-01 -.169E-01
   0.696E+01 0.120E+02 -.536E+03   -.611E+01 -.105E+02 0.538E+03   -.868E+00 -.150E+01 -.200E+01   0.137E-01 -.133E-02 -.169E-01
   0.694E+01 -.120E+02 -.536E+03   -.607E+01 0.106E+02 0.538E+03   -.863E+00 0.150E+01 -.200E+01   -.799E-02 -.112E-01 -.169E-01
   0.240E+02 0.767E-02 0.544E+03   -.224E+02 -.241E-01 -.546E+03   -.167E+01 0.683E-02 0.207E+01   0.412E-02 0.137E-01 0.217E-01
   -.120E+02 -.208E+02 0.544E+03   0.112E+02 0.194E+02 -.546E+03   0.842E+00 0.145E+01 0.207E+01   0.979E-02 -.104E-01 0.217E-01
   -.120E+02 0.208E+02 0.544E+03   0.112E+02 -.193E+02 -.546E+03   0.830E+00 -.145E+01 0.207E+01   -.139E-01 -.327E-02 0.217E-01
   0.118E-04 0.734E-04 -.429E+01   -.178E-14 -.107E-13 0.000E+00   -.444E-15 0.000E+00 0.428E+01   0.149E-07 0.316E-06 0.172E-01

 POSITION                                       TOTAL-FORCE (eV/Angst)
      3.08994      1.78398     10.95786         0.000000     -0.000000      0.006547
      6.17990      3.56796     10.95987         0.000000     -0.000000      0.000226
     -0.00000     -0.00000      9.83380         0.000000      0.000000     -0.051110
     -0.00000     -0.00000     12.09101         0.000000      0.000000     -0.005490
      3.93343      0.00094     12.51801         0.006036     -0.002549      0.007209
      1.12405      1.94503     12.51801        -0.005226     -0.003952      0.007209
      4.21237      3.40598     12.51801        -0.000810      0.006502      0.007209
      5.34219      5.35128      9.40625        -0.003508      0.003372      0.009400
      8.14314      3.40177      9.40625         0.004674      0.001352      0.009400
      5.05434      1.95083      9.40625        -0.001166     -0.004724      0.009400
    total drift:                                0.000012      0.000074      0.007764

  FREE ENERGIE OF THE ION-ELECTRON SYSTEM (eV)
  free  energy   TOTEN  =       -38.89909374 eV

  energy  without entropy=      -38.89909374  energy(sigma->0) =      -38.89909374

 d Force =-0.5436286E-04[-0.511E-04,-0.576E-04]  d Energy = 0.7256964E-03-0.780E-03
 d Force = 0.1059797E+00[ 0.106E+00, 0.106E+00]  d Ewald  =-0.1927232E+02 0.194E+02

 reached required accuracy - stopping structural energy minimisation

 total charge

[...]

 magnetization (x)

# of ion       s       p       d       tot
    1       -0.001   0.001  -0.575  -0.574
    2        0.001  -0.001   0.577   0.576
    3       -0.000   0.000   0.000   0.000
    4       -0.000   0.000   0.000   0.000
    5        0.001  -0.000  -0.000   0.000
    6        0.000  -0.004  -0.000  -0.004
    7       -0.001   0.005   0.000   0.005
    8       -0.000   0.014   0.000   0.014
    9       -0.000   0.007   0.000   0.007
   10        0.000  -0.021  -0.000  -0.021
tot          0.000   0.001   0.002   0.003

 BZINTS: Fermi energy: -2.550485; 65.000000 electrons
         Band energy:-503.447993;  BLOECHL correction: -0.029358