 vasp.5.4.4.18Apr17-6-g9f103f2a35 (build May  1 2020 15:48:39) complex
 executed on             LinuxGNU date 2020.06.14  22:31:31

 INCAR:
 POTCAR:   PAW_PBE Ni 06Sep2000
 POTCAR:   PAW_PBE Si 05Jan2001
 POTCAR:   PAW_PBE Ge 05Jan2001
 POTCAR:   PAW_PBE Te 08Apr2002

 POTCAR:   PAW_PBE Ni 06Sep2000
   VRHFIN =Ni:

   TITEL  = PAW_PBE Ni 06Sep2000
   POMASS =   58.690; ZVAL   =   10.000    mass and valenz
   ENMAX  =  269.533; ENMIN  =  202.150 eV
   QCUT   =   -4.451; QGAM   =    8.902    optimization parameters

   Description
     l     E      TYP  RCUT    TYP  RCUT
     2   .000     23  2.300
     2   .000     23  2.300
     0   .000     23  2.300
     0   .000     23  2.300
     1  -.200     23  2.300
     1   .000     23  2.300
     3   .000      7   .000

 POTCAR:   PAW_PBE Si 05Jan2001
   VRHFIN =Si: s2p2

   TITEL  = PAW_PBE Si 05Jan2001
   POMASS =   28.085; ZVAL   =    4.000    mass and valenz
   ENMAX  =  245.345; ENMIN  =  184.009 eV
   QCUT   =   -4.246; QGAM   =    8.493    optimization parameters

[...]

 POTCAR:   PAW_PBE Ge 05Jan2001
   VRHFIN =Ge: s2p2

   TITEL  = PAW_PBE Ge 05Jan2001
   POMASS =   72.610; ZVAL   =    4.000    mass and valenz
   ENMAX  =  173.807; ENMIN  =  130.355 eV
   QCUT   =   -3.574; QGAM   =    7.148    optimization parameters

[...]

 POTCAR:   PAW_PBE Te 08Apr2002
   VRHFIN =Te: s2p4

   TITEL  = PAW_PBE Te 08Apr2002
   POMASS =  127.600; ZVAL   =    6.000    mass and valenz
   ENMAX  =  174.982; ENMIN  =  131.236 eV
   QCUT   =   -3.586; QGAM   =    7.172    optimization parameters

   Description
     l     E      TYP  RCUT    TYP  RCUT
     0   .000     23  2.300
     0   .000     23  2.300
     1   .000     23  2.300
     1   .000     23  2.300
     2   .000     23  2.300
     3  -.100     23  2.300

 Optimization of the real space projectors (new method)

 maximal supplied QI-value         = 16.25
 optimisation between [QCUT,QGAM] = [ 11.54, 23.24] = [ 37.28,151.24] Ry
 Optimized for a Real-space Cutoff    1.49 Angstroem

   l    n(q)    QCUT    max X(q) W(low)/X(q) W(high)/X(q)  e(spline)
   2      9    11.539     4.811    0.20E-04    0.14E-04    0.45E-07
   2      9    11.539    15.146    0.24E-03    0.12E-03    0.20E-06
   0     10    11.539    14.357    0.18E-04    0.12E-05    0.14E-07
   0     10    11.539    43.282    0.39E-04    0.17E-04    0.23E-06
   1     10    11.539     5.514    0.99E-05    0.13E-04    0.19E-07
   1     10    11.539     7.697    0.38E-04    0.79E-04    0.91E-07
 Optimization of the real space projectors (new method)

[...]

   l    n(q)    QCUT    max X(q) W(low)/X(q) W(high)/X(q)  e(spline)
   0      9    11.539     8.651    0.22E-04    0.16E-04    0.10E-07
   0      9    11.539    33.192    0.11E-03    0.16E-03    0.65E-07
   1      8    11.539     5.899    0.37E-04    0.28E-04    0.43E-07
   1      8    11.539    27.289    0.22E-03    0.28E-04    0.14E-06
   2      8    11.539     4.673    0.11E-03    0.18E-03    0.58E-07
 Optimization of the real space projectors (new method)

 maximal supplied QI-value         = 16.25
 optimisation between [QCUT,QGAM] = [ 11.54, 23.24] = [ 37.28,151.24] Ry
 Optimized for a Real-space Cutoff    1.36 Angstroem

   l    n(q)    QCUT    max X(q) W(low)/X(q) W(high)/X(q)  e(spline)
   0      9    11.539     7.090    0.13E-04    0.25E-05    0.51E-08
   0      9    11.539   101.654    0.53E-04    0.69E-04    0.12E-06
   1      9    11.539     5.276    0.20E-04    0.98E-05    0.24E-07
   1      9    11.539    81.891    0.24E-03    0.13E-04    0.15E-06
   2      9    11.539     5.599    0.30E-04    0.97E-04    0.54E-07

 PAW_PBE Ni 06Sep2000                   :
 PAW_PBE Si 05Jan2001                   :
 PAW_PBE Ge 05Jan2001                   :
 PAW_PBE Te 08Apr2002                   :

 POSCAR: Ni2 Si Ge Te6
  positions in direct lattice
  velocities in cartesian coordinates
 exchange correlation table for  LEXCH =       42
   RHO(1)=    0.500       N(1)  =     2000
   RHO(2)=  100.500       N(2)  =     4000

 ion  position               nearest neighbor table
   1  0.333  0.333  0.500-   6 2.78   5 2.78   7 2.78   8 2.78  10 2.78   9 2.78
   2  0.667  0.667  0.500-   9 2.78   8 2.78  10 2.78   5 2.78   7 2.78   6 2.78
   3  0.000  0.000  0.448-   4 2.43   8 2.63  10 2.63   9 2.63
   4  0.000  0.000  0.552-   3 2.43   5 2.63   7 2.63   6 2.63
   5  0.626  0.000  0.574-   4 2.63   1 2.78   2 2.78
   6  0.000  0.373  0.574-   4 2.63   1 2.78   2 2.78
   7  0.373  0.626  0.574-   4 2.63   1 2.78   2 2.78
   8  0.374  1.000  0.426-   3 2.63   2 2.78   1 2.78
   9  1.000  0.627  0.426-   3 2.63   2 2.78   1 2.78
  10  0.627  0.374  0.426-   3 2.63   2 2.78   1 2.78

  LATTYP: Found a hexagonal cell.
 ALAT       =     6.9077769333
 C/A-ratio  =     3.3939410937

  Lattice vectors:

 A1 = (   3.4538890000,  -5.9823100000,   0.0000000000)
 A2 = (  -6.9077770000,   0.0000000000,   0.0000000000)
 A3 = (   0.0000000000,   0.0000000000, -23.4445880000)

Analysis of symmetry for initial positions (statically):
 Subroutine PRICEL returns:
 Original cell was already a primitive cell.

 Routine SETGRP: Setting up the symmetry group for a
 hexagonal supercell.

 Subroutine GETGRP returns: Found  3 space group operations
 (whereof  3 operations were pure point group operations)
 out of a pool of 24 trial point group operations.

The static configuration has the point symmetry C_3 .

Analysis of symmetry for dynamics (positions and initial velocities):
 Subroutine PRICEL returns:
 Original cell was already a primitive cell.

[...]

The dynamic configuration has the point symmetry C_3 .

Analysis of structural, dynamic, and magnetic symmetry:
 Subroutine PRICEL returns:
 Original cell was already a primitive cell.

 Routine SETGRP: Setting up the symmetry group for a
 hexagonal supercell.

 Subroutine GETGRP returns: Found  3 space group operations
 (whereof  3 operations were pure point group operations)
 out of a pool of 24 trial point group operations.

The magnetic configuration has the point symmetry C_3 .

 Subroutine INISYM returns: Found  3 space group operations
 (whereof  3 operations are pure point group operations),
 and found     1 'primitive' translations

 KPOINTS: Kpoints from vasprun.xml

Automatic generation of k-mesh.
Space group operators:
 irot       det(A)        alpha          n_x          n_y          n_z        tau_x        tau_y        tau_z
    1     1.000000     0.000000     1.000000     0.000000     0.000000     0.000000     0.000000     0.000000
    2     1.000000   120.000000     0.000000     0.000000     1.000000     0.000000     0.000000     0.000000
    3     1.000000   120.000000     0.000000     0.000000    -1.000000     0.000000     0.000000     0.000000

 Subroutine IBZKPT returns following result:

 Found      5 irreducible k-points:

 Following reciprocal coordinates:
            Coordinates               Weight
  0.000000  0.000000  0.000000      1.000000
  0.200000  0.000000  0.000000      6.000000
  0.400000  0.000000  0.000000      6.000000
  0.400000  0.200000  0.000000      6.000000
 -0.400000  0.200000  0.000000      6.000000

 Following cartesian coordinates:
            Coordinates               Weight
  0.000000  0.000000  0.000000      1.000000
  0.028953 -0.016716  0.000000      6.000000
  0.057906 -0.033432  0.000000      6.000000
  0.057906  0.000000  0.000000      6.000000
 -0.057906  0.066864  0.000000      6.000000

 TETIRR: Found     15 inequivalent tetrahedra from      150

 SYSTEM =  unknown system
 POSCAR =  Ni2 Si Ge Te6

 Startparameter for this run:
   NWRITE =      2    write-flag & timer
   PREC   = accura    normal or accurate (medium, high low for compatibility)
   ISTART =      0    job   : 0-new  1-cont  2-samecut
   ICHARG =      2    charge: 1-file 2-atom 10-const
   ISPIN  =      2    spin polarized calculation?
   LNONCOLLINEAR =      F non collinear calculations
   LSORBIT =      F    spin-orbit coupling
   INIWAV =      1    electr: 0-lowe 1-rand  2-diag
   LASPH  =      F    aspherical Exc in radial PAW
   METAGGA=      F    non-selfconsistent MetaGGA calc.

 Electronic Relaxation 1
   ENCUT  =  520.0 eV  38.22 Ry    6.18 a.u.  12.84 12.84 43.59*2*pi/ulx,y,z
   ENINI  =  520.0     initial cutoff
   ENAUG  =  544.6 eV  augmentation charge cutoff
   NELM   =    400;   NELMIN=  2; NELMDL=  0     # of ELM steps
   EDIFF  = 0.1E-03   stopping-criterion for ELM
   LREAL  =      T    real-space projection
   NLSPLINE    = F    spline interpolate recip. space projectors
   LCOMPAT=      F    compatible to vasp.4.4
   GGA_COMPAT  = T    GGA compatible to vasp.4.4-vasp.4.6
   LMAXPAW     = -100 max onsite density
   LMAXMIX     =    2 max onsite mixed and CHGCAR
   VOSKOWN=      0    Vosko Wilk Nusair interpolation
   ROPT   =   -0.00025  -0.00025  -0.00025  -0.00025
 Ionic relaxation
   EDIFFG = 0.1E-02   stopping-criterion for IOM
   NSW    =     99    number of steps for IOM
   NBLOCK =      1;   KBLOCK =     99    inner block; outer block
   IBRION =      2    ionic relax: 0-MD 1-quasi-New 2-CG
   NFREE  =      1    steps in history (QN), initial steepest desc. (CG)
   ISIF   =      3    stress and relaxation
   IWAVPR =     11    prediction:  0-non 1-charg 2-wave 3-comb
   ISYM   =      2    0-nonsym 1-usesym 2-fastsym
   LCORR  =      T    Harris-Foulkes like correction to forces

   POTIM  = 0.5000    time-step for ionic-motion
   TEIN   =    0.0    initial temperature
   TEBEG  =    0.0;   TEEND  =   0.0 temperature during run
   SMASS  =  -3.00    Nose mass-parameter (am)
   estimated Nose-frequenzy (Omega)   =  0.10E-29 period in steps =****** mass=  -0.109E-26a.u.
   SCALEE = 1.0000    scale energy and forces
   NPACO  =    256;   APACO  = 16.0  distance and # of slots for P.C.
   PSTRESS=    0.0 pullay stress

  Mass of Ions in am
   POMASS =  58.69 28.09 72.61127.60
  Ionic Valenz
   ZVAL   =  10.00  4.00  4.00  6.00
  Atomic Wigner-Seitz radii
  virtual crystal weights
   VCA    =   1.00  1.00  1.00  1.00
   NELECT =      64.0000    total number of electrons
   NUPDOWN=      -1.0000    fix difference up-down

 DOS related values:
   EMIN   =  10.00;   EMAX   =-10.00  energy-range for DOS
   EFERMI =   0.00
   ISMEAR =    -5;   SIGMA  =   0.05  broadening in eV -4-tet -1-fermi 0-gaus

 Electronic relaxation 2 (details)
   IALGO  =     38    algorithm
   LDIAG  =      T    sub-space diagonalisation (order eigenvalues)
   LSUBROT=      F    optimize rotation matrix (better conditioning)
   TURBO    =      0    0=normal 1=particle mesh
   IRESTART =      0    0=no restart 2=restart with 2 vectors
   NREBOOT  =      0    no. of reboots
   NMIN     =      0    reboot dimension
   EREF     =   0.00    reference energy to select bands
   IMIX   =      4    mixing-type and parameters
     AMIX     =   0.40;   BMIX     =  1.00
     AMIX_MAG =   1.60;   BMIX_MAG =  1.00
     AMIN     =   0.01
     WC   =   100.;   INIMIX=   1;  MIXPRE=   1;  MAXMIX= -45

 Intra band minimization:
   WEIMIN = 0.0010     energy-eigenvalue tresh-hold
   EBREAK =  0.52E-06  absolut break condition
   DEPER  =   0.30     relativ break condition

   TIME   =   0.40     timestep for ELM

  volume/ion in A,a.u.               =      96.88       653.80
[...]
      4.32819      0.00251     13.45138        -0.439504     -0.006460     -0.553889
      1.29198      2.23274     13.45138         0.214157      0.383852     -0.553889
      4.74152      3.74706     13.45138         0.225347     -0.377392     -0.553889
      6.03348      5.97980      9.99321        -0.193675      0.006569      0.656020
      9.06969      3.74957      9.99321         0.102526      0.164443      0.656020
      5.62015      2.23525      9.99321         0.091149     -0.171012      0.656020
    total drift:                                0.000019      0.000009      0.000589

  FREE ENERGIE OF THE ION-ELECTRON SYSTEM (eV)
  free  energy   TOTEN  =       -32.46534582 eV

  energy  without entropy=      -32.46534582  energy(sigma->0) =      -32.46534582

[...]

 d Force = 0.8757220E-01[ 0.356E-01, 0.140E+00]  d Energy = 0.3676271E+00-0.280E+00
 d Force =-0.7739891E+02[-0.801E+02,-0.747E+02]  d Ewald  =-0.4039159E+03 0.327E+03

 Steepest descent step on ions:
 trial-energy change:   -0.367627  1 .order   -0.338512   -0.782702    0.105677
  (g-gl).g = 0.783E+00      g.g   = 0.783E+00  gl.gl    = 0.000E+00
 g(Force)  = 0.144E+00   g(Stress)= 0.639E+00 ortho     = 0.000E+00
 gamma     =   0.00000
 trial     =   1.00000
 opt step  =   0.89891  (harmonic =   0.88105) maximal distance =0.02844895
 next E    =   -32.838284   (d E  =  -0.37294)

[...]

 d Force =-0.4454596E-02[-0.518E-02,-0.373E-02]  d Energy = 0.1208651E-01-0.165E-01
 d Force = 0.8340886E+01[ 0.831E+01, 0.837E+01]  d Ewald  = 0.4251731E+02-0.342E+02

[...]

 d Force =-0.3185289E-02[-0.340E-02,-0.297E-02]  d Energy = 0.2002960E-02-0.519E-02
 d Force = 0.4763586E+01[ 0.475E+01, 0.477E+01]  d Ewald  = 0.2428500E+02-0.195E+02

[...]

 d Force = 0.6510592E-01[ 0.509E-01, 0.793E-01]  d Energy = 0.8268088E-01-0.176E-01
 d Force =-0.2161234E+02[-0.217E+02,-0.216E+02]  d Ewald  = 0.9040355E+02-0.112E+03

 Conjugate gradient step on ions:
 trial-energy change:   -0.082681  1 .order   -0.070513   -0.087171   -0.053855
  (g-gl).g = 0.845E-01      g.g   = 0.895E-01  gl.gl    = 0.783E+00
 g(Force)  = 0.756E-01   g(Stress)= 0.139E-01 ortho     = 0.501E-02
 gamma     =   0.10794
 trial     =   0.96816
 opt step  =   1.35333  (harmonic =   2.53320) maximal distance =0.04021511
 next E    =   -32.941222   (d E  =  -0.09416)

[...]

 d Force = 0.9601410E-02[-0.168E-01, 0.360E-01]  d Energy =-0.2039187E-01 0.300E-01
 d Force =-0.3460083E+02[-0.347E+02,-0.345E+02]  d Ewald  = 0.1417273E+03-0.176E+03

[...]

 d Force = 0.2322434E-02[-0.302E-02, 0.767E-02]  d Energy = 0.1875795E-01-0.164E-01
 d Force = 0.1609689E+02[ 0.161E+02, 0.161E+02]  d Ewald  =-0.6483316E+02 0.809E+02

[...]

 d Force = 0.1678271E-01[-0.718E-02, 0.407E-01]  d Energy = 0.7501815E-02 0.928E-02
 d Force = 0.6284675E+01[ 0.636E+01, 0.621E+01]  d Ewald  = 0.3974694E+02-0.335E+02

 Conjugate gradient step on ions:
 trial-energy change:   -0.007502  1 .order   -0.017543   -0.056486    0.021400
  (g-gl).g = 0.338E-01      g.g   = 0.424E-01  gl.gl    = 0.895E-01
 g(Force)  = 0.280E-01   g(Stress)= 0.143E-01 ortho     =-0.267E-02
 gamma     =   0.37750
 trial     =   1.36588
 opt step  =   0.72758  (harmonic =   0.99059) maximal distance =0.02442370
 next E    =   -32.969555   (d E  =  -0.01353)

[...]

 d Force =-0.1349646E-02[-0.602E-02, 0.333E-02]  d Energy = 0.4152109E-02-0.550E-02
 d Force =-0.2928364E+01[-0.291E+01,-0.295E+01]  d Ewald  =-0.1854539E+02 0.156E+02

[...]

 Conjugate gradient step on ions:
 trial-energy change:   -0.005198  1 .order   -0.004992   -0.006274   -0.003709
  (g-gl).g =-0.325E-02      g.g   = 0.570E-02  gl.gl    = 0.424E-01
 g(Force)  = 0.549E-02   g(Stress)= 0.211E-03 ortho     = 0.830E-02
 gamma     =  -0.07675
 trial     =   1.23822
 opt step  =   3.02805  (harmonic =   3.02805) maximal distance =0.03476306
 next E    =   -32.975354   (d E  =  -0.00767)

[...]

 d Force = 0.3529653E-02[ 0.153E-02, 0.553E-02]  d Energy = 0.1780833E-02 0.175E-02
 d Force =-0.1106174E+01[-0.107E+01,-0.114E+01]  d Ewald  =-0.3029895E+02 0.292E+02

[...]

 d Force = 0.1601192E-02[ 0.135E-02, 0.185E-02]  d Energy = 0.2652742E-02-0.105E-02
 d Force = 0.1310311E+01[ 0.132E+01, 0.130E+01]  d Ewald  = 0.2088660E+02-0.196E+02

[...]

 d Force = 0.1507952E-01[ 0.118E-01, 0.184E-01]  d Energy =-0.1717570E-02 0.168E-01
 d Force =-0.4938526E+01[-0.398E+01,-0.590E+01]  d Ewald  = 0.1776611E+03-0.183E+03

[...]

 d Force =-0.5198838E-02[-0.569E-02,-0.471E-02]  d Energy = 0.3030630E-02-0.823E-02
 d Force = 0.1777036E+01[ 0.194E+01, 0.162E+01]  d Ewald  =-0.7163858E+02 0.734E+02

[...]

 d Force = 0.3553772E-01[ 0.352E-01, 0.359E-01]  d Energy =-0.2202411E-02 0.377E-01
 d Force = 0.1077496E+02[ 0.119E+02, 0.965E+01]  d Ewald  = 0.1015966E+03-0.908E+02

[...]

 d Force =-0.5888770E-01[-0.215E+00, 0.977E-01]  d Energy =-0.7042645E-01 0.115E-01
 d Force = 0.7899235E+02[ 0.943E+02, 0.637E+02]  d Ewald  = 0.4329718E+03-0.354E+03

[...]

 d Force = 0.6752302E-01[-0.401E-01, 0.175E+00]  d Energy = 0.8056412E-01-0.130E-01
 d Force =-0.6692284E+02[-0.572E+02,-0.766E+02]  d Ewald  =-0.3411675E+03 0.274E+03

[...]

 d Force = 0.1698628E-01[ 0.336E-02, 0.306E-01]  d Energy = 0.2693516E-01-0.995E-02
 d Force = 0.1798411E+02[ 0.183E+02, 0.177E+02]  d Ewald  =-0.1165260E+03 0.135E+03

[...]

 d Force = 0.6850948E-04[-0.725E-03, 0.862E-03]  d Energy =-0.2544083E-02 0.261E-02
 d Force = 0.4644045E+01[ 0.466E+01, 0.462E+01]  d Ewald  =-0.2968302E+02 0.343E+02

[...]

 d Force = 0.2037540E-03[-0.423E-02, 0.464E-02]  d Energy = 0.2466269E-02-0.226E-02
 d Force =-0.2685840E+00[-0.189E+00,-0.348E+00]  d Ewald  =-0.1441665E+03 0.144E+03

 Conjugate gradient step on ions:
 trial-energy change:   -0.002466  1 .order   -0.003455   -0.024994    0.018083
  (g-gl).g = 0.286E-01      g.g   = 0.252E-01  gl.gl    = 0.476E-01
 g(Force)  = 0.589E-02   g(Stress)= 0.193E-01 ortho     =-0.411E-02
 gamma     =   0.59999
 trial     =   1.09768
 opt step  =   0.59940  (harmonic =   0.63689) maximal distance =0.01649066
 next E    =   -33.125952   (d E  =  -0.00666)

[...]

 d Force = 0.3962431E-03[ 0.130E-03, 0.662E-03]  d Energy = 0.1071011E-03 0.289E-03
 d Force =-0.1507098E+01[-0.151E+01,-0.151E+01]  d Ewald  = 0.1328301E+02-0.148E+02

[...]

 d Force = 0.8013997E-03[ 0.590E-03, 0.101E-02]  d Energy = 0.9118056E-03-0.110E-03
 d Force = 0.3089274E+01[ 0.309E+01, 0.309E+01]  d Ewald  = 0.2861012E+02-0.255E+02

 Conjugate gradient step on ions:
 trial-energy change:   -0.000912  1 .order   -0.000811   -0.001630    0.000008
  (g-gl).g = 0.152E-02      g.g   = 0.151E-02  gl.gl    = 0.698E-02
 g(Force)  = 0.868E-03   g(Stress)= 0.646E-03 ortho     = 0.647E-05
 gamma     =   0.21836
 trial     =   1.07641
 opt step  =   1.07100  (harmonic =   1.07100) maximal distance =0.00283079
 next E    =   -33.130054   (d E  =  -0.00081)

[...]

 d Force =-0.2945035E-05[-0.293E-05,-0.296E-05]  d Energy = 0.1381407E-03-0.141E-03
 d Force =-0.1551281E-01[-0.155E-01,-0.155E-01]  d Ewald  =-0.1435772E+00 0.128E+00

[...]

 d Force = 0.4123466E-03[ 0.267E-03, 0.558E-03]  d Energy = 0.4246509E-03-0.123E-04
 d Force = 0.1106268E+01[ 0.111E+01, 0.111E+01]  d Ewald  =-0.5548885E+01 0.666E+01

 Conjugate gradient step on ions:
 trial-energy change:   -0.000425  1 .order   -0.000398   -0.000915    0.000119
  (g-gl).g =-0.526E-04      g.g   = 0.876E-03  gl.gl    = 0.151E-02
 g(Force)  = 0.537E-03   g(Stress)= 0.339E-03 ortho     = 0.725E-03
 gamma     =  -0.03475
 trial     =   1.07533
 opt step  =   0.95175  (harmonic =   0.95175) maximal distance =0.00220853
 next E    =   -33.130698   (d E  =  -0.00040)

[...]

 eigenvalue-minimisations  :  1008
 total energy-change (2. order) :-0.6115135E-03  (-0.2714101E-03)
 number of electron      63.9999999 magnetization      -0.0585458
 augmentation part        4.3436708 magnetization      -0.0208733

[...]

 Broyden mixing:
  rms(total) = 0.49530E-02    rms(broyden)= 0.49471E-02
  rms(prec ) = 0.54665E-02
  weight for this iteration     100.00

 eigenvalues of (default mixing * dielectric matrix)
  average eigenvalue GAMMA=   0.2430
  0.3276  0.1585

[...]

--------------------------------------- Iteration     36(   4)  ---------------------------------------

[...]

 eigenvalue-minimisations  :   720
 total energy-change (2. order) : 0.8753461E-05  (-0.1844809E-04)
 number of electron      63.9999999 magnetization      -0.0585335
 augmentation part        4.3149401 magnetization      -0.0226568

 Free energy of the ion-electron system (eV)
  alpha Z        PSCENC =        20.95824991
  Ewald energy   TEWEN  =      7519.40326544
  -Hartree energ DENC   =    -10904.70276901
  -exchange      EXHF   =         0.00000000
  -V(xc)+E(xc)   XCENC  =      -130.94679763
  PAW double counting   =      2568.99953363    -2430.77920372
  entropy T*S    EENTRO =         0.00000000
  eigenvalues    EBANDS =      -395.90999921
  atomic energy  EATOM  =      3719.84694474
  Solvation  Ediel_sol  =         0.00000000
  free energy    TOTEN  =       -33.13077585 eV

  energy without entropy =      -33.13077585  energy(sigma->0) =      -33.13077585

 average (electrostatic) potential at core
  the test charge radii are     0.9791  0.9892  1.1631  1.1897
  (the norm of the test charge is              1.0000)
       1 -49.0679       2 -49.0691       3 -91.6994       4 -38.2885       5 -96.4568
       6 -96.4568       7 -96.4568       8 -96.2954       9 -96.2954      10 -96.2953

 E-fermi :  -1.4483     XC(G=0):  -3.5512     alpha+bet : -3.2963

[...]

 spin component 2

[...]

 k-point     5 :      -0.4000    0.2000    0.0000
  band No.  band energies     occupation
      1     -13.7888      1.00000
      2     -13.7442      1.00000
      3     -13.2770      1.00000
      4     -12.7675      1.00000
      5     -12.7662      1.00000
      6     -12.5674      1.00000
      7      -9.9423      1.00000
      8      -8.1638      1.00000
      9      -6.5774      1.00000
     10      -6.0620      1.00000
     11      -5.9671      1.00000
     12      -5.6188      1.00000
     13      -5.4148      1.00000
     14      -5.2730      1.00000
     15      -5.0184      1.00000
     16      -4.7910      1.00000
     17      -4.5442      1.00000
     18      -4.4920      1.00000
     19      -4.4334      1.00000
     20      -4.2487      1.00000
     21      -4.1523      1.00000
     22      -3.9373      1.00000
     23      -3.6528      1.00000
     24      -3.4819      1.00000
     25      -3.4145      1.00000
     26      -3.2650      1.00000
     27      -3.1946      1.00000
     28      -2.9444      1.00000
     29      -2.9270      1.00000
     30      -2.7716      1.00000
     31      -2.4516      1.00000
     32      -1.9778      1.00000
     33      -1.4547      0.34366
     34      -1.4300      0.00000
     35      -0.9260      0.00000
     36      -0.7455      0.00000
     37       0.3451      0.00000
     38       0.5749      0.00000
     39       0.6202      0.00000
     40       1.4945      0.00000
     41       1.6957      0.00000
     42       2.0958      0.00000
     43       2.6952      0.00000
     44       2.9335      0.00000
     45       3.0745      0.00000
     46       3.2107      0.00000
     47       3.3068      0.00000
     48       3.7150      0.00000

[...]

 soft charge-density along one line, spin component           2
         0         1         2         3         4         5         6         7         8         9
 total charge-density along one line

------------------------ aborting loop because EDIFF is reached ----------------------------------------

[...]

  FORCE on cell =-STRESS in cart. coord.  units (eV):
  Direction    XX          YY          ZZ          XY          YZ          ZX
  Alpha Z    20.95825    20.95825    20.95825
  Ewald    9501.05148  9501.04978-11482.70177    -0.00249    -0.00056    -0.00102
  Hartree 10235.33881 10235.34005 -9567.34085    -0.00055     0.00008     0.00014
  E(xc)    -280.71298  -280.71305  -279.92625     0.00008     0.00000     0.00003
  Local  -20587.99438-20587.99464 20180.77005     0.00277     0.00038     0.00071
  n-local   652.39745   651.54733   657.04653    -0.27135     1.17738     1.38560
  augment   -60.01504   -60.01487   -64.06935    -0.00001     0.00004     0.00006
  Kinetic   523.54841   514.15743   534.81432    -5.30982     0.24054     0.13413
  Fock        0.00000     0.00000     0.00000     0.00000     0.00000     0.00000
  Total      -0.54886    -0.54886    -0.44906     0.00000    -0.00000     0.00000
  in kB      -1.01467    -1.01467    -0.83018     0.00000    -0.00000     0.00000

 VOLUME and BASIS-vectors are now :
  energy-cutoff  :      520.00
  volume of cell :      866.65
      direct lattice vectors                 reciprocal lattice vectors
     6.793555177  0.000002665 -0.000000000     0.147198367 -0.084984933 -0.000000000
     3.396774808  5.883392351 -0.000000000    -0.000000067  0.169970005  0.000000000
    -0.000000000 -0.000000000 21.683044624     0.000000000  0.000000000  0.046118985

  length of vectors
     6.793555177  6.793554640 21.683044624     0.169969991  0.169970005  0.046118985

 FORCES acting on ions
    electron-ion (+dipol)            ewald-force                    non-local-force                 convergence-correction
   0.743E-04 0.102E-04 0.607E+02   0.662E-03 0.407E-03 -.617E+02   0.690E-17 0.908E-17 0.966E+00   -.314E-06 0.687E-06 -.101E-01
   -.121E-03 -.504E-04 0.650E+02   -.770E-03 -.466E-03 -.660E+02   0.690E-17 -.145E-17 0.105E+01   0.164E-06 -.890E-07 -.101E-01
   -.309E-04 -.775E-05 0.115E+03   -.870E-04 -.473E-04 -.111E+03   -.137E-16 0.191E-16 -.378E+01   -.209E-07 -.133E-07 0.333E-03
   0.721E-04 -.389E-04 -.276E+03   0.146E-03 0.820E-04 0.278E+03   0.531E-19 0.902E-17 -.151E+01   0.128E-07 0.564E-08 -.135E-01
   -.287E+02 -.602E-01 -.420E+03   0.279E+02 0.375E-01 0.424E+03   0.814E+00 0.157E-01 -.411E+01   -.352E-02 0.136E-01 -.290E-01
   0.143E+02 0.249E+02 -.420E+03   -.139E+02 -.242E+02 0.424E+03   -.393E+00 -.713E+00 -.411E+01   0.135E-01 -.373E-02 -.290E-01
   0.144E+02 -.248E+02 -.420E+03   -.140E+02 0.241E+02 0.424E+03   -.421E+00 0.697E+00 -.411E+01   -.999E-02 -.984E-02 -.290E-01
   0.424E+02 -.458E-01 0.432E+03   -.399E+02 0.477E-01 -.438E+03   -.255E+01 -.203E-01 0.536E+01   0.552E-02 0.121E-01 0.205E-01
   -.212E+02 -.367E+02 0.432E+03   0.200E+02 0.345E+02 -.438E+03   0.126E+01 0.222E+01 0.536E+01   0.776E-02 -.109E-01 0.205E-01
   -.211E+02 0.367E+02 0.432E+03   0.199E+02 -.345E+02 -.438E+03   0.129E+01 -.220E+01 0.536E+01   -.133E-01 -.129E-02 0.205E-01
   -.158E-03 -.198E-04 -.425E+00   0.000E+00 0.142E-13 -.171E-12   -.444E-15 0.000E+00 0.472E+00   -.999E-07 0.631E-06 -.587E-01

 POSITION                                       TOTAL-FORCE (eV/Angst)
      3.39677      1.96113     10.67866         0.000000      0.000000     -0.010111
      6.79356      3.92227     10.67064         0.000000     -0.000000      0.007779
     -0.00000     -0.00000     10.09004         0.000000     -0.000000      0.017532
     -0.00000     -0.00000     12.57629         0.000000     -0.000000      0.008199
      3.94750     -0.00283     12.28113         0.021252      0.007027     -0.016530
      1.42057      2.46618     12.28113        -0.004540     -0.021918     -0.016530
      4.82227      3.42006     12.28113        -0.016712      0.014891     -0.016530
      2.41113      0.00277      9.18540        -0.030732     -0.006716      0.008731
      2.19361      3.79390      9.18540         0.009550      0.029972      0.008731
      5.58558      2.08672      9.18540         0.021182     -0.023257      0.008731
    total drift:                               -0.000158     -0.000019     -0.011741

  FREE ENERGIE OF THE ION-ELECTRON SYSTEM (eV)
  free  energy   TOTEN  =       -33.13077585 eV

  energy  without entropy=      -33.13077585  energy(sigma->0) =      -33.13077585

 d Force =-0.3296911E-04[-0.353E-04,-0.307E-04]  d Energy = 0.5844822E-04-0.914E-04
 d Force =-0.1269213E+00[-0.127E+00,-0.127E+00]  d Ewald  = 0.6371837E+00-0.764E+00

 reached required accuracy - stopping structural energy minimisation

 total charge

[...]

 magnetization (x)

# of ion       s       p       d       tot
    1        0.000   0.000  -0.014  -0.013
    2        0.000   0.000  -0.015  -0.015
    3       -0.000   0.000   0.000  -0.000
    4       -0.000  -0.001  -0.000  -0.001
    5       -0.000  -0.001  -0.000  -0.001
    6       -0.001  -0.005  -0.000  -0.006
    7       -0.000   0.001  -0.000   0.001
    8       -0.000  -0.003  -0.000  -0.003
    9       -0.000  -0.002  -0.000  -0.002
   10       -0.000  -0.001  -0.000  -0.002
tot         -0.003  -0.011  -0.029  -0.042

 BZINTS: Fermi energy: -1.448301; 64.000000 electrons
         Band energy:-395.909999;  BLOECHL correction: -0.011434