 vasp.5.4.4.18Apr17-6-g9f103f2a35 (build May  1 2020 15:48:39) complex
 executed on             LinuxGNU date 2020.07.01  10:21:19

 INCAR:
 POTCAR:   PAW_PBE Cr 06Sep2000
 POTCAR:    PAW_PBE P 17Jan2003
 POTCAR:   PAW_PBE Se 06Sep2000

 POTCAR:   PAW_PBE Cr 06Sep2000
   VRHFIN =Cr : d5 s1

   TITEL  = PAW_PBE Cr 06Sep2000
   POMASS =   51.996; ZVAL   =    6.000    mass and valenz
   ENMAX  =  227.082; ENMIN  =  170.311 eV
   QCUT   =   -4.085; QGAM   =    8.171    optimization parameters

   Description
     l     E      TYP  RCUT    TYP  RCUT
     2   .000     23  2.500
     2   .000     23  2.500
     0   .000     23  2.500
     0   .000     23  2.500
     1  -.400     23  2.500
     1  2.000     23  2.500
     3   .000      7   .000

 POTCAR:    PAW_PBE P 17Jan2003
   VRHFIN =P : s2p3

   TITEL  = PAW_PBE P 17Jan2003
   POMASS =   30.974; ZVAL   =    5.000    mass and valenz
   ENMAX  =  270.000; ENMIN  =  191.280 eV
   QCUT   =   -4.330; QGAM   =    8.659    optimization parameters

[...]

 POTCAR:   PAW_PBE Se 06Sep2000
   VRHFIN =Se: s2p4

   TITEL  = PAW_PBE Se 06Sep2000
   POMASS =   78.960; ZVAL   =    6.000    mass and valenz
   ENMAX  =  211.534; ENMIN  =  158.651 eV
   QCUT   =   -3.943; QGAM   =    7.886    optimization parameters

   Description
     l     E      TYP  RCUT    TYP  RCUT
     0   .000     23  2.100
     0   .000     23  2.100
     1   .000     23  2.100
     1   .000     23  2.100
     2   .000     23  2.100
     3  -.100      7  2.100

 Optimization of the real space projectors (new method)

 maximal supplied QI-value         = 15.12
 optimisation between [QCUT,QGAM] = [ 11.64, 23.28] = [ 37.95,151.78] Ry
 Optimized for a Real-space Cutoff    1.49 Angstroem

   l    n(q)    QCUT    max X(q) W(low)/X(q) W(high)/X(q)  e(spline)
   2      9    11.641     4.777    0.25E-04    0.21E-05    0.63E-07
   2      9    11.641    31.132    0.13E-03    0.22E-03    0.64E-06
   0     10    11.641    20.416    0.11E-04    0.74E-05    0.19E-07
   0     10    11.641    45.408    0.10E-03    0.85E-04    0.30E-06
   1     10    11.641     7.848    0.22E-04    0.23E-04    0.56E-07
   1     10    11.641     9.895    0.85E-04    0.54E-04    0.16E-06
 Optimization of the real space projectors (new method)

[...]

   l    n(q)    QCUT    max X(q) W(low)/X(q) W(high)/X(q)  e(spline)
   0      8    11.508     6.651    0.19E-04    0.31E-05    0.49E-08
   0      8    11.508    90.285    0.95E-04    0.17E-03    0.51E-07
   1      8    11.508     4.328    0.14E-04    0.32E-04    0.22E-07
   1      8    11.508    54.583    0.16E-03    0.71E-04    0.89E-07
 Optimization of the real space projectors (new method)

 maximal supplied QI-value         = 17.95
 optimisation between [QCUT,QGAM] = [ 11.67, 23.34] = [ 38.13,152.52] Ry
 Optimized for a Real-space Cutoff    1.25 Angstroem

   l    n(q)    QCUT    max X(q) W(low)/X(q) W(high)/X(q)  e(spline)
   0      9    11.669     6.499    0.13E-04    0.81E-05    0.11E-07
   0      9    11.669    52.623    0.18E-03    0.46E-04    0.72E-07
   1      8    11.669     4.229    0.40E-04    0.45E-04    0.31E-07
   1      8    11.669    29.991    0.22E-03    0.36E-03    0.10E-06
   2      8    11.669     3.719    0.19E-03    0.46E-04    0.50E-07

 PAW_PBE Cr 06Sep2000                   :
  PAW_PBE P 17Jan2003                   :
 PAW_PBE Se 06Sep2000                   :

 POSCAR: Cr2 P2 Se6
  positions in direct lattice
  velocities in cartesian coordinates
 exchange correlation table for  LEXCH =       42
   RHO(1)=    0.500       N(1)  =     2000
   RHO(2)=  100.500       N(2)  =     4000

 ion  position               nearest neighbor table
   1  0.333  0.333  0.500-   6 2.78   5 2.78   7 2.78   8 2.78  10 2.78   9 2.78
   2  0.667  0.667  0.500-   9 2.78   8 2.78  10 2.78   5 2.78   7 2.78   6 2.78
   3  0.000  0.000  0.448-   4 2.43   8 2.63  10 2.63   9 2.63
   4  0.000  0.000  0.552-   3 2.43   5 2.63   7 2.63   6 2.63
   5  0.626  0.000  0.574-   4 2.63   1 2.78   2 2.78
   6  0.000  0.373  0.574-   4 2.63   1 2.78   2 2.78
   7  0.373  0.626  0.574-   4 2.63   1 2.78   2 2.78
   8  0.374  1.000  0.426-   3 2.63   2 2.78   1 2.78
   9  1.000  0.627  0.426-   3 2.63   2 2.78   1 2.78
  10  0.627  0.374  0.426-   3 2.63   2 2.78   1 2.78

  LATTYP: Found a hexagonal cell.
 ALAT       =     6.9077769333
 C/A-ratio  =     3.3939410937

  Lattice vectors:

 A1 = (   3.4538890000,  -5.9823100000,   0.0000000000)
 A2 = (  -6.9077770000,   0.0000000000,   0.0000000000)
 A3 = (   0.0000000000,   0.0000000000, -23.4445880000)

Analysis of symmetry for initial positions (statically):
 Subroutine PRICEL returns:
 Original cell was already a primitive cell.

 Routine SETGRP: Setting up the symmetry group for a
 hexagonal supercell.

 Subroutine GETGRP returns: Found  6 space group operations
 (whereof  6 operations were pure point group operations)
 out of a pool of 24 trial point group operations.

The static configuration has the point symmetry S_6 .

Analysis of symmetry for dynamics (positions and initial velocities):
 Subroutine PRICEL returns:
 Original cell was already a primitive cell.

[...]

The dynamic configuration has the point symmetry S_6 .

Analysis of constrained symmetry for selective dynamics:
 Subroutine PRICEL returns:
 Original cell was already a primitive cell.

[...]

The constrained configuration has the point symmetry S_6 .

Analysis of structural, dynamic, and magnetic symmetry:
 Subroutine PRICEL returns:
 Original cell was already a primitive cell.

 Routine SETGRP: Setting up the symmetry group for a
 hexagonal supercell.

 Subroutine GETGRP returns: Found  6 space group operations
 (whereof  6 operations were pure point group operations)
 out of a pool of 24 trial point group operations.

The magnetic configuration has the point symmetry S_6 .

 Subroutine INISYM returns: Found  6 space group operations
 (whereof  6 operations are pure point group operations),
 and found     1 'primitive' translations

 KPOINTS: Kpoints from vasprun.xml

Automatic generation of k-mesh.
Space group operators:
 irot       det(A)        alpha          n_x          n_y          n_z        tau_x        tau_y        tau_z
    1     1.000000     0.000000     1.000000     0.000000     0.000000     0.000000     0.000000     0.000000
    2    -1.000000     0.000000     1.000000     0.000000     0.000000     0.000000     0.000000     0.000000
    3     1.000000   120.000000     0.000000     0.000000     1.000000     0.000000     0.000000     0.000000
    4    -1.000000   120.000000     0.000000     0.000000     1.000000     0.000000     0.000000     0.000000
    5     1.000000   120.000000     0.000000     0.000000    -1.000000     0.000000     0.000000     0.000000
    6    -1.000000   120.000000     0.000000     0.000000    -1.000000     0.000000     0.000000     0.000000

 Subroutine IBZKPT returns following result:

 Found      5 irreducible k-points:

 Following reciprocal coordinates:
            Coordinates               Weight
  0.000000  0.000000  0.000000      1.000000
  0.200000  0.000000  0.000000      6.000000
  0.400000  0.000000  0.000000      6.000000
  0.400000  0.200000  0.000000      6.000000
 -0.400000  0.200000  0.000000      6.000000

 Following cartesian coordinates:
            Coordinates               Weight
  0.000000  0.000000  0.000000      1.000000
  0.028953 -0.016716  0.000000      6.000000
  0.057906 -0.033432  0.000000      6.000000
  0.057906  0.000000  0.000000      6.000000
 -0.057906  0.066864  0.000000      6.000000

 TETIRR: Found     15 inequivalent tetrahedra from      150

 SYSTEM =  unknown system
 POSCAR =  Cr2 P2 Se6

 Startparameter for this run:
   NWRITE =      2    write-flag & timer
   PREC   = accura    normal or accurate (medium, high low for compatibility)
   ISTART =      0    job   : 0-new  1-cont  2-samecut
   ICHARG =      2    charge: 1-file 2-atom 10-const
   ISPIN  =      2    spin polarized calculation?
   LNONCOLLINEAR =      F non collinear calculations
   LSORBIT =      F    spin-orbit coupling
   INIWAV =      1    electr: 0-lowe 1-rand  2-diag
   LASPH  =      F    aspherical Exc in radial PAW
   METAGGA=      F    non-selfconsistent MetaGGA calc.

 Electronic Relaxation 1
   ENCUT  =  520.0 eV  38.22 Ry    6.18 a.u.  12.84 12.84 43.59*2*pi/ulx,y,z
   ENINI  =  520.0     initial cutoff
   ENAUG  =  446.8 eV  augmentation charge cutoff
   NELM   =    400;   NELMIN=  2; NELMDL=  0     # of ELM steps
   EDIFF  = 0.1E-03   stopping-criterion for ELM
   LREAL  =      T    real-space projection
   NLSPLINE    = F    spline interpolate recip. space projectors
   LCOMPAT=      F    compatible to vasp.4.4
   GGA_COMPAT  = T    GGA compatible to vasp.4.4-vasp.4.6
   LMAXPAW     = -100 max onsite density
   LMAXMIX     =    2 max onsite mixed and CHGCAR
   VOSKOWN=      0    Vosko Wilk Nusair interpolation
   ROPT   =   -0.00025  -0.00025  -0.00025
 Ionic relaxation
   EDIFFG = 0.1E-02   stopping-criterion for IOM
   NSW    =     99    number of steps for IOM
   NBLOCK =      1;   KBLOCK =     99    inner block; outer block
   IBRION =      2    ionic relax: 0-MD 1-quasi-New 2-CG
   NFREE  =      1    steps in history (QN), initial steepest desc. (CG)
   ISIF   =      3    stress and relaxation
   IWAVPR =     11    prediction:  0-non 1-charg 2-wave 3-comb
   ISYM   =      2    0-nonsym 1-usesym 2-fastsym
   LCORR  =      T    Harris-Foulkes like correction to forces

   POTIM  = 0.5000    time-step for ionic-motion
   TEIN   =    0.0    initial temperature
   TEBEG  =    0.0;   TEEND  =   0.0 temperature during run
   SMASS  =  -3.00    Nose mass-parameter (am)
   estimated Nose-frequenzy (Omega)   =  0.10E-29 period in steps =****** mass=  -0.109E-26a.u.
   SCALEE = 1.0000    scale energy and forces
   NPACO  =    256;   APACO  = 16.0  distance and # of slots for P.C.
   PSTRESS=    0.0 pullay stress

  Mass of Ions in am
   POMASS =  52.00 30.97 78.96
  Ionic Valenz
   ZVAL   =   6.00  5.00  6.00
  Atomic Wigner-Seitz radii
  virtual crystal weights
   VCA    =   1.00  1.00  1.00
   NELECT =      58.0000    total number of electrons
   NUPDOWN=      -1.0000    fix difference up-down

 DOS related values:
   EMIN   =  10.00;   EMAX   =-10.00  energy-range for DOS
   EFERMI =   0.00
   ISMEAR =    -5;   SIGMA  =   0.05  broadening in eV -4-tet -1-fermi 0-gaus

 Electronic relaxation 2 (details)
   IALGO  =     38    algorithm
   LDIAG  =      T    sub-space diagonalisation (order eigenvalues)
   LSUBROT=      F    optimize rotation matrix (better conditioning)
   TURBO    =      0    0=normal 1=particle mesh
   IRESTART =      0    0=no restart 2=restart with 2 vectors
   NREBOOT  =      0    no. of reboots
   NMIN     =      0    reboot dimension
   EREF     =   0.00    reference energy to select bands
   IMIX   =      4    mixing-type and parameters
     AMIX     =   0.40;   BMIX     =  1.00
     AMIX_MAG =   1.60;   BMIX_MAG =  1.00
     AMIN     =   0.01
     WC   =   100.;   INIMIX=   1;  MIXPRE=   1;  MAXMIX= -45

 Intra band minimization:
   WEIMIN = 0.0010     energy-eigenvalue tresh-hold
   EBREAK =  0.63E-06  absolut break condition
   DEPER  =   0.30     relativ break condition

[...]
         0         1         2         3         4         5         6         7         8         9
 total charge-density along one line

[...]

------------------------ aborting loop because EDIFF is reached ----------------------------------------

 total charge

# of ion       s       p       d       tot
    1        0.278   0.296   4.096   4.671
    2        0.278   0.296   4.096   4.671
    3        1.146   1.150   0.000   2.297
    4        1.146   1.150   0.000   2.297
    5        1.494   2.207   0.019   3.721
    6        1.488   2.158   0.019   3.665
    7        1.493   2.194   0.019   3.706
    8        1.494   2.207   0.019   3.721
    9        1.488   2.158   0.019   3.665
   10        1.493   2.194   0.019   3.706
tot         11.801  16.011   8.307  36.118

 magnetization (x)

[...]

  FORCE on cell =-STRESS in cart. coord.  units (eV):
  Direction    XX          YY          ZZ          XY          YZ          ZX
  Alpha Z    31.50927    31.50927    31.50927
  Ewald    7992.72397  7992.72161 -9523.21780    -0.00104    -0.00041    -0.00075
  Hartree  8421.49677  8421.49716 -8222.59243    -0.00000     0.00006     0.00009
  E(xc)    -218.11325  -218.11328  -218.06484     0.00003     0.00000     0.00001
  Local  -17179.65914-17179.65819 16949.26783     0.00077     0.00021     0.00040
  n-local   330.89728   331.67726   340.29795     0.25306     0.13566     0.09129
  augment    12.66431    12.66453     9.62277    -0.00012    -0.00024     0.00017
  Kinetic   590.70917   586.71874   618.11680    -3.04628    -0.07753    -0.16602
  Fock        0.00000     0.00000     0.00000     0.00000     0.00000     0.00000
  Total     -19.37726   -19.37726   -15.06045     0.00000     0.00000    -0.00000
  in kB     -32.04447   -32.04447   -24.90570     0.00000     0.00000    -0.00000

 VOLUME and BASIS-vectors are now :
  energy-cutoff  :      520.00
  volume of cell :      968.84
      direct lattice vectors                 reciprocal lattice vectors
     6.907777000 -0.000000000  0.000000000     0.144764372 -0.083579742  0.000000000
     3.453888000  5.982310000  0.000000000     0.000000000  0.167159509 -0.000000000
     0.000000000  0.000000000 23.444588000    -0.000000000  0.000000000  0.042653767

[...]

 FORCES acting on ions
    electron-ion (+dipol)            ewald-force                    non-local-force                 convergence-correction
   -.753E-04 -.477E-04 0.663E+00   0.323E-03 0.191E-03 -.652E+00   0.173E-17 -.694E-17 -.440E-02   0.114E-05 0.656E-06 -.340E-04
   0.753E-04 0.477E-04 -.663E+00   -.323E-03 -.191E-03 0.652E+00   0.173E-17 0.694E-17 0.440E-02   -.114E-05 -.656E-06 0.340E-04
   -.347E-04 -.278E-04 0.210E+03   -.176E-03 -.973E-04 -.213E+03   -.390E-17 -.867E-18 0.325E+01   -.338E-06 -.182E-06 -.888E-02
   0.347E-04 0.278E-04 -.210E+03   0.176E-03 0.973E-04 0.213E+03   -.434E-18 -.867E-18 -.325E+01   0.338E-06 0.182E-06 0.888E-02
   0.380E+01 0.143E+00 -.354E+03   -.488E+01 -.141E+00 0.355E+03   0.145E+01 -.766E-02 -.284E+01   -.264E-03 -.350E-05 0.153E-01
   -.178E+01 -.337E+01 -.354E+03   0.232E+01 0.430E+01 0.355E+03   -.732E+00 -.125E+01 -.284E+01   0.128E-03 0.230E-03 0.153E-01
   -.203E+01 0.322E+01 -.354E+03   0.256E+01 -.416E+01 0.355E+03   -.719E+00 0.126E+01 -.284E+01   0.136E-03 -.227E-03 0.153E-01
   -.380E+01 -.143E+00 0.354E+03   0.488E+01 0.141E+00 -.355E+03   -.145E+01 0.766E-02 0.284E+01   0.264E-03 0.350E-05 -.153E-01
   0.178E+01 0.337E+01 0.354E+03   -.232E+01 -.430E+01 -.355E+03   0.732E+00 0.125E+01 0.284E+01   -.128E-03 -.230E-03 -.153E-01
   0.203E+01 -.322E+01 0.354E+03   -.256E+01 0.416E+01 -.355E+03   0.719E+00 -.126E+01 0.284E+01   -.136E-03 0.227E-03 -.153E-01
   -.167E-09 -.310E-09 -.851E-10   0.888E-14 0.533E-14 0.568E-13   0.333E-15 0.000E+00 0.888E-15   0.968E-14 -.165E-13 -.109E-12

 POSITION                                       TOTAL-FORCE (eV/Angst)
      3.45388      1.99410     11.72054         0.000000     -0.000000      0.006514
      6.90778      3.98821     11.72405         0.000000      0.000000     -0.006514
      0.00000      0.00000     10.50824         0.000000      0.000000      0.501338
      0.00000      0.00000     12.93635         0.000000      0.000000     -0.501338
      4.32819      0.00251     13.45138         0.371538     -0.005636     -1.332483
      1.29198      2.23274     13.45138        -0.190650     -0.318943     -1.332483
      4.74152      3.74706     13.45138        -0.180888      0.324579     -1.332483
      6.03348      5.97980      9.99321        -0.371538      0.005636      1.332483
      9.06969      3.74957      9.99321         0.190650      0.318943      1.332483
      5.62015      2.23525      9.99321         0.180888     -0.324579      1.332483
    total drift:                               -0.000000     -0.000000     -0.000000

  FREE ENERGIE OF THE ION-ELECTRON SYSTEM (eV)
  free  energy   TOTEN  =       -45.78064827 eV

  energy  without entropy=      -45.78064827  energy(sigma->0) =      -45.78064827

[...]

 d Force = 0.2253820E+00[-0.845E-01, 0.535E+00]  d Energy = 0.2647589E+01-0.242E+01
 d Force =-0.1526242E+03[-0.168E+03,-0.137E+03]  d Ewald  =-0.1075421E+04 0.923E+03

 Steepest descent step on ions:
 trial-energy change:   -2.647589  1 .order   -2.133577   -5.295188    1.028034
  (g-gl).g = 0.530E+01      g.g   = 0.530E+01  gl.gl    = 0.000E+00
 g(Force)  = 0.578E+00   g(Stress)= 0.472E+01 ortho     = 0.000E+00
 gamma     =   0.00000
 trial     =   1.00000
 opt step  =   0.88650  (harmonic =   0.83742) maximal distance =0.05698619
 next E    =   -48.485829   (d E  =  -2.70518)

[...]

 d Force = 0.3723549E-02[-0.299E-02, 0.104E-01]  d Energy = 0.6510689E-01-0.614E-01
 d Force = 0.2051377E+02[ 0.203E+02, 0.208E+02]  d Ewald  = 0.1375049E+03-0.117E+03

[...]

 d Force = 0.8940478E-02[ 0.297E-02, 0.149E-01]  d Energy = 0.8514022E-02 0.426E-03
 d Force =-0.5149022E+01[-0.511E+01,-0.519E+01]  d Ewald  =-0.1348701E+01-0.380E+01

 Conjugate gradient step on ions:
 trial-energy change:   -0.008514  1 .order   -0.009212   -0.015156   -0.003268
  (g-gl).g = 0.623E-01      g.g   = 0.161E-01  gl.gl    = 0.530E+01
 g(Force)  = 0.149E-01   g(Stress)= 0.111E-02 ortho     =-0.462E-01
 gamma     =   0.01176
 trial     =   0.97730
 opt step  =   1.62740  (harmonic =   1.24595) maximal distance =0.02648138
 next E    =   -48.502740   (d E  =  -0.00940)

[...]

 d Force =-0.4974117E-03[-0.297E-02, 0.198E-02]  d Energy =-0.4975713E-03 0.160E-06
 d Force =-0.3383711E+01[-0.337E+01,-0.340E+01]  d Ewald  =-0.8559446E+00-0.253E+01

[...]

 d Force = 0.2009666E-02[ 0.304E-03, 0.372E-02]  d Energy = 0.3245098E-02-0.124E-02
 d Force =-0.8507242E+01[-0.847E+01,-0.854E+01]  d Ewald  = 0.7751652E+02-0.860E+02

 Steepest descent step on ions:
 trial-energy change:   -0.003245  1 .order   -0.003727   -0.010079    0.002625
  (g-gl).g = 0.120E-01      g.g   = 0.910E-02  gl.gl    = 0.161E-01
 g(Force)  = 0.336E-02   g(Stress)= 0.574E-02 ortho     =-0.410E-02
 gamma     =   0.00000
 trial     =   1.10732
 opt step  =   0.83138  (harmonic =   0.87851) maximal distance =0.00712101
 next E    =   -48.504940   (d E  =  -0.00358)

[...]

 d Force =-0.1874506E-03[-0.299E-03,-0.756E-04]  d Energy = 0.5390467E-03-0.726E-03
 d Force = 0.2116741E+01[ 0.212E+01, 0.211E+01]  d Ewald  =-0.1922380E+02 0.213E+02

[...]

 d Force = 0.1605764E-03[-0.651E-03, 0.973E-03]  d Energy =-0.4002081E-02 0.416E-02
 d Force =-0.6589584E+01[-0.661E+01,-0.657E+01]  d Ewald  =-0.2186549E+02 0.153E+02

 Steepest descent step on ions:
 trial-energy change:    0.004002  1 .order   -0.000481   -0.009576    0.008615
  (g-gl).g = 0.133E-01      g.g   = 0.101E-01  gl.gl    = 0.910E-02
 g(Force)  = 0.103E-02   g(Stress)= 0.911E-02 ortho     =-0.317E-02
 gamma     =   0.00000
 trial     =   0.94361
 opt step  =   0.49674  (harmonic =   0.49674) maximal distance =0.00120985
 next E    =   -48.507665   (d E  =  -0.00252)

[...]

 eigenvalue-minimisations  :  1184
 total energy-change (2. order) : 0.2789924E-03  (-0.3293545E-03)
 number of electron      57.9999991 magnetization       5.8445107
 augmentation part       -2.6734003 magnetization       3.9176696

 Broyden mixing:
  rms(total) = 0.42805E-02    rms(broyden)= 0.42804E-02
  rms(prec ) = 0.47360E-02
  weight for this iteration     100.00

 eigenvalues of (default mixing * dielectric matrix)
  average eigenvalue GAMMA=   0.9863
  1.8546  0.7501  0.3544

[...]

--------------------------------------- Iteration      9(   5)  ---------------------------------------

[...]

 eigenvalue-minimisations  :   728
 total energy-change (2. order) :-0.2966991E-04  (-0.1821552E-04)
 number of electron      57.9999991 magnetization       5.8445107
 augmentation part       -2.6734003 magnetization       3.9176696

 Free energy of the ion-electron system (eV)
  alpha Z        PSCENC =        40.00301165
  Ewald energy   TEWEN  =      7355.54673434
  -Hartree energ DENC   =     -9537.71680517
  -exchange      EXHF   =         0.00000000
  -V(xc)+E(xc)   XCENC  =       -37.53312705
  PAW double counting   =      1297.39124169    -1153.13844284
  entropy T*S    EENTRO =         0.00000000
  eigenvalues    EBANDS =      -472.72645246
  atomic energy  EATOM  =      2459.66876574
  Solvation  Ediel_sol  =         0.00000000
  free energy    TOTEN  =       -48.50507409 eV

  energy without entropy =      -48.50507409  energy(sigma->0) =      -48.50507409

 average (electrostatic) potential at core
  the test charge radii are     1.1394  0.9587  1.0808
  (the norm of the test charge is              1.0000)
       1 -51.1937       2 -51.1937       3 -92.7797       4 -92.7797       5 -61.2172
       6 -61.2172       7 -61.2171       8 -61.2172       9 -61.2172      10 -61.2171

 E-fermi :  -2.1765     XC(G=0):  -3.5153     alpha+bet : -2.7661

[...]

 spin component 2

[...]

 k-point     5 :      -0.4000    0.2000    0.0000
  band No.  band energies     occupation
      1     -17.1963      1.00000
      2     -16.1924      1.00000
      3     -16.1547      1.00000
      4     -15.8879      1.00000
      5     -15.6481      1.00000
      6     -15.5394      1.00000
      7     -13.2358      1.00000
      8     -11.4228      1.00000
      9      -8.1293      1.00000
     10      -7.7287      1.00000
     11      -7.7145      1.00000
     12      -7.2671      1.00000
     13      -6.9128      1.00000
     14      -6.3236      1.00000
     15      -5.9052      1.00000
     16      -5.7328      1.00000
     17      -5.6649      1.00000
     18      -5.5924      1.00000
     19      -5.5558      1.00000
     20      -5.1651      1.00000
     21      -4.8723      1.00000
     22      -4.5148      1.00000
     23      -4.2805      1.00000
     24      -4.1517      1.00000
     25      -4.0635      1.00000
     26      -3.0949      1.00000
     27      -2.3225      0.93376
     28      -1.7615      0.00000
     29      -1.6126      0.00000
     30      -0.9954      0.00000
     31      -0.9473      0.00000
     32      -0.9183      0.00000
     33      -0.7562      0.00000
     34      -0.5192      0.00000
     35      -0.3401      0.00000
     36       0.0339      0.00000
     37       0.0584      0.00000
     38       0.1900      0.00000
     39       0.5140      0.00000
     40       0.6585      0.00000

[...]

 soft charge-density along one line, spin component           2
         0         1         2         3         4         5         6         7         8         9
 total charge-density along one line

------------------------ aborting loop because EDIFF is reached ----------------------------------------

[...]

  FORCE on cell =-STRESS in cart. coord.  units (eV):
  Direction    XX          YY          ZZ          XY          YZ          ZX
  Alpha Z    40.00301    40.00301    40.00301
  Ewald    9034.89143  9034.88867-10714.23565    -0.00117    -0.00047    -0.00085
  Hartree  9382.07619  9382.07658 -9225.97711     0.00001     0.00005     0.00009
  E(xc)    -223.47002  -223.47002  -223.69648     0.00002     0.00000     0.00001
  Local  -19196.69425-19196.69324 19120.04641     0.00075     0.00021     0.00040
  n-local   340.95012   342.43603   350.69660     0.76099     0.41089     0.39958
  augment    12.51742    12.51749     8.86408     0.00001     0.00002     0.00003
  Kinetic   613.54660   605.22477   644.32968    -5.51625    -0.65940    -0.76728
  Fock        0.00000     0.00000     0.00000     0.00000     0.00000     0.00000
  Total       0.40190     0.40190     0.03055    -0.00000     0.00000     0.00000
  in kB       0.84379     0.84379     0.06414    -0.00000     0.00000     0.00000

 VOLUME and BASIS-vectors are now :
  energy-cutoff  :      520.00
  volume of cell :      763.12
      direct lattice vectors                 reciprocal lattice vectors
     6.346991124  0.000000093  0.000000000     0.157554972 -0.090964396  0.000000000
     3.173495104  5.496655322  0.000000000    -0.000000003  0.181928819 -0.000000000
     0.000000000  0.000000000 21.874043557    -0.000000000 -0.000000000  0.045716285

  length of vectors
     6.346991124  6.346990697 21.874043557     0.181928806  0.181928819  0.045716285

 FORCES acting on ions
    electron-ion (+dipol)            ewald-force                    non-local-force                 convergence-correction
   -.116E-03 -.724E-04 0.521E+00   0.397E-03 0.233E-03 -.521E+00   0.173E-17 0.174E-17 0.680E-02   -.574E-07 -.352E-07 0.274E-04
   0.116E-03 0.724E-04 -.521E+00   -.397E-03 -.233E-03 0.521E+00   -.867E-18 0.173E-17 -.680E-02   0.574E-07 0.352E-07 -.274E-04
   -.420E-04 -.337E-04 0.255E+03   -.218E-03 -.122E-03 -.259E+03   -.104E-16 -.321E-17 0.336E+01   -.139E-07 0.198E-07 -.898E-02
   0.420E-04 0.337E-04 -.255E+03   0.218E-03 0.122E-03 0.259E+03   0.429E-17 0.494E-17 -.336E+01   0.139E-07 -.198E-07 0.898E-02
   0.573E+01 0.910E-02 -.420E+03   -.731E+01 -.766E-02 0.422E+03   0.160E+01 -.264E-02 -.191E+01   0.350E-02 0.247E-04 0.171E-01
   -.286E+01 -.497E+01 -.420E+03   0.365E+01 0.633E+01 0.422E+03   -.803E+00 -.139E+01 -.191E+01   -.173E-02 -.304E-02 0.171E-01
   -.287E+01 0.495E+01 -.420E+03   0.366E+01 -.632E+01 0.422E+03   -.799E+00 0.139E+01 -.191E+01   -.177E-02 0.302E-02 0.171E-01
   -.573E+01 -.910E-02 0.420E+03   0.731E+01 0.766E-02 -.422E+03   -.160E+01 0.264E-02 0.191E+01   -.350E-02 -.247E-04 -.171E-01
   0.286E+01 0.497E+01 0.420E+03   -.365E+01 -.633E+01 -.422E+03   0.803E+00 0.139E+01 0.191E+01   0.173E-02 0.304E-02 -.171E-01
   0.287E+01 -.495E+01 0.420E+03   -.366E+01 0.632E+01 -.422E+03   0.799E+00 -.139E+01 0.191E+01   0.177E-02 -.302E-02 -.171E-01
   0.148E-09 0.265E-09 0.460E-10   -.533E-14 0.444E-14 0.568E-13   -.333E-15 0.222E-15 -.666E-15   -.251E-12 -.112E-12 -.775E-11

 POSITION                                       TOTAL-FORCE (eV/Angst)
      3.17349      1.83222     10.93538        -0.000000      0.000000      0.006030
      6.34699      3.66444     10.93866        -0.000000      0.000000     -0.006030
      0.00000      0.00000      9.80555        -0.000000      0.000000     -0.007688
      0.00000      0.00000     12.06849        -0.000000      0.000000      0.007688
      3.99752      0.00108     12.48676         0.026684     -0.000540     -0.005768
      1.17568      2.03417     12.48676        -0.013810     -0.022839     -0.005768
      4.34730      3.46141     12.48676        -0.012874      0.023379     -0.005768
      5.52297      5.49557      9.38729        -0.026684      0.000540      0.005768
      8.34481      3.46248      9.38729         0.013810      0.022839      0.005768
      5.17318      2.03525      9.38729         0.012874     -0.023379      0.005768
    total drift:                                0.000000      0.000000      0.000000

  FREE ENERGIE OF THE ION-ELECTRON SYSTEM (eV)
  free  energy   TOTEN  =       -48.50507409 eV

  energy  without entropy=      -48.50507409  energy(sigma->0) =      -48.50507409

 d Force = 0.9666466E-04[-0.117E-03, 0.310E-03]  d Energy = 0.3931514E-02-0.383E-02
 d Force = 0.3145360E+01[ 0.314E+01, 0.315E+01]  d Ewald  = 0.1037699E+02-0.723E+01

 reached required accuracy - stopping structural energy minimisation

 total charge

[...]

 magnetization (x)

# of ion       s       p       d       tot
    1        0.035   0.043   2.800   2.878
    2        0.035   0.043   2.800   2.878
    3        0.005   0.024   0.000   0.029
    4        0.005   0.024   0.000   0.029
    5        0.003  -0.052   0.006  -0.043
    6        0.001  -0.053   0.007  -0.045
    7        0.002  -0.054   0.006  -0.046
    8        0.003  -0.052   0.006  -0.043
    9        0.001  -0.053   0.007  -0.045
   10        0.002  -0.054   0.006  -0.046
tot          0.093  -0.183   5.637   5.547

 BZINTS: Fermi energy: -2.176486; 58.000000 electrons
         Band energy:-472.726452;  BLOECHL correction: -0.032710