 vasp.5.4.4.18Apr17-6-g9f103f2a35 (build May  1 2020 15:48:39) complex
 executed on             LinuxGNU date 2020.06.17  15:45:43

 INCAR:
 POTCAR:   PAW_PBE Ni 06Sep2000
 POTCAR:   PAW_PBE Si 05Jan2001
 POTCAR:   PAW_PBE Se 06Sep2000

 POTCAR:   PAW_PBE Ni 06Sep2000
   VRHFIN =Ni:

   TITEL  = PAW_PBE Ni 06Sep2000
   POMASS =   58.690; ZVAL   =   10.000    mass and valenz
   ENMAX  =  269.533; ENMIN  =  202.150 eV
   QCUT   =   -4.451; QGAM   =    8.902    optimization parameters

   Description
     l     E      TYP  RCUT    TYP  RCUT
     2   .000     23  2.300
     2   .000     23  2.300
     0   .000     23  2.300
     0   .000     23  2.300
     1  -.200     23  2.300
     1   .000     23  2.300
     3   .000      7   .000

 POTCAR:   PAW_PBE Si 05Jan2001
   VRHFIN =Si: s2p2

   TITEL  = PAW_PBE Si 05Jan2001
   POMASS =   28.085; ZVAL   =    4.000    mass and valenz
   ENMAX  =  245.345; ENMIN  =  184.009 eV
   QCUT   =   -4.246; QGAM   =    8.493    optimization parameters

[...]

 POTCAR:   PAW_PBE Se 06Sep2000
   VRHFIN =Se: s2p4

   TITEL  = PAW_PBE Se 06Sep2000
   POMASS =   78.960; ZVAL   =    6.000    mass and valenz
   ENMAX  =  211.534; ENMIN  =  158.651 eV
   QCUT   =   -3.943; QGAM   =    7.886    optimization parameters

   Description
     l     E      TYP  RCUT    TYP  RCUT
     0   .000     23  2.100
     0   .000     23  2.100
     1   .000     23  2.100
     1   .000     23  2.100
     2   .000     23  2.100
     3  -.100      7  2.100

 Optimization of the real space projectors (new method)

 maximal supplied QI-value         = 16.25
 optimisation between [QCUT,QGAM] = [ 11.54, 23.24] = [ 37.28,151.24] Ry
 Optimized for a Real-space Cutoff    1.49 Angstroem

   l    n(q)    QCUT    max X(q) W(low)/X(q) W(high)/X(q)  e(spline)
   2      9    11.539     4.811    0.20E-04    0.14E-04    0.45E-07
   2      9    11.539    15.146    0.24E-03    0.12E-03    0.20E-06
   0     10    11.539    14.357    0.18E-04    0.12E-05    0.14E-07
   0     10    11.539    43.282    0.39E-04    0.17E-04    0.23E-06
   1     10    11.539     5.514    0.99E-05    0.13E-04    0.19E-07
   1     10    11.539     7.697    0.38E-04    0.79E-04    0.91E-07
 Optimization of the real space projectors (new method)

[...]

   l    n(q)    QCUT    max X(q) W(low)/X(q) W(high)/X(q)  e(spline)
   0      8    11.508     8.708    0.18E-04    0.44E-05    0.47E-08
   0      8    11.508   106.241    0.70E-04    0.15E-03    0.51E-07
   1      8    11.508     5.901    0.63E-05    0.23E-04    0.21E-07
   1      8    11.508    73.241    0.15E-03    0.36E-04    0.79E-07
 Optimization of the real space projectors (new method)

 maximal supplied QI-value         = 17.95
 optimisation between [QCUT,QGAM] = [ 11.67, 23.34] = [ 38.13,152.52] Ry
 Optimized for a Real-space Cutoff    1.25 Angstroem

   l    n(q)    QCUT    max X(q) W(low)/X(q) W(high)/X(q)  e(spline)
   0      9    11.669     6.499    0.13E-04    0.81E-05    0.11E-07
   0      9    11.669    52.623    0.18E-03    0.46E-04    0.72E-07
   1      8    11.669     4.229    0.40E-04    0.45E-04    0.31E-07
   1      8    11.669    29.991    0.22E-03    0.36E-03    0.10E-06
   2      8    11.669     3.719    0.19E-03    0.46E-04    0.50E-07

 PAW_PBE Ni 06Sep2000                   :
 PAW_PBE Si 05Jan2001                   :
 PAW_PBE Se 06Sep2000                   :

 POSCAR: Ni2 Si2 Se6
  positions in direct lattice
  velocities in cartesian coordinates
 exchange correlation table for  LEXCH =       42
   RHO(1)=    0.500       N(1)  =     2000
   RHO(2)=  100.500       N(2)  =     4000

 ion  position               nearest neighbor table
   1  0.333  0.333  0.500-   6 2.78   5 2.78   7 2.78   8 2.78  10 2.78   9 2.78
   2  0.667  0.667  0.500-   9 2.78   8 2.78  10 2.78   5 2.78   7 2.78   6 2.78
   3  0.000  0.000  0.448-   4 2.43   8 2.63  10 2.63   9 2.63
   4  0.000  0.000  0.552-   3 2.43   5 2.63   7 2.63   6 2.63
   5  0.626  0.000  0.574-   4 2.63   1 2.78   2 2.78
   6  0.000  0.373  0.574-   4 2.63   1 2.78   2 2.78
   7  0.373  0.626  0.574-   4 2.63   1 2.78   2 2.78
   8  0.374  1.000  0.426-   3 2.63   2 2.78   1 2.78
   9  1.000  0.627  0.426-   3 2.63   2 2.78   1 2.78
  10  0.627  0.374  0.426-   3 2.63   2 2.78   1 2.78

  LATTYP: Found a hexagonal cell.
 ALAT       =     6.9077769333
 C/A-ratio  =     3.3939410937

  Lattice vectors:

 A1 = (   3.4538890000,  -5.9823100000,   0.0000000000)
 A2 = (  -6.9077770000,   0.0000000000,   0.0000000000)
 A3 = (   0.0000000000,   0.0000000000, -23.4445880000)

Analysis of symmetry for initial positions (statically):
 Subroutine PRICEL returns:
 Original cell was already a primitive cell.

 Routine SETGRP: Setting up the symmetry group for a
 hexagonal supercell.

 Subroutine GETGRP returns: Found  6 space group operations
 (whereof  6 operations were pure point group operations)
 out of a pool of 24 trial point group operations.

The static configuration has the point symmetry S_6 .

Analysis of symmetry for dynamics (positions and initial velocities):
 Subroutine PRICEL returns:
 Original cell was already a primitive cell.

[...]

The dynamic configuration has the point symmetry S_6 .

Analysis of constrained symmetry for selective dynamics:
 Subroutine PRICEL returns:
 Original cell was already a primitive cell.

[...]

The constrained configuration has the point symmetry S_6 .

Analysis of structural, dynamic, and magnetic symmetry:
 Subroutine PRICEL returns:
 Original cell was already a primitive cell.

 Routine SETGRP: Setting up the symmetry group for a
 hexagonal supercell.

 Subroutine GETGRP returns: Found  6 space group operations
 (whereof  6 operations were pure point group operations)
 out of a pool of 24 trial point group operations.

The magnetic configuration has the point symmetry S_6 .

 Subroutine INISYM returns: Found  6 space group operations
 (whereof  6 operations are pure point group operations),
 and found     1 'primitive' translations

 KPOINTS: Kpoints from vasprun.xml

Automatic generation of k-mesh.
Space group operators:
 irot       det(A)        alpha          n_x          n_y          n_z        tau_x        tau_y        tau_z
    1     1.000000     0.000000     1.000000     0.000000     0.000000     0.000000     0.000000     0.000000
    2    -1.000000     0.000000     1.000000     0.000000     0.000000     0.000000     0.000000     0.000000
    3     1.000000   120.000000     0.000000     0.000000     1.000000     0.000000     0.000000     0.000000
    4    -1.000000   120.000000     0.000000     0.000000     1.000000     0.000000     0.000000     0.000000
    5     1.000000   120.000000     0.000000     0.000000    -1.000000     0.000000     0.000000     0.000000
    6    -1.000000   120.000000     0.000000     0.000000    -1.000000     0.000000     0.000000     0.000000

 Subroutine IBZKPT returns following result:

 Found      5 irreducible k-points:

 Following reciprocal coordinates:
            Coordinates               Weight
  0.000000  0.000000  0.000000      1.000000
  0.200000  0.000000  0.000000      6.000000
  0.400000  0.000000  0.000000      6.000000
  0.400000  0.200000  0.000000      6.000000
 -0.400000  0.200000  0.000000      6.000000

 Following cartesian coordinates:
            Coordinates               Weight
  0.000000  0.000000  0.000000      1.000000
  0.028953 -0.016716  0.000000      6.000000
  0.057906 -0.033432  0.000000      6.000000
  0.057906  0.000000  0.000000      6.000000
 -0.057906  0.066864  0.000000      6.000000

 TETIRR: Found     15 inequivalent tetrahedra from      150

 SYSTEM =  unknown system
 POSCAR =  Ni2 Si2 Se6

 Startparameter for this run:
   NWRITE =      2    write-flag & timer
   PREC   = accura    normal or accurate (medium, high low for compatibility)
   ISTART =      0    job   : 0-new  1-cont  2-samecut
   ICHARG =      2    charge: 1-file 2-atom 10-const
   ISPIN  =      2    spin polarized calculation?
   LNONCOLLINEAR =      F non collinear calculations
   LSORBIT =      F    spin-orbit coupling
   INIWAV =      1    electr: 0-lowe 1-rand  2-diag
   LASPH  =      F    aspherical Exc in radial PAW
   METAGGA=      F    non-selfconsistent MetaGGA calc.

 Electronic Relaxation 1
   ENCUT  =  520.0 eV  38.22 Ry    6.18 a.u.  12.84 12.84 43.59*2*pi/ulx,y,z
   ENINI  =  520.0     initial cutoff
   ENAUG  =  544.6 eV  augmentation charge cutoff
   NELM   =    400;   NELMIN=  2; NELMDL=  0     # of ELM steps
   EDIFF  = 0.1E-03   stopping-criterion for ELM
   LREAL  =      T    real-space projection
   NLSPLINE    = F    spline interpolate recip. space projectors
   LCOMPAT=      F    compatible to vasp.4.4
   GGA_COMPAT  = T    GGA compatible to vasp.4.4-vasp.4.6
   LMAXPAW     = -100 max onsite density
   LMAXMIX     =    2 max onsite mixed and CHGCAR
   VOSKOWN=      0    Vosko Wilk Nusair interpolation
   ROPT   =   -0.00025  -0.00025  -0.00025
 Ionic relaxation
   EDIFFG = 0.1E-02   stopping-criterion for IOM
   NSW    =     99    number of steps for IOM
   NBLOCK =      1;   KBLOCK =     99    inner block; outer block
   IBRION =      2    ionic relax: 0-MD 1-quasi-New 2-CG
   NFREE  =      1    steps in history (QN), initial steepest desc. (CG)
   ISIF   =      3    stress and relaxation
   IWAVPR =     11    prediction:  0-non 1-charg 2-wave 3-comb
   ISYM   =      2    0-nonsym 1-usesym 2-fastsym
   LCORR  =      T    Harris-Foulkes like correction to forces

   POTIM  = 0.5000    time-step for ionic-motion
   TEIN   =    0.0    initial temperature
   TEBEG  =    0.0;   TEEND  =   0.0 temperature during run
   SMASS  =  -3.00    Nose mass-parameter (am)
   estimated Nose-frequenzy (Omega)   =  0.10E-29 period in steps =****** mass=  -0.109E-26a.u.
   SCALEE = 1.0000    scale energy and forces
   NPACO  =    256;   APACO  = 16.0  distance and # of slots for P.C.
   PSTRESS=    0.0 pullay stress

  Mass of Ions in am
   POMASS =  58.69 28.09 78.96
  Ionic Valenz
   ZVAL   =  10.00  4.00  6.00
  Atomic Wigner-Seitz radii
  virtual crystal weights
   VCA    =   1.00  1.00  1.00
   NELECT =      64.0000    total number of electrons
   NUPDOWN=      -1.0000    fix difference up-down

 DOS related values:
   EMIN   =  10.00;   EMAX   =-10.00  energy-range for DOS
   EFERMI =   0.00
   ISMEAR =    -5;   SIGMA  =   0.05  broadening in eV -4-tet -1-fermi 0-gaus

 Electronic relaxation 2 (details)
   IALGO  =     38    algorithm
   LDIAG  =      T    sub-space diagonalisation (order eigenvalues)
   LSUBROT=      F    optimize rotation matrix (better conditioning)
   TURBO    =      0    0=normal 1=particle mesh
   IRESTART =      0    0=no restart 2=restart with 2 vectors
   NREBOOT  =      0    no. of reboots
   NMIN     =      0    reboot dimension
   EREF     =   0.00    reference energy to select bands
   IMIX   =      4    mixing-type and parameters
     AMIX     =   0.40;   BMIX     =  1.00
     AMIX_MAG =   1.60;   BMIX_MAG =  1.00
     AMIN     =   0.01
     WC   =   100.;   INIMIX=   1;  MIXPRE=   1;  MAXMIX= -45

 Intra band minimization:
   WEIMIN = 0.0010     energy-eigenvalue tresh-hold
   EBREAK =  0.52E-06  absolut break condition
   DEPER  =   0.30     relativ break condition

[...]
     48       2.3426      0.00000

[...]

 soft charge-density along one line, spin component           1
         0         1         2         3         4         5         6         7         8         9
 total charge-density along one line

[...]

------------------------ aborting loop because EDIFF is reached ----------------------------------------

 total charge

# of ion       s       p       d       tot
    1        0.304   0.233   8.247   8.784
    2        0.304   0.233   8.247   8.784
    3        0.797   0.677   0.000   1.474
    4        0.797   0.677   0.000   1.474
    5        1.496   2.126   0.018   3.639
    6        1.493   2.186   0.017   3.696
    7        1.495   2.144   0.018   3.656
    8        1.496   2.126   0.018   3.639
    9        1.493   2.186   0.017   3.696
   10        1.495   2.144   0.018   3.656
tot         11.170  14.730  16.599  42.499

 magnetization (x)

[...]

  FORCE on cell =-STRESS in cart. coord.  units (eV):
  Direction    XX          YY          ZZ          XY          YZ          ZX
  Alpha Z    37.45488    37.45488    37.45488
  Ewald   10003.16019 10003.15816-11941.28445    -0.00208    -0.00052    -0.00095
  Hartree 10861.02632 10861.02744-10142.48093    -0.00050     0.00009     0.00014
  E(xc)    -266.34099  -266.34108  -266.12970     0.00009    -0.00001     0.00002
  Local  -21573.20775-21573.20785 21350.95803     0.00238     0.00029     0.00058
  n-local   244.55267   244.99991   251.73211     0.16454     0.31687     0.18184
  augment    67.24975    67.24987    64.01942     0.00002    -0.00009     0.00010
  Kinetic   603.44640   599.08394   631.99735    -2.36202    -0.71101    -0.87380
  Fock        0.00000     0.00000     0.00000     0.00000     0.00000     0.00000
  Total     -24.61663   -24.61662   -13.73329     0.00000     0.00000     0.00000
  in kB     -40.70889   -40.70889   -22.71095     0.00000     0.00000     0.00000

 VOLUME and BASIS-vectors are now :
  energy-cutoff  :      520.00
  volume of cell :      968.84
      direct lattice vectors                 reciprocal lattice vectors
     6.907777000 -0.000000000  0.000000000     0.144764372 -0.083579742  0.000000000
     3.453888000  5.982310000  0.000000000     0.000000000  0.167159509 -0.000000000
     0.000000000  0.000000000 23.444588000    -0.000000000  0.000000000  0.042653767

[...]

 FORCES acting on ions
    electron-ion (+dipol)            ewald-force                    non-local-force                 convergence-correction
   0.262E-03 0.139E-03 0.119E+01   0.643E-03 0.389E-03 -.118E+01   0.694E-17 -.694E-17 0.744E-03   -.513E-06 -.187E-06 -.504E-04
   -.262E-03 -.139E-03 -.119E+01   -.643E-03 -.389E-03 0.118E+01   -.694E-17 0.694E-17 -.744E-03   0.513E-06 0.187E-06 0.504E-04
   -.147E-04 -.900E-04 0.191E+03   -.141E-03 -.779E-04 -.186E+03   0.694E-17 0.000E+00 -.459E+01   0.344E-07 -.349E-07 -.898E-02
   0.147E-04 0.900E-04 -.191E+03   0.141E-03 0.779E-04 0.186E+03   -.694E-17 0.000E+00 0.459E+01   -.344E-07 0.349E-07 0.898E-02
   -.246E+02 0.156E+00 -.424E+03   0.233E+02 -.155E+00 0.425E+03   0.232E+01 -.700E-02 -.284E+01   0.421E-02 -.543E-04 0.227E-01
   0.124E+02 0.212E+02 -.424E+03   -.118E+02 -.201E+02 0.425E+03   -.117E+01 -.200E+01 -.284E+01   -.215E-02 -.362E-02 0.227E-01
   0.122E+02 -.214E+02 -.424E+03   -.115E+02 0.202E+02 0.425E+03   -.115E+01 0.201E+01 -.284E+01   -.206E-02 0.368E-02 0.227E-01
   0.246E+02 -.156E+00 0.424E+03   -.233E+02 0.155E+00 -.425E+03   -.232E+01 0.700E-02 0.284E+01   -.421E-02 0.543E-04 -.227E-01
   -.124E+02 -.212E+02 0.424E+03   0.118E+02 0.201E+02 -.425E+03   0.117E+01 0.200E+01 0.284E+01   0.215E-02 0.362E-02 -.227E-01
   -.122E+02 0.214E+02 0.424E+03   0.115E+02 -.202E+02 -.425E+03   0.115E+01 -.201E+01 0.284E+01   0.206E-02 -.368E-02 -.227E-01
   -.830E-11 -.227E-10 0.290E-09   0.355E-14 0.000E+00 -.171E-12   -.222E-15 0.444E-15 -.444E-15   0.427E-13 -.329E-13 0.313E-11

 POSITION                                       TOTAL-FORCE (eV/Angst)
      3.45388      1.99410     11.72054        -0.000000      0.000000      0.007593
      6.90778      3.98821     11.72405         0.000000      0.000000     -0.007593
      0.00000      0.00000     10.50824        -0.000000     -0.000000      0.140707
      0.00000      0.00000     12.93635        -0.000000      0.000000     -0.140707
      4.32819      0.00251     13.45138         0.967626     -0.005449     -1.306984
      1.29198      2.23274     13.45138        -0.488532     -0.835264     -1.306984
      4.74152      3.74706     13.45138        -0.479094      0.840713     -1.306984
      6.03348      5.97980      9.99321        -0.967626      0.005449      1.306984
      9.06969      3.74957      9.99321         0.488532      0.835264      1.306984
      5.62015      2.23525      9.99321         0.479094     -0.840713      1.306984
    total drift:                               -0.000000     -0.000000      0.000000

  FREE ENERGIE OF THE ION-ELECTRON SYSTEM (eV)
  free  energy   TOTEN  =       -34.91561923 eV

  energy  without entropy=      -34.91561923  energy(sigma->0) =      -34.91561923

[...]

 d Force = 0.2679791E+00[-0.166E+00, 0.702E+00]  d Energy = 0.4135745E+01-0.387E+01
 d Force =-0.1695658E+03[-0.192E+03,-0.147E+03]  d Ewald  =-0.2084810E+04 0.192E+04

 Steepest descent step on ions:
 trial-energy change:   -4.135745  1 .order   -3.123398   -7.524065    1.277269
  (g-gl).g = 0.752E+01      g.g   = 0.752E+01  gl.gl    = 0.000E+00
 g(Force)  = 0.767E+00   g(Stress)= 0.676E+01 ortho     = 0.000E+00
 gamma     =   0.00000
 trial     =   1.00000
 opt step  =   0.91089  (harmonic =   0.85488) maximal distance =0.05743398
 next E    =   -39.107555   (d E  =  -4.19194)

[...]

 d Force = 0.9929898E-02[ 0.332E-02, 0.165E-01]  d Energy = 0.6944188E-01-0.595E-01
 d Force = 0.1819166E+02[ 0.180E+02, 0.184E+02]  d Ewald  = 0.2191999E+03-0.201E+03

[...]

 d Force = 0.4194908E-03[ 0.178E-03, 0.661E-03]  d Energy =-0.4916038E-03 0.911E-03
 d Force = 0.3586860E+01[ 0.358E+01, 0.360E+01]  d Ewald  = 0.4319662E+02-0.396E+02

[...]

 d Force = 0.3032213E-02[ 0.213E-02, 0.394E-02]  d Energy = 0.3087284E-02-0.551E-04
 d Force =-0.6795868E+01[-0.680E+01,-0.679E+01]  d Ewald  =-0.3256095E+02 0.258E+02

 Conjugate gradient step on ions:
 trial-energy change:   -0.003087  1 .order   -0.003324   -0.004195   -0.002453
  (g-gl).g = 0.344E-01      g.g   = 0.442E-02  gl.gl    = 0.752E+01
 g(Force)  = 0.407E-02   g(Stress)= 0.354E-03 ortho     =-0.299E-01
 gamma     =   0.00457
 trial     =   0.97859
 opt step  =   2.35687  (harmonic =   2.35687) maximal distance =0.01033266
 next E    =   -39.125366   (d E  =  -0.00505)

[...]

 d Force = 0.3803870E-03[ 0.139E-03, 0.622E-03]  d Energy = 0.1219003E-02-0.839E-03
 d Force =-0.6983620E+01[-0.700E+01,-0.697E+01]  d Ewald  =-0.3502554E+02 0.280E+02

[...]

 d Force = 0.1299885E-04[-0.271E-04, 0.531E-04]  d Energy = 0.2439138E-03-0.231E-03
 d Force =-0.2678707E+01[-0.268E+01,-0.268E+01]  d Ewald  =-0.1344048E+02 0.108E+02

[...]

 d Force = 0.7025086E-03[ 0.474E-03, 0.931E-03]  d Energy = 0.7801674E-03-0.777E-04
 d Force =-0.1222878E+01[-0.122E+01,-0.122E+01]  d Ewald  = 0.7704948E+01-0.893E+01

 Conjugate gradient step on ions:
 trial-energy change:   -0.000780  1 .order   -0.000787   -0.001048   -0.000525
  (g-gl).g = 0.187E-05      g.g   = 0.261E-02  gl.gl    = 0.572E-02
 g(Force)  = 0.232E-02   g(Stress)= 0.291E-03 ortho     =-0.510E-03
 gamma     =   0.00033
 trial     =   0.40081
 opt step  =   0.80394  (harmonic =   0.80394) maximal distance =0.00595670
 next E    =   -39.126928   (d E  =  -0.00105)

[...]

 eigenvalue-minimisations  :  1024
 total energy-change (2. order) : 0.8574760E-03  (-0.1150579E-03)
 number of electron      63.9999989 magnetization       1.8989871
 augmentation part        5.1542693 magnetization       0.9217967

[...]

 Broyden mixing:
  rms(total) = 0.12839E-02    rms(broyden)= 0.12838E-02
  rms(prec ) = 0.15291E-02
  weight for this iteration     100.00

 eigenvalues of (default mixing * dielectric matrix)
  average eigenvalue GAMMA=   1.0403
  0.2714  0.7393  2.1102

[...]

--------------------------------------- Iteration     10(   5)  ---------------------------------------

[...]

 eigenvalue-minimisations  :   688
 total energy-change (2. order) :-0.1423375E-04  (-0.2163734E-05)
 number of electron      63.9999989 magnetization       1.8989260
 augmentation part        5.1543541 magnetization       0.9215468

 Free energy of the ion-electron system (eV)
  alpha Z        PSCENC =        50.00004212
  Ewald energy   TEWEN  =      9998.99623496
  -Hartree energ DENC   =    -13545.04909793
  -exchange      EXHF   =         0.00000000
  -V(xc)+E(xc)   XCENC  =        35.33685944
  PAW double counting   =      2572.47598750    -2584.57262552
  entropy T*S    EENTRO =         0.00000000
  eigenvalues    EBANDS =      -487.27893976
  atomic energy  EATOM  =      3920.96469382
  Solvation  Ediel_sol  =         0.00000000
  free energy    TOTEN  =       -39.12684536 eV

  energy without entropy =      -39.12684536  energy(sigma->0) =      -39.12684536

 average (electrostatic) potential at core
  the test charge radii are     0.9791  0.9892  1.0808
  (the norm of the test charge is              1.0000)
       1 -50.0048       2 -50.0048       3 -92.6530       4 -92.6530       5 -61.2398
       6 -61.2398       7 -61.2398       8 -61.2398       9 -61.2398      10 -61.2398

 E-fermi :  -2.5728     XC(G=0):  -3.7274     alpha+bet : -2.7956

[...]

 spin component 2

[...]

 k-point     5 :      -0.4000    0.2000    0.0000
  band No.  band energies     occupation
      1     -16.4036      1.00000
      2     -16.2210      1.00000
      3     -15.8289      1.00000
      4     -15.7780      1.00000
      5     -15.6465      1.00000
      6     -15.4541      1.00000
      7     -10.8815      1.00000
      8      -9.3064      1.00000
      9      -7.9155      1.00000
     10      -7.4124      1.00000
     11      -7.3940      1.00000
     12      -6.9120      1.00000
     13      -6.6036      1.00000
     14      -6.3419      1.00000
     15      -6.0000      1.00000
     16      -5.6940      1.00000
     17      -5.6311      1.00000
     18      -5.5354      1.00000
     19      -5.5021      1.00000
     20      -5.3094      1.00000
     21      -5.1152      1.00000
     22      -4.5865      1.00000
     23      -4.4457      1.00000
     24      -4.3671      1.00000
     25      -4.2742      1.00000
     26      -4.0518      1.00000
     27      -4.0205      1.00000
     28      -3.8868      1.00000
     29      -3.8729      1.00000
     30      -3.6561      1.00000
     31      -3.6105      1.00000
     32      -2.3805     -0.04138
     33      -2.3140      0.00000
     34      -2.0666      0.00000
     35      -1.6806      0.00000
     36      -0.4076      0.00000
     37       0.1077      0.00000
     38       0.5385      0.00000
     39       0.8590      0.00000
     40       1.4179      0.00000
     41       1.6713      0.00000
     42       1.8636      0.00000
     43       2.7109      0.00000
     44       2.8291      0.00000
     45       2.8615      0.00000
     46       3.0155      0.00000
     47       3.1430      0.00000
     48       3.6562      0.00000

[...]

 soft charge-density along one line, spin component           2
         0         1         2         3         4         5         6         7         8         9
 total charge-density along one line

------------------------ aborting loop because EDIFF is reached ----------------------------------------

[...]

  FORCE on cell =-STRESS in cart. coord.  units (eV):
  Direction    XX          YY          ZZ          XY          YZ          ZX
  Alpha Z    50.00004    50.00004    50.00004
  Ewald   12171.25167 12171.24933-14343.50734    -0.00227    -0.00058    -0.00105
  Hartree 12919.59994 12919.60108-12293.48405    -0.00051     0.00008     0.00013
  E(xc)    -272.93969  -272.93981  -272.57520     0.00013    -0.00000     0.00002
  Local  -25823.69924-25823.69934 25876.35657     0.00240     0.00031     0.00059
  n-local   260.53986   260.92045   261.95138     0.03547     0.52584     0.32775
  augment    68.36914    68.36874    64.74952     0.00049    -0.00032     0.00026
  Kinetic   631.43820   621.97473   656.56403    -4.87972    -0.92824    -1.38345
  Fock        0.00000     0.00000     0.00000     0.00000     0.00000     0.00000
  Total       0.01757     0.01757     0.05496    -0.00000     0.00000     0.00000
  in kB       0.03878     0.03878     0.12133    -0.00000     0.00000     0.00000

 VOLUME and BASIS-vectors are now :
  energy-cutoff  :      520.00
  volume of cell :      725.75
      direct lattice vectors                 reciprocal lattice vectors
     6.159355893  0.000000266  0.000000000     0.162354643 -0.093735481 -0.000000000
     3.079677378  5.334158560 -0.000000000    -0.000000008  0.187470997  0.000000000
     0.000000000 -0.000000000 22.089539915    -0.000000000  0.000000000  0.045270296

  length of vectors
     6.159355893  6.159355510 22.089539915     0.187470986  0.187470997  0.045270296

 FORCES acting on ions
    electron-ion (+dipol)            ewald-force                    non-local-force                 convergence-correction
   -.160E-03 -.106E-03 0.646E+00   0.802E-03 0.479E-03 -.652E+00   0.208E-16 -.139E-16 0.977E-02   0.373E-07 0.107E-06 0.440E-03
   0.160E-03 0.106E-03 -.646E+00   -.802E-03 -.479E-03 0.652E+00   0.694E-17 0.236E-20 -.977E-02   -.373E-07 -.107E-06 -.440E-03
   -.849E-04 0.544E-04 0.246E+03   -.187E-03 -.104E-03 -.240E+03   0.268E-16 0.143E-17 -.593E+01   -.485E-08 -.463E-08 0.132E-02
   0.849E-04 -.544E-04 -.246E+03   0.187E-03 0.104E-03 0.240E+03   0.966E-18 -.143E-17 0.593E+01   0.485E-08 0.463E-08 -.132E-02
   -.279E+02 -.316E-01 -.538E+03   0.260E+02 0.327E-01 0.540E+03   0.191E+01 -.164E-02 -.230E+01   -.135E-02 0.995E-05 -.310E-04
   0.139E+02 0.241E+02 -.538E+03   -.130E+02 -.225E+02 0.540E+03   -.955E+00 -.165E+01 -.230E+01   0.683E-03 0.116E-02 -.310E-04
   0.140E+02 -.241E+02 -.538E+03   -.130E+02 0.225E+02 0.540E+03   -.952E+00 0.165E+01 -.230E+01   0.666E-03 -.117E-02 -.310E-04
   0.279E+02 0.316E-01 0.538E+03   -.260E+02 -.327E-01 -.540E+03   -.191E+01 0.164E-02 0.230E+01   0.135E-02 -.995E-05 0.310E-04
   -.139E+02 -.241E+02 0.538E+03   0.130E+02 0.225E+02 -.540E+03   0.955E+00 0.165E+01 0.230E+01   -.683E-03 -.116E-02 0.310E-04
   -.140E+02 0.241E+02 0.538E+03   0.130E+02 -.225E+02 -.540E+03   0.952E+00 -.165E+01 0.230E+01   -.666E-03 0.117E-02 0.310E-04
   -.805E-09 0.625E-09 0.145E-08   0.355E-14 0.000E+00 -.114E-12   -.111E-15 0.222E-15 0.888E-15   0.479E-12 -.127E-11 0.987E-11

 POSITION                                       TOTAL-FORCE (eV/Angst)
      3.07967      1.77805     11.04368        -0.000000      0.000000      0.004634
      6.15936      3.55611     11.04586        -0.000000     -0.000000     -0.004634
      0.00000     -0.00000      9.90317        -0.000000      0.000000     -0.004959
      0.00000     -0.00000     12.18637        -0.000000     -0.000000      0.004959
      3.88214      0.00064     12.61264         0.019680      0.000212      0.003567
      1.13916      1.97182     12.61264        -0.009656     -0.017149      0.003567
      4.21774      3.36171     12.61264        -0.010023      0.016937      0.003567
      5.35689      5.33352      9.47690        -0.019680     -0.000212     -0.003567
      8.09987      3.36234      9.47690         0.009656      0.017149     -0.003567
      5.02129      1.97245      9.47690         0.010023     -0.016937     -0.003567
    total drift:                               -0.000000      0.000000      0.000000

  FREE ENERGIE OF THE ION-ELECTRON SYSTEM (eV)
  free  energy   TOTEN  =       -39.12684536 eV

  energy  without entropy=      -39.12684536  energy(sigma->0) =      -39.12684536

 d Force = 0.2384526E-03[ 0.277E-06, 0.477E-03]  d Energy = 0.1879383E-03 0.505E-04
 d Force =-0.1227743E+01[-0.123E+01,-0.123E+01]  d Ewald  = 0.7749472E+01-0.898E+01

 reached required accuracy - stopping structural energy minimisation

 total charge

[...]

 magnetization (x)

# of ion       s       p       d       tot
    1       -0.001  -0.001   0.563   0.562
    2       -0.001  -0.001   0.563   0.562
    3        0.002   0.004   0.000   0.006
    4        0.002   0.004   0.000   0.006
    5        0.007   0.050   0.001   0.059
    6        0.008   0.067   0.002   0.078
    7        0.007   0.059   0.002   0.068
    8        0.007   0.050   0.001   0.059
    9        0.008   0.067   0.002   0.078
   10        0.007   0.059   0.002   0.068
tot          0.048   0.360   1.138   1.545

 BZINTS: Fermi energy: -2.572783; 64.000000 electrons
         Band energy:-487.278940;  BLOECHL correction: -0.016835