 vasp.5.4.4.18Apr17-6-g9f103f2a35 (build May  1 2020 15:48:39) complex
 executed on             LinuxGNU date 2020.07.05  21:10:38

 INCAR:
 POTCAR:   PAW_PBE Fe 06Sep2000
 POTCAR:   PAW_PBE Ge 05Jan2001
 POTCAR:    PAW_PBE P 17Jan2003
 POTCAR:   PAW_PBE Se 06Sep2000

 POTCAR:   PAW_PBE Fe 06Sep2000
   VRHFIN =Fe:  d7 s1

   TITEL  = PAW_PBE Fe 06Sep2000
   POMASS =   55.847; ZVAL   =    8.000    mass and valenz
   ENMAX  =  267.883; ENMIN  =  200.912 eV
   QCUT   =   -4.437; QGAM   =    8.874    optimization parameters

   Description
     l     E      TYP  RCUT    TYP  RCUT
     2   .000     23  2.300
     2   .000     23  2.300
     0   .000     23  2.300
     0   .000     23  2.300
     1  -.200     23  2.300
     1   .000     23  2.300
     3   .000      7   .000

 POTCAR:   PAW_PBE Ge 05Jan2001
   VRHFIN =Ge: s2p2

   TITEL  = PAW_PBE Ge 05Jan2001
   POMASS =   72.610; ZVAL   =    4.000    mass and valenz
   ENMAX  =  173.807; ENMIN  =  130.355 eV
   QCUT   =   -3.574; QGAM   =    7.148    optimization parameters

[...]

 POTCAR:    PAW_PBE P 17Jan2003
   VRHFIN =P : s2p3

   TITEL  = PAW_PBE P 17Jan2003
   POMASS =   30.974; ZVAL   =    5.000    mass and valenz
   ENMAX  =  270.000; ENMIN  =  191.280 eV
   QCUT   =   -4.330; QGAM   =    8.659    optimization parameters

[...]

 POTCAR:   PAW_PBE Se 06Sep2000
   VRHFIN =Se: s2p4

   TITEL  = PAW_PBE Se 06Sep2000
   POMASS =   78.960; ZVAL   =    6.000    mass and valenz
   ENMAX  =  211.534; ENMIN  =  158.651 eV
   QCUT   =   -3.943; QGAM   =    7.886    optimization parameters

   Description
     l     E      TYP  RCUT    TYP  RCUT
     0   .000     23  2.100
     0   .000     23  2.100
     1   .000     23  2.100
     1   .000     23  2.100
     2   .000     23  2.100
     3  -.100      7  2.100

 Optimization of the real space projectors (new method)

 maximal supplied QI-value         = 16.25
 optimisation between [QCUT,QGAM] = [ 11.54, 23.24] = [ 37.28,151.24] Ry
 Optimized for a Real-space Cutoff    1.53 Angstroem

   l    n(q)    QCUT    max X(q) W(low)/X(q) W(high)/X(q)  e(spline)
   2     10    11.539     4.378    0.86E-05    0.15E-04    0.46E-07
   2     10    11.539    23.237    0.11E-03    0.14E-03    0.22E-06
   0     11    11.539    17.641    0.19E-04    0.14E-05    0.18E-07
   0     11    11.539    50.908    0.43E-04    0.16E-04    0.30E-06
   1     10    11.539     6.148    0.11E-04    0.38E-05    0.26E-07
   1     10    11.539     8.345    0.44E-04    0.25E-04    0.11E-06
 Optimization of the real space projectors (new method)

[...]

   l    n(q)    QCUT    max X(q) W(low)/X(q) W(high)/X(q)  e(spline)
   0      8    11.508     6.651    0.19E-04    0.31E-05    0.49E-08
   0      8    11.508    90.285    0.95E-04    0.17E-03    0.51E-07
   1      8    11.508     4.328    0.14E-04    0.32E-04    0.22E-07
   1      8    11.508    54.583    0.16E-03    0.71E-04    0.89E-07
 Optimization of the real space projectors (new method)

 maximal supplied QI-value         = 17.95
 optimisation between [QCUT,QGAM] = [ 11.67, 23.34] = [ 38.13,152.52] Ry
 Optimized for a Real-space Cutoff    1.25 Angstroem

   l    n(q)    QCUT    max X(q) W(low)/X(q) W(high)/X(q)  e(spline)
   0      9    11.669     6.499    0.13E-04    0.81E-05    0.11E-07
   0      9    11.669    52.623    0.18E-03    0.46E-04    0.72E-07
   1      8    11.669     4.229    0.40E-04    0.45E-04    0.31E-07
   1      8    11.669    29.991    0.22E-03    0.36E-03    0.10E-06
   2      8    11.669     3.719    0.19E-03    0.46E-04    0.50E-07

 PAW_PBE Fe 06Sep2000                   :
 PAW_PBE Ge 05Jan2001                   :
  PAW_PBE P 17Jan2003                   :
 PAW_PBE Se 06Sep2000                   :

 POSCAR: Fe2 Ge P Se6
  positions in direct lattice
  velocities in cartesian coordinates
 exchange correlation table for  LEXCH =       42
   RHO(1)=    0.500       N(1)  =     2000
   RHO(2)=  100.500       N(2)  =     4000

 ion  position               nearest neighbor table
   1  0.333  0.333  0.500-   6 2.78   5 2.78   7 2.78   8 2.78  10 2.78   9 2.78
   2  0.667  0.667  0.500-   9 2.78   8 2.78  10 2.78   5 2.78   7 2.78   6 2.78
   3  0.000  0.000  0.448-   4 2.43   8 2.63  10 2.63   9 2.63
   4  0.000  0.000  0.552-   3 2.43   5 2.63   7 2.63   6 2.63
   5  0.626  0.000  0.574-   4 2.63   1 2.78   2 2.78
   6  0.000  0.373  0.574-   4 2.63   1 2.78   2 2.78
   7  0.373  0.626  0.574-   4 2.63   1 2.78   2 2.78
   8  0.374  1.000  0.426-   3 2.63   2 2.78   1 2.78
   9  1.000  0.627  0.426-   3 2.63   2 2.78   1 2.78
  10  0.627  0.374  0.426-   3 2.63   2 2.78   1 2.78

  LATTYP: Found a hexagonal cell.
 ALAT       =     6.9077769333
 C/A-ratio  =     3.3939410937

  Lattice vectors:

 A1 = (   3.4538890000,  -5.9823100000,   0.0000000000)
 A2 = (  -6.9077770000,   0.0000000000,   0.0000000000)
 A3 = (   0.0000000000,   0.0000000000, -23.4445880000)

Analysis of symmetry for initial positions (statically):
 Subroutine PRICEL returns:
 Original cell was already a primitive cell.

 Routine SETGRP: Setting up the symmetry group for a
 hexagonal supercell.

 Subroutine GETGRP returns: Found  3 space group operations
 (whereof  3 operations were pure point group operations)
 out of a pool of 24 trial point group operations.

The static configuration has the point symmetry C_3 .

Analysis of symmetry for dynamics (positions and initial velocities):
 Subroutine PRICEL returns:
 Original cell was already a primitive cell.

[...]

The dynamic configuration has the point symmetry C_3 .

Analysis of constrained symmetry for selective dynamics:
 Subroutine PRICEL returns:
 Original cell was already a primitive cell.

[...]

The constrained configuration has the point symmetry C_3 .

Analysis of structural, dynamic, and magnetic symmetry:
 Subroutine PRICEL returns:
 Original cell was already a primitive cell.

 Routine SETGRP: Setting up the symmetry group for a
 hexagonal supercell.

 Subroutine GETGRP returns: Found  3 space group operations
 (whereof  3 operations were pure point group operations)
 out of a pool of 24 trial point group operations.

The magnetic configuration has the point symmetry C_3 .

 Subroutine INISYM returns: Found  3 space group operations
 (whereof  3 operations are pure point group operations),
 and found     1 'primitive' translations

 KPOINTS: Kpoints from vasprun.xml

Automatic generation of k-mesh.
Space group operators:
 irot       det(A)        alpha          n_x          n_y          n_z        tau_x        tau_y        tau_z
    1     1.000000     0.000000     1.000000     0.000000     0.000000     0.000000     0.000000     0.000000
    2     1.000000   120.000000     0.000000     0.000000     1.000000     0.000000     0.000000     0.000000
    3     1.000000   120.000000     0.000000     0.000000    -1.000000     0.000000     0.000000     0.000000

 Subroutine IBZKPT returns following result:

 Found      5 irreducible k-points:

 Following reciprocal coordinates:
            Coordinates               Weight
  0.000000  0.000000  0.000000      1.000000
  0.200000  0.000000  0.000000      6.000000
  0.400000  0.000000  0.000000      6.000000
  0.400000  0.200000  0.000000      6.000000
 -0.400000  0.200000  0.000000      6.000000

 Following cartesian coordinates:
            Coordinates               Weight
  0.000000  0.000000  0.000000      1.000000
  0.028953 -0.016716  0.000000      6.000000
  0.057906 -0.033432  0.000000      6.000000
  0.057906  0.000000  0.000000      6.000000
 -0.057906  0.066864  0.000000      6.000000

 TETIRR: Found     15 inequivalent tetrahedra from      150

 SYSTEM =  unknown system
 POSCAR =  Fe2 Ge P Se6

 Startparameter for this run:
   NWRITE =      2    write-flag & timer
   PREC   = accura    normal or accurate (medium, high low for compatibility)
   ISTART =      0    job   : 0-new  1-cont  2-samecut
   ICHARG =      2    charge: 1-file 2-atom 10-const
   ISPIN  =      2    spin polarized calculation?
   LNONCOLLINEAR =      F non collinear calculations
   LSORBIT =      F    spin-orbit coupling
   INIWAV =      1    electr: 0-lowe 1-rand  2-diag
   LASPH  =      F    aspherical Exc in radial PAW
   METAGGA=      F    non-selfconsistent MetaGGA calc.

 Electronic Relaxation 1
   ENCUT  =  520.0 eV  38.22 Ry    6.18 a.u.  12.84 12.84 43.59*2*pi/ulx,y,z
   ENINI  =  520.0     initial cutoff
   ENAUG  =  511.4 eV  augmentation charge cutoff
   NELM   =    400;   NELMIN=  2; NELMDL=  0     # of ELM steps
   EDIFF  = 0.1E-03   stopping-criterion for ELM
   LREAL  =      T    real-space projection
   NLSPLINE    = F    spline interpolate recip. space projectors
   LCOMPAT=      F    compatible to vasp.4.4
   GGA_COMPAT  = T    GGA compatible to vasp.4.4-vasp.4.6
   LMAXPAW     = -100 max onsite density
   LMAXMIX     =    2 max onsite mixed and CHGCAR
   VOSKOWN=      0    Vosko Wilk Nusair interpolation
   ROPT   =   -0.00025  -0.00025  -0.00025  -0.00025
 Ionic relaxation
   EDIFFG = 0.1E-02   stopping-criterion for IOM
   NSW    =     99    number of steps for IOM
   NBLOCK =      1;   KBLOCK =     99    inner block; outer block
   IBRION =      2    ionic relax: 0-MD 1-quasi-New 2-CG
   NFREE  =      1    steps in history (QN), initial steepest desc. (CG)
   ISIF   =      3    stress and relaxation
   IWAVPR =     11    prediction:  0-non 1-charg 2-wave 3-comb
   ISYM   =      2    0-nonsym 1-usesym 2-fastsym
   LCORR  =      T    Harris-Foulkes like correction to forces

   POTIM  = 0.5000    time-step for ionic-motion
   TEIN   =    0.0    initial temperature
   TEBEG  =    0.0;   TEEND  =   0.0 temperature during run
   SMASS  =  -3.00    Nose mass-parameter (am)
   estimated Nose-frequenzy (Omega)   =  0.10E-29 period in steps =****** mass=  -0.109E-26a.u.
   SCALEE = 1.0000    scale energy and forces
   NPACO  =    256;   APACO  = 16.0  distance and # of slots for P.C.
   PSTRESS=    0.0 pullay stress

  Mass of Ions in am
   POMASS =  55.85 72.61 30.97 78.96
  Ionic Valenz
   ZVAL   =   8.00  4.00  5.00  6.00
  Atomic Wigner-Seitz radii
  virtual crystal weights
   VCA    =   1.00  1.00  1.00  1.00
   NELECT =      61.0000    total number of electrons
   NUPDOWN=      -1.0000    fix difference up-down

 DOS related values:
   EMIN   =  10.00;   EMAX   =-10.00  energy-range for DOS
   EFERMI =   0.00
   ISMEAR =    -5;   SIGMA  =   0.05  broadening in eV -4-tet -1-fermi 0-gaus

 Electronic relaxation 2 (details)
   IALGO  =     38    algorithm
   LDIAG  =      T    sub-space diagonalisation (order eigenvalues)
   LSUBROT=      F    optimize rotation matrix (better conditioning)
   TURBO    =      0    0=normal 1=particle mesh
   IRESTART =      0    0=no restart 2=restart with 2 vectors
   NREBOOT  =      0    no. of reboots
   NMIN     =      0    reboot dimension
   EREF     =   0.00    reference energy to select bands
   IMIX   =      4    mixing-type and parameters
     AMIX     =   0.40;   BMIX     =  1.00
     AMIX_MAG =   1.60;   BMIX_MAG =  1.00
     AMIN     =   0.01
     WC   =   100.;   INIMIX=   1;  MIXPRE=   1;  MAXMIX= -45

 Intra band minimization:
   WEIMIN = 0.0010     energy-eigenvalue tresh-hold
   EBREAK =  0.52E-06  absolut break condition
[...]
  Hartree  9555.94394  9555.94460 -9177.05908    -0.00017     0.00007     0.00011
  E(xc)    -242.08193  -242.08196  -242.18686     0.00004    -0.00001     0.00002
  Local  -19265.89847-19265.89789 19099.27986     0.00141     0.00024     0.00046
  n-local   262.68532   263.17256   273.45544     0.33040     0.61314     0.19390
  augment    45.73079    45.73092    42.02217    -0.00001     0.00001     0.00002
  Kinetic   611.34673   608.60601   650.40673    -1.99331    -1.46035    -0.91323
  Fock        0.00000     0.00000     0.00000     0.00000     0.00000     0.00000
  Total     -19.99063   -19.99063    -9.83239     0.00000     0.00000     0.00000
  in kB     -33.05881   -33.05880   -16.25998     0.00000     0.00000     0.00000

 VOLUME and BASIS-vectors are now :
  energy-cutoff  :      520.00
  volume of cell :      968.84
      direct lattice vectors                 reciprocal lattice vectors
     6.907777000 -0.000000000  0.000000000     0.144764372 -0.083579742  0.000000000
     3.453888000  5.982310000  0.000000000     0.000000000  0.167159509 -0.000000000
     0.000000000  0.000000000 23.444588000    -0.000000000  0.000000000  0.042653767

[...]

 FORCES acting on ions
    electron-ion (+dipol)            ewald-force                    non-local-force                 convergence-correction
   0.203E-03 0.878E-04 0.789E+01   0.473E-03 0.283E-03 -.804E+01   0.000E+00 0.000E+00 0.133E+00   0.106E-05 0.283E-06 0.466E-01
   -.162E-03 -.116E-03 0.605E+01   -.473E-03 -.283E-03 -.623E+01   0.139E-16 0.000E+00 0.156E+00   -.977E-06 -.705E-06 0.490E-01
   -.349E-04 -.503E-05 0.185E+03   -.141E-03 -.779E-04 -.184E+03   -.867E-17 0.000E+00 -.726E+00   -.136E-06 -.774E-07 0.588E-01
   0.372E-04 0.282E-04 -.216E+03   0.176E-03 0.974E-04 0.215E+03   -.173E-17 0.000E+00 0.145E+01   0.278E-06 0.166E-06 -.428E-01
   -.674E+01 0.137E+00 -.386E+03   0.589E+01 -.145E+00 0.388E+03   0.184E+01 -.650E-02 -.236E+01   -.293E-01 0.963E-02 -.114E+00
   0.349E+01 0.576E+01 -.386E+03   -.307E+01 -.503E+01 0.388E+03   -.928E+00 -.159E+01 -.236E+01   0.230E-01 0.205E-01 -.114E+00
   0.325E+01 -.590E+01 -.386E+03   -.282E+01 0.517E+01 0.388E+03   -.917E+00 0.160E+01 -.236E+01   0.628E-02 -.302E-01 -.114E+00
   0.137E+02 -.165E+00 0.391E+03   -.125E+02 0.152E+00 -.393E+03   -.197E+01 0.780E-02 0.244E+01   0.272E-01 0.110E-01 0.143E+00
   -.700E+01 -.118E+02 0.391E+03   0.638E+01 0.107E+02 -.393E+03   0.993E+00 0.170E+01 0.244E+01   -.406E-02 -.291E-01 0.143E+00
   -.672E+01 0.120E+02 0.391E+03   0.612E+01 -.109E+02 -.393E+03   0.979E+00 -.171E+01 0.244E+01   -.231E-01 0.180E-01 0.143E+00
   0.105E-03 0.482E-05 -.146E+01   0.799E-14 -.355E-14 -.568E-13   0.444E-15 0.000E+00 0.126E+01   -.491E-07 -.489E-06 0.199E+00

 POSITION                                       TOTAL-FORCE (eV/Angst)
      3.45388      1.99410     11.72054         0.000000      0.000000      0.028193
      6.90778      3.98821     11.72405         0.000000      0.000000      0.025370
      0.00000      0.00000     10.50824         0.000000      0.000000     -0.179397
      0.00000      0.00000     12.93635         0.000000      0.000000      0.592544
      4.32819      0.00251     13.45138         0.967672     -0.003916     -1.056711
      1.29198      2.23274     13.45138        -0.487227     -0.836071     -1.056711
      4.74152      3.74706     13.45138        -0.480445      0.839987     -1.056711
      6.03348      5.97980      9.99321        -0.724132      0.005242      0.901141
      9.06969      3.74957      9.99321         0.366606      0.624496      0.901141
      5.62015      2.23525      9.99321         0.357526     -0.629738      0.901141
    total drift:                                0.000105      0.000004     -0.000377

  FREE ENERGIE OF THE ION-ELECTRON SYSTEM (eV)
  free  energy   TOTEN  =       -40.24014389 eV

  energy  without entropy=      -40.24014389  energy(sigma->0) =      -40.24014389

[...]

 d Force = 0.2555797E+00[ 0.380E-01, 0.473E+00]  d Energy = 0.2764071E+01-0.251E+01
 d Force =-0.1094374E+03[-0.121E+03,-0.975E+02]  d Ewald  =-0.1536954E+04 0.143E+04

 Steepest descent step on ions:
 trial-energy change:   -2.764071  1 .order   -2.533556   -4.829748   -0.237364
  (g-gl).g = 0.483E+01      g.g   = 0.483E+01  gl.gl    = 0.000E+00
 g(Force)  = 0.508E+00   g(Stress)= 0.432E+01 ortho     = 0.000E+00
 gamma     =   0.00000
 trial     =   1.00000
 opt step  =   1.03936  (harmonic =   1.05169) maximal distance =0.04852072
 next E    =   -43.008901   (d E  =  -2.76876)

[...]

 d Force = 0.7062160E-03[-0.635E-04, 0.148E-02]  d Energy = 0.2547343E-02-0.184E-02
 d Force =-0.5024287E+01[-0.505E+01,-0.500E+01]  d Ewald  =-0.7062120E+02 0.656E+02

[...]

 d Force =-0.1063587E-03[-0.243E-03, 0.302E-04]  d Energy = 0.6237509E-03-0.730E-03
 d Force = 0.2086862E+01[ 0.208E+01, 0.209E+01]  d Ewald  = 0.2928321E+02-0.272E+02

[...]

 d Force = 0.1134241E+00[ 0.979E-01, 0.129E+00]  d Energy = 0.1716224E+00-0.582E-01
 d Force =-0.3666518E+02[-0.369E+02,-0.364E+02]  d Ewald  = 0.1361932E+03-0.173E+03

 Conjugate gradient step on ions:
 trial-energy change:   -0.171622  1 .order   -0.150610   -0.165268   -0.135952
  (g-gl).g = 0.108E+00      g.g   = 0.163E+00  gl.gl    = 0.483E+01
 g(Force)  = 0.128E+00   g(Stress)= 0.349E-01 ortho     = 0.553E-01
 gamma     =   0.02236
 trial     =   1.00462
 opt step  =   4.01848  (harmonic =   5.66350) maximal distance =0.14962402
 next E    =   -43.473231   (d E  =  -0.46584)

[...]

 d Force = 0.3108676E-01[-0.229E+00, 0.291E+00]  d Energy = 0.1767412E+00-0.146E+00
 d Force =-0.1097450E+03[-0.112E+03,-0.108E+03]  d Ewald  = 0.4118517E+03-0.522E+03

[...]

 d Force = 0.4383417E-01[-0.200E-01, 0.108E+00]  d Energy = 0.6634703E-01-0.225E-01
 d Force = 0.5476171E+02[ 0.543E+02, 0.552E+02]  d Ewald  =-0.1908300E+03 0.246E+03

[...]

 d Force = 0.2633781E-02[ 0.970E-03, 0.430E-02]  d Energy = 0.6682274E-02-0.405E-02
 d Force =-0.2720762E+01[-0.273E+01,-0.271E+01]  d Ewald  =-0.4478391E+02 0.421E+02

[...]

 d Force = 0.3786808E-03[ 0.352E-03, 0.405E-03]  d Energy = 0.8879286E-04 0.290E-03
 d Force =-0.5178978E+00[-0.518E+00,-0.518E+00]  d Ewald  = 0.2066869E+01-0.258E+01

[...]

 d Force = 0.2161610E-02[-0.136E-02, 0.568E-02]  d Energy = 0.2928305E-02-0.767E-03
 d Force =-0.1453667E+02[-0.146E+02,-0.145E+02]  d Ewald  =-0.2034468E+02 0.581E+01

 Conjugate gradient step on ions:
 trial-energy change:   -0.002928  1 .order   -0.002173   -0.007690    0.003344
  (g-gl).g = 0.335E-02      g.g   = 0.454E-02  gl.gl    = 0.925E-02
 g(Force)  = 0.265E-02   g(Stress)= 0.190E-02 ortho     = 0.867E-03
 gamma     =   0.36245
 trial     =   1.58287
 opt step  =   1.21838  (harmonic =   1.10316) maximal distance =0.00846971
 next E    =   -43.521143   (d E  =  -0.00330)

[...]

 d Force = 0.1094530E-03[-0.947E-04, 0.314E-03]  d Energy = 0.4595857E-03-0.350E-03
 d Force = 0.3361891E+01[ 0.336E+01, 0.336E+01]  d Ewald  = 0.4695029E+01-0.133E+01

[...]

 d Force = 0.2510326E-03[ 0.153E-03, 0.349E-03]  d Energy =-0.2659562E-02 0.291E-02
 d Force = 0.1309919E+01[ 0.131E+01, 0.131E+01]  d Ewald  = 0.2865510E+02-0.273E+02

 Steepest descent step on ions:
 trial-energy change:    0.002660  1 .order    0.001728   -0.003729    0.007185
  (g-gl).g = 0.422E-02      g.g   = 0.247E-02  gl.gl    = 0.454E-02
 g(Force)  = 0.230E-03   g(Stress)= 0.224E-02 ortho     =-0.109E-02
 gamma     =   0.00000
 trial     =   1.50997
 opt step  =   0.37226  (harmonic =   0.51586) maximal distance =0.00058505
 next E    =   -43.521673   (d E  =  -0.00045)

[...]

 eigenvalue-minimisations  :  1232
 total energy-change (2. order) : 0.5186416E-02  (-0.7468455E-03)
 number of electron      61.0000006 magnetization       0.9948155
 augmentation part        0.4242541 magnetization       0.7844472

[...]

 Broyden mixing:
  rms(total) = 0.37775E-02    rms(broyden)= 0.37773E-02
  rms(prec ) = 0.41382E-02
  weight for this iteration     100.00

 eigenvalues of (default mixing * dielectric matrix)
  average eigenvalue GAMMA=   0.8750
  2.2024  1.4534  0.0910  0.2337  0.6348  0.6348

[...]

--------------------------------------- Iteration     18(   8)  ---------------------------------------

[...]

 eigenvalue-minimisations  :   720
 total energy-change (2. order) :-0.3212605E-04  (-0.7276119E-05)
 number of electron      61.0000006 magnetization       0.9954986
 augmentation part        0.4330260 magnetization       0.7805110

 Free energy of the ion-electron system (eV)
  alpha Z        PSCENC =        49.65696939
  Ewald energy   TEWEN  =      8448.29095994
  -Hartree energ DENC   =    -11187.75373594
  -exchange      EXHF   =         0.00000000
  -V(xc)+E(xc)   XCENC  =        -4.42255007
  PAW double counting   =      1840.03098213    -1745.31765975
  entropy T*S    EENTRO =         0.00000000
  eigenvalues    EBANDS =      -470.66823072
  atomic energy  EATOM  =      3026.66202984
  Solvation  Ediel_sol  =         0.00000000
  free energy    TOTEN  =       -43.52123517 eV

  energy without entropy =      -43.52123517  energy(sigma->0) =      -43.52123517

 average (electrostatic) potential at core
  the test charge radii are     1.0103  1.1631  0.9587  1.0808
  (the norm of the test charge is              1.0000)
       1 -51.6630       2 -51.1045       3 -39.7546       4 -92.3816       5 -61.4303
       6 -61.4303       7 -61.4302       8 -61.1289       9 -61.1289      10 -61.1288

 E-fermi :  -2.4440     XC(G=0):  -3.7264     alpha+bet : -2.8034

[...]

 spin component 2

[...]

 k-point     5 :      -0.4000    0.2000    0.0000
  band No.  band energies     occupation
      1     -16.9053      1.00000
      2     -16.3994      1.00000
      3     -16.0414      1.00000
      4     -15.7583      1.00000
      5     -15.5953      1.00000
      6     -15.4247      1.00000
      7     -12.5507      1.00000
      8     -10.4421      1.00000
      9      -8.1501      1.00000
     10      -7.6341      1.00000
     11      -7.3960      1.00000
     12      -6.8128      1.00000
     13      -6.7077      1.00000
     14      -6.2646      1.00000
     15      -6.1469      1.00000
     16      -5.9577      1.00000
     17      -5.8092      1.00000
     18      -5.4487      1.00000
     19      -5.4258      1.00000
     20      -5.1424      1.00000
     21      -5.0864      1.00000
     22      -4.4296      1.00000
     23      -4.1797      1.00000
     24      -4.0808      1.00000
     25      -3.8658      1.00000
     26      -3.5368      1.00000
     27      -2.9654      1.00000
     28      -2.8691      1.00000
     29      -2.7407      1.00000
     30      -2.5847      1.00000
     31      -2.3267      0.00000
     32      -2.0510      0.00000
     33      -1.2970      0.00000
     34      -1.2651      0.00000
     35      -0.9655      0.00000
     36      -0.6966      0.00000
     37      -0.4366      0.00000
     38       0.0124      0.00000
     39       0.4548      0.00000
     40       1.2302      0.00000
     41       1.3116      0.00000
     42       1.3678      0.00000
     43       2.7574      0.00000
     44       2.8801      0.00000
     45       3.0029      0.00000
     46       3.0188      0.00000
     47       3.3628      0.00000
     48       3.6427      0.00000

[...]

 soft charge-density along one line, spin component           2
         0         1         2         3         4         5         6         7         8         9
 total charge-density along one line

------------------------ aborting loop because EDIFF is reached ----------------------------------------

[...]

  FORCE on cell =-STRESS in cart. coord.  units (eV):
  Direction    XX          YY          ZZ          XY          YZ          ZX
  Alpha Z    49.65697    49.65697    49.65697
  Ewald   10367.65112 10367.64862-12287.01134    -0.00193    -0.00053    -0.00096
  Hartree 10859.14039 10859.14118-10530.04412    -0.00024     0.00006     0.00011
  E(xc)    -246.31017  -246.31018  -245.84305     0.00002     0.00001     0.00001
  Local  -21980.96431-21980.96388 22027.85282     0.00173     0.00028     0.00052
  n-local   265.68616   265.94549   274.14130    -0.01697     0.08472     0.12876
  augment    43.51590    43.51601    36.12046    -0.00102     0.00004     0.00001
  Kinetic   643.84532   639.07726   675.00863    -2.67579     1.28737     1.59085
  Fock        0.00000     0.00000     0.00000     0.00000     0.00000     0.00000
  Total      -0.03358    -0.03358    -0.11832     0.00000     0.00000    -0.00000
  in kB      -0.07434    -0.07434    -0.26197     0.00000     0.00000    -0.00000

 VOLUME and BASIS-vectors are now :
  energy-cutoff  :      520.00
  volume of cell :      723.65
      direct lattice vectors                 reciprocal lattice vectors
     6.245519951 -0.000000182 -0.000000000     0.160114769 -0.092442305  0.000000000
     3.122759779  5.408778588 -0.000000000     0.000000005  0.184884622 -0.000000000
    -0.000000000  0.000000000 21.421993496     0.000000000  0.000000000  0.046680996

  length of vectors
     6.245519951  6.245519550 21.421993496     0.184884610  0.184884622  0.046680996

 FORCES acting on ions
    electron-ion (+dipol)            ewald-force                    non-local-force                 convergence-correction
   -.275E-04 -.295E-04 0.357E+01   0.633E-03 0.378E-03 -.404E+01   -.141E-16 0.593E-19 0.461E+00   0.292E-06 0.574E-07 0.125E-01
   0.596E-05 0.249E-04 0.529E+01   -.587E-03 -.352E-03 -.565E+01   0.276E-16 0.476E-19 0.370E+00   0.104E-06 -.307E-06 0.130E-01
   -.404E-04 -.109E-04 0.237E+03   -.172E-03 -.964E-04 -.235E+03   0.408E-17 0.674E-17 -.154E+01   0.249E-07 0.143E-07 0.552E-02
   0.353E-04 0.310E-04 -.296E+03   0.233E-03 0.130E-03 0.294E+03   0.313E-18 -.199E-17 0.140E+01   -.445E-08 0.526E-09 0.104E-01
   -.160E+02 -.410E+01 -.466E+03   0.135E+02 0.398E+01 0.468E+03   0.245E+01 0.845E-01 -.235E+01   0.555E-02 0.134E-01 0.107E-01
   0.444E+01 0.159E+02 -.466E+03   -.333E+01 -.137E+02 0.468E+03   -.115E+01 -.216E+01 -.235E+01   0.884E-02 -.115E-01 0.107E-01
   0.115E+02 -.118E+02 -.466E+03   -.102E+02 0.974E+01 0.468E+03   -.130E+01 0.208E+01 -.235E+01   -.144E-01 -.190E-02 0.107E-01
   0.250E+02 -.235E+01 0.482E+03   -.227E+02 0.229E+01 -.485E+03   -.228E+01 0.317E-01 0.244E+01   -.644E-03 0.131E-01 0.158E-02
   -.145E+02 -.204E+02 0.482E+03   0.133E+02 0.185E+02 -.485E+03   0.117E+01 0.196E+01 0.244E+01   0.116E-01 -.598E-02 0.158E-02
   -.104E+02 0.228E+02 0.482E+03   0.937E+01 -.208E+02 -.485E+03   0.111E+01 -.199E+01 0.244E+01   -.110E-01 -.709E-02 0.158E-02
   0.794E-04 0.524E-04 -.105E+01   -.711E-14 0.107E-13 0.000E+00   0.222E-15 0.000E+00 0.966E+00   0.436E-06 -.220E-06 0.784E-01

 POSITION                                       TOTAL-FORCE (eV/Angst)
      3.12276      1.80292     10.73784        -0.000000      0.000000      0.005638
      6.24552      3.60585     10.74197         0.000000      0.000000      0.028573
     -0.00000      0.00000      9.60168        -0.000000      0.000000      0.036977
     -0.00000      0.00000     11.93551        -0.000000      0.000000      0.002610
      3.88911     -0.01852     12.17457         0.008641     -0.020174     -0.020014
      1.16216      2.04997     12.17457        -0.021792      0.002604     -0.020014
      4.31701      3.37733     12.17457         0.013151      0.017570     -0.020014
      5.52586      5.39809      9.23815        -0.014969     -0.017880     -0.004585
      8.15747      3.33297      9.23815        -0.008000      0.021903     -0.004585
      5.05322      2.08649      9.23815         0.022968     -0.004023     -0.004585
    total drift:                                0.000080      0.000052     -0.008524

  FREE ENERGIE OF THE ION-ELECTRON SYSTEM (eV)
  free  energy   TOTEN  =       -43.52123517 eV

  energy  without entropy=      -43.52123517  energy(sigma->0) =      -43.52123517

 d Force =-0.1762165E-03[-0.238E-03,-0.115E-03]  d Energy = 0.2667502E-02-0.284E-02
 d Force =-0.9815523E+00[-0.984E+00,-0.979E+00]  d Ewald  =-0.2157076E+02 0.206E+02

 reached required accuracy - stopping structural energy minimisation

 total charge

[...]

 magnetization (x)

# of ion       s       p       d       tot
    1        0.010   0.009   1.231   1.250
    2        0.001   0.004  -0.209  -0.204
    3        0.001   0.005   0.000   0.005
    4        0.001   0.005   0.000   0.007
    5        0.001  -0.017   0.000  -0.015
    6        0.000  -0.007   0.000  -0.006
    7        0.001  -0.011   0.000  -0.010
    8        0.001  -0.016   0.000  -0.015
    9       -0.000  -0.009   0.000  -0.009
   10        0.000  -0.017   0.000  -0.016
tot          0.016  -0.054   1.023   0.985

 BZINTS: Fermi energy: -2.443987; 61.000000 electrons
         Band energy:-470.668231;  BLOECHL correction: -0.004854