 vasp.5.4.4.18Apr17-6-g9f103f2a35 (build May  1 2020 15:48:39) complex
 executed on             LinuxGNU date 2020.07.08  14:29:21

 INCAR:
 POTCAR:   PAW_PBE Fe 06Sep2000
 POTCAR:   PAW_PBE Si 05Jan2001
 POTCAR:    PAW_PBE P 17Jan2003
 POTCAR:    PAW_PBE S 17Jan2003

 POTCAR:   PAW_PBE Fe 06Sep2000
   VRHFIN =Fe:  d7 s1

   TITEL  = PAW_PBE Fe 06Sep2000
   POMASS =   55.847; ZVAL   =    8.000    mass and valenz
   ENMAX  =  267.883; ENMIN  =  200.912 eV
   QCUT   =   -4.437; QGAM   =    8.874    optimization parameters

   Description
     l     E      TYP  RCUT    TYP  RCUT
     2   .000     23  2.300
     2   .000     23  2.300
     0   .000     23  2.300
     0   .000     23  2.300
     1  -.200     23  2.300
     1   .000     23  2.300
     3   .000      7   .000

 POTCAR:   PAW_PBE Si 05Jan2001
   VRHFIN =Si: s2p2

   TITEL  = PAW_PBE Si 05Jan2001
   POMASS =   28.085; ZVAL   =    4.000    mass and valenz
   ENMAX  =  245.345; ENMIN  =  184.009 eV
   QCUT   =   -4.246; QGAM   =    8.493    optimization parameters

[...]

 POTCAR:    PAW_PBE P 17Jan2003
   VRHFIN =P : s2p3

[...]

 POTCAR:    PAW_PBE S 17Jan2003
   VRHFIN =S : s2p4

   TITEL  = PAW_PBE S 17Jan2003
   POMASS =   32.066; ZVAL   =    6.000    mass and valenz
   ENMAX  =  280.000; ENMIN  =  194.016 eV
   QCUT   =   -4.360; QGAM   =    8.721    optimization parameters

   Description
     l     E      TYP  RCUT    TYP  RCUT
     0   .000     23  1.900
     0   .000     23  1.900
     1   .000     23  1.900
     1   .000     23  1.900
     2   .000     23  1.900

 Optimization of the real space projectors (new method)

 maximal supplied QI-value         = 16.25
 optimisation between [QCUT,QGAM] = [ 11.54, 23.24] = [ 37.28,151.24] Ry
 Optimized for a Real-space Cutoff    1.53 Angstroem

   l    n(q)    QCUT    max X(q) W(low)/X(q) W(high)/X(q)  e(spline)
   2     10    11.539     4.378    0.86E-05    0.15E-04    0.46E-07
   2     10    11.539    23.237    0.11E-03    0.14E-03    0.22E-06
   0     11    11.539    17.641    0.19E-04    0.14E-05    0.18E-07
   0     11    11.539    50.908    0.43E-04    0.16E-04    0.30E-06
   1     10    11.539     6.148    0.11E-04    0.38E-05    0.26E-07
   1     10    11.539     8.345    0.44E-04    0.25E-04    0.11E-06
 Optimization of the real space projectors (new method)

[...]

   l    n(q)    QCUT    max X(q) W(low)/X(q) W(high)/X(q)  e(spline)
   0      8    11.508     6.651    0.19E-04    0.31E-05    0.49E-08
   0      8    11.508    90.285    0.95E-04    0.17E-03    0.51E-07
   1      8    11.508     4.328    0.14E-04    0.32E-04    0.22E-07
   1      8    11.508    54.583    0.16E-03    0.71E-04    0.89E-07
 Optimization of the real space projectors (new method)

 maximal supplied QI-value         = 19.84
 optimisation between [QCUT,QGAM] = [ 11.51, 23.22] = [ 37.09,150.92] Ry
 Optimized for a Real-space Cutoff    1.21 Angstroem

   l    n(q)    QCUT    max X(q) W(low)/X(q) W(high)/X(q)  e(spline)
   0      8    11.508     5.487    0.18E-04    0.22E-05    0.47E-08
   0      8    11.508    85.627    0.96E-04    0.18E-03    0.54E-07
   1      8    11.508     3.530    0.17E-04    0.28E-04    0.21E-07
   1      8    11.508    42.714    0.18E-03    0.63E-04    0.92E-07

 PAW_PBE Fe 06Sep2000                   :
 PAW_PBE Si 05Jan2001                   :
  PAW_PBE P 17Jan2003                   :
  PAW_PBE S 17Jan2003                   :

 POSCAR: Fe2 Si P S6
  positions in direct lattice
  velocities in cartesian coordinates
 exchange correlation table for  LEXCH =       42
   RHO(1)=    0.500       N(1)  =     2000
   RHO(2)=  100.500       N(2)  =     4000

 ion  position               nearest neighbor table
   1  0.333  0.333  0.500-   6 2.78   5 2.78   7 2.78   8 2.78  10 2.78   9 2.78
   2  0.667  0.667  0.500-   9 2.78   8 2.78  10 2.78   5 2.78   7 2.78   6 2.78
   3  0.000  0.000  0.448-   4 2.43   8 2.63  10 2.63   9 2.63
   4  0.000  0.000  0.552-   3 2.43   5 2.63   7 2.63   6 2.63
   5  0.626  0.000  0.574-   4 2.63   1 2.78   2 2.78
   6  0.000  0.373  0.574-   4 2.63   1 2.78   2 2.78
   7  0.373  0.626  0.574-   4 2.63   1 2.78   2 2.78
   8  0.374  1.000  0.426-   3 2.63   2 2.78   1 2.78
   9  1.000  0.627  0.426-   3 2.63   2 2.78   1 2.78
  10  0.627  0.374  0.426-   3 2.63   2 2.78   1 2.78

  LATTYP: Found a hexagonal cell.
 ALAT       =     6.9077769333
 C/A-ratio  =     3.3939410937

  Lattice vectors:

 A1 = (   3.4538890000,  -5.9823100000,   0.0000000000)
 A2 = (  -6.9077770000,   0.0000000000,   0.0000000000)
 A3 = (   0.0000000000,   0.0000000000, -23.4445880000)

Analysis of symmetry for initial positions (statically):
 Subroutine PRICEL returns:
 Original cell was already a primitive cell.

 Routine SETGRP: Setting up the symmetry group for a
 hexagonal supercell.

 Subroutine GETGRP returns: Found  3 space group operations
 (whereof  3 operations were pure point group operations)
 out of a pool of 24 trial point group operations.

The static configuration has the point symmetry C_3 .

Analysis of symmetry for dynamics (positions and initial velocities):
 Subroutine PRICEL returns:
 Original cell was already a primitive cell.

[...]

The dynamic configuration has the point symmetry C_3 .

Analysis of constrained symmetry for selective dynamics:
 Subroutine PRICEL returns:
 Original cell was already a primitive cell.

[...]

The constrained configuration has the point symmetry C_3 .

Analysis of structural, dynamic, and magnetic symmetry:
 Subroutine PRICEL returns:
 Original cell was already a primitive cell.

 Routine SETGRP: Setting up the symmetry group for a
 hexagonal supercell.

 Subroutine GETGRP returns: Found  3 space group operations
 (whereof  3 operations were pure point group operations)
 out of a pool of 24 trial point group operations.

The magnetic configuration has the point symmetry C_3 .

 Subroutine INISYM returns: Found  3 space group operations
 (whereof  3 operations are pure point group operations),
 and found     1 'primitive' translations

 KPOINTS: Kpoints from vasprun.xml

Automatic generation of k-mesh.
Space group operators:
 irot       det(A)        alpha          n_x          n_y          n_z        tau_x        tau_y        tau_z
    1     1.000000     0.000000     1.000000     0.000000     0.000000     0.000000     0.000000     0.000000
    2     1.000000   120.000000     0.000000     0.000000     1.000000     0.000000     0.000000     0.000000
    3     1.000000   120.000000     0.000000     0.000000    -1.000000     0.000000     0.000000     0.000000

 Subroutine IBZKPT returns following result:

 Found      5 irreducible k-points:

 Following reciprocal coordinates:
            Coordinates               Weight
  0.000000  0.000000  0.000000      1.000000
  0.200000  0.000000  0.000000      6.000000
  0.400000  0.000000  0.000000      6.000000
  0.400000  0.200000  0.000000      6.000000
 -0.400000  0.200000  0.000000      6.000000

 Following cartesian coordinates:
            Coordinates               Weight
  0.000000  0.000000  0.000000      1.000000
  0.028953 -0.016716  0.000000      6.000000
  0.057906 -0.033432  0.000000      6.000000
  0.057906  0.000000  0.000000      6.000000
 -0.057906  0.066864  0.000000      6.000000

 TETIRR: Found     15 inequivalent tetrahedra from      150

 SYSTEM =  unknown system
 POSCAR =  Fe2 Si P S6

 Startparameter for this run:
   NWRITE =      2    write-flag & timer
   PREC   = accura    normal or accurate (medium, high low for compatibility)
   ISTART =      0    job   : 0-new  1-cont  2-samecut
   ICHARG =      2    charge: 1-file 2-atom 10-const
   ISPIN  =      2    spin polarized calculation?
   LNONCOLLINEAR =      F non collinear calculations
   LSORBIT =      F    spin-orbit coupling
   INIWAV =      1    electr: 0-lowe 1-rand  2-diag
   LASPH  =      F    aspherical Exc in radial PAW
   METAGGA=      F    non-selfconsistent MetaGGA calc.

 Electronic Relaxation 1
   ENCUT  =  520.0 eV  38.22 Ry    6.18 a.u.  12.84 12.84 43.59*2*pi/ulx,y,z
   ENINI  =  520.0     initial cutoff
   ENAUG  =  511.4 eV  augmentation charge cutoff
   NELM   =    400;   NELMIN=  2; NELMDL=  0     # of ELM steps
   EDIFF  = 0.1E-03   stopping-criterion for ELM
   LREAL  =      T    real-space projection
   NLSPLINE    = F    spline interpolate recip. space projectors
   LCOMPAT=      F    compatible to vasp.4.4
   GGA_COMPAT  = T    GGA compatible to vasp.4.4-vasp.4.6
   LMAXPAW     = -100 max onsite density
   LMAXMIX     =    2 max onsite mixed and CHGCAR
   VOSKOWN=      0    Vosko Wilk Nusair interpolation
   ROPT   =   -0.00025  -0.00025  -0.00025  -0.00025
 Ionic relaxation
   EDIFFG = 0.1E-02   stopping-criterion for IOM
   NSW    =     99    number of steps for IOM
   NBLOCK =      1;   KBLOCK =     99    inner block; outer block
   IBRION =      2    ionic relax: 0-MD 1-quasi-New 2-CG
   NFREE  =      1    steps in history (QN), initial steepest desc. (CG)
   ISIF   =      3    stress and relaxation
   IWAVPR =     11    prediction:  0-non 1-charg 2-wave 3-comb
   ISYM   =      2    0-nonsym 1-usesym 2-fastsym
   LCORR  =      T    Harris-Foulkes like correction to forces

   POTIM  = 0.5000    time-step for ionic-motion
   TEIN   =    0.0    initial temperature
   TEBEG  =    0.0;   TEEND  =   0.0 temperature during run
   SMASS  =  -3.00    Nose mass-parameter (am)
   estimated Nose-frequenzy (Omega)   =  0.10E-29 period in steps =****** mass=  -0.109E-26a.u.
   SCALEE = 1.0000    scale energy and forces
   NPACO  =    256;   APACO  = 16.0  distance and # of slots for P.C.
   PSTRESS=    0.0 pullay stress

  Mass of Ions in am
   POMASS =  55.85 28.09 30.97 32.07
  Ionic Valenz
   ZVAL   =   8.00  4.00  5.00  6.00
  Atomic Wigner-Seitz radii
  virtual crystal weights
   VCA    =   1.00  1.00  1.00  1.00
   NELECT =      61.0000    total number of electrons
   NUPDOWN=      -1.0000    fix difference up-down

 DOS related values:
   EMIN   =  10.00;   EMAX   =-10.00  energy-range for DOS
   EFERMI =   0.00
   ISMEAR =    -5;   SIGMA  =   0.05  broadening in eV -4-tet -1-fermi 0-gaus

 Electronic relaxation 2 (details)
   IALGO  =     38    algorithm
   LDIAG  =      T    sub-space diagonalisation (order eigenvalues)
   LSUBROT=      F    optimize rotation matrix (better conditioning)
   TURBO    =      0    0=normal 1=particle mesh
   IRESTART =      0    0=no restart 2=restart with 2 vectors
   NREBOOT  =      0    no. of reboots
   NMIN     =      0    reboot dimension
   EREF     =   0.00    reference energy to select bands
   IMIX   =      4    mixing-type and parameters
     AMIX     =   0.40;   BMIX     =  1.00
     AMIX_MAG =   1.60;   BMIX_MAG =  1.00
     AMIN     =   0.01
     WC   =   100.;   INIMIX=   1;  MIXPRE=   1;  MAXMIX= -45

 Intra band minimization:
   WEIMIN = 0.0010     energy-eigenvalue tresh-hold
   EBREAK =  0.52E-06  absolut break condition
   DEPER  =   0.30     relativ break condition

   TIME   =   0.40     timestep for ELM

  volume/ion in A,a.u.               =      96.88       653.80
  Fermi-wavevector in a.u.,A,eV,Ry     =   0.651281  1.230742  5.771135  0.424166
  Thomas-Fermi vector in A             =   1.720830

 Write flags
[...]
   0.420E+01 0.699E+01 -.384E+03   -.307E+01 -.503E+01 0.388E+03   -.178E+01 -.305E+01 -.479E+01   0.158E-01 0.613E-02 -.778E-01
   0.395E+01 -.714E+01 -.384E+03   -.282E+01 0.517E+01 0.388E+03   -.175E+01 0.307E+01 -.479E+01   -.259E-02 -.167E-01 -.778E-01
   0.154E+02 -.170E+00 0.390E+03   -.125E+02 0.152E+00 -.393E+03   -.455E+01 0.118E-01 0.504E+01   0.649E-02 0.112E-01 0.879E-01
   -.785E+01 -.133E+02 0.390E+03   0.638E+01 0.107E+02 -.393E+03   0.229E+01 0.393E+01 0.504E+01   0.645E-02 -.112E-01 0.879E-01
   -.755E+01 0.134E+02 0.390E+03   0.612E+01 -.109E+02 -.393E+03   0.227E+01 -.395E+01 0.504E+01   -.129E-01 0.266E-04 0.879E-01
   0.228E-04 0.627E-05 0.464E+00   0.799E-14 -.355E-14 -.568E-13   0.000E+00 0.000E+00 -.506E+00   -.563E-07 -.305E-06 0.461E-01

 POSITION                                       TOTAL-FORCE (eV/Angst)
      3.45388      1.99410     11.72054         0.000000     -0.000000      0.105053
      6.90778      3.98821     11.72405         0.000000     -0.000000      0.092330
      0.00000      0.00000     10.50824         0.000000     -0.000000      0.002903
      0.00000      0.00000     12.93635         0.000000     -0.000000      0.208130
      4.32819      0.00251     13.45138         1.246702     -0.002943     -1.608887
      1.29198      2.23274     13.45138        -0.625900     -1.078203     -1.608887
      4.74152      3.74706     13.45138        -0.620802      1.081147     -1.608887
      6.03348      5.97980      9.99321        -1.638074      0.004081      1.472749
      9.06969      3.74957      9.99321         0.822571      1.416573      1.472749
      5.62015      2.23525      9.99321         0.815503     -1.420654      1.472749
    total drift:                                0.000023      0.000006      0.003775

  FREE ENERGIE OF THE ION-ELECTRON SYSTEM (eV)
  free  energy   TOTEN  =       -43.05830766 eV

  energy  without entropy=      -43.05830766  energy(sigma->0) =      -43.05830766

[...]

 d Force = 0.8154988E+00[ 0.465E+00, 0.117E+01]  d Energy = 0.7640651E+01-0.683E+01
 d Force =-0.1841536E+03[-0.213E+03,-0.155E+03]  d Ewald  =-0.2218306E+04 0.203E+04

 Steepest descent step on ions:
 trial-energy change:   -7.640651  1 .order   -6.687895  -10.404435   -2.971355
  (g-gl).g = 0.104E+02      g.g   = 0.104E+02  gl.gl    = 0.000E+00
 g(Force)  = 0.130E+01   g(Stress)= 0.910E+01 ortho     = 0.000E+00
 gamma     =   0.00000
 trial     =   1.00000
 opt step  =   1.20729  (harmonic =   1.39975) maximal distance =0.08577683
 next E    =   -51.015404   (d E  =  -7.95710)

[...]

 d Force = 0.4909309E-01[-0.834E-02, 0.107E+00]  d Energy = 0.2413841E+00-0.192E+00
 d Force =-0.4887426E+02[-0.507E+02,-0.471E+02]  d Ewald  =-0.5964792E+03 0.548E+03

[...]

 d Force =-0.2673780E-02[-0.747E-02, 0.212E-02]  d Energy = 0.3108949E-01-0.338E-01
 d Force = 0.1337939E+02[ 0.133E+02, 0.135E+02]  d Ewald  = 0.1612965E+03-0.148E+03

[...]

 d Force = 0.1384525E+00[ 0.116E+00, 0.161E+00]  d Energy = 0.1422561E+00-0.380E-02
 d Force = 0.1217208E+02[ 0.115E+02, 0.129E+02]  d Ewald  =-0.8848996E+02 0.101E+03

 Conjugate gradient step on ions:
 trial-energy change:   -0.142256  1 .order   -0.141294   -0.166358   -0.116230
  (g-gl).g = 0.127E+00      g.g   = 0.161E+00  gl.gl    = 0.104E+02
 g(Force)  = 0.155E+00   g(Stress)= 0.622E-02 ortho     = 0.344E-01
 gamma     =   0.01217
 trial     =   1.03065
 opt step  =   2.84404  (harmonic =   3.42033) maximal distance =0.11639745
 next E    =   -51.221181   (d E  =  -0.24975)

[...]

 d Force = 0.5191276E-01[-0.998E-01, 0.204E+00]  d Energy = 0.4296830E-01 0.894E-02
 d Force = 0.1832489E+02[ 0.164E+02, 0.203E+02]  d Ewald  =-0.1599573E+03 0.178E+03

[...]

 d Force = 0.1485494E-01[-0.805E-02, 0.378E-01]  d Energy = 0.2254293E-01-0.769E-02
 d Force =-0.6343973E+01[-0.662E+01,-0.607E+01]  d Ewald  = 0.6105221E+02-0.674E+02

[...]

 d Force = 0.5111976E-01[ 0.346E-01, 0.677E-01]  d Energy = 0.6808864E-01-0.170E-01
 d Force = 0.8239515E+01[ 0.810E+01, 0.838E+01]  d Ewald  = 0.9138149E+02-0.831E+02

[...]

 d Force = 0.1744277E-01[ 0.290E-02, 0.320E-01]  d Energy = 0.2079154E-01-0.335E-02
 d Force = 0.7393331E+01[ 0.729E+01, 0.750E+01]  d Ewald  = 0.8331658E+02-0.759E+02

[...]

 Conjugate gradient step on ions:
 trial-energy change:   -0.005637  1 .order   -0.005502   -0.007028   -0.003975
  (g-gl).g =-0.833E-02      g.g   = 0.146E-01  gl.gl    = 0.223E+00
 g(Force)  = 0.136E-01   g(Stress)= 0.998E-03 ortho     = 0.102E-02
 gamma     =  -0.03740
 trial     =   0.48224
 opt step  =   1.11016  (harmonic =   1.11016) maximal distance =0.00849164
 next E    =   -51.276170   (d E  =  -0.00809)

[...]

 d Force = 0.2801562E-02[ 0.201E-02, 0.360E-02]  d Energy = 0.3161239E-02-0.360E-03
 d Force = 0.2296413E+01[ 0.231E+01, 0.228E+01]  d Ewald  =-0.2515767E+02 0.275E+02

 Conjugate gradient step on ions:
 trial-energy change:   -0.003161  1 .order   -0.003349   -0.004045   -0.002654
  (g-gl).g = 0.690E-02      g.g   = 0.667E-02  gl.gl    = 0.146E-01
 g(Force)  = 0.570E-02   g(Stress)= 0.963E-03 ortho     =-0.262E-04
 gamma     =   0.47197
 trial     =   0.60783
 opt step  =   1.76721  (harmonic =   1.76721) maximal distance =0.01237635
 next E    =   -51.281969   (d E  =  -0.00588)

[...]

 d Force = 0.9060744E-03[-0.202E-02, 0.383E-02]  d Energy = 0.4026586E-03 0.503E-03
 d Force = 0.4458678E+01[ 0.451E+01, 0.441E+01]  d Ewald  =-0.4807612E+02 0.525E+02

[...]

 d Force = 0.2100770E-02[ 0.301E-03, 0.390E-02]  d Energy = 0.2381147E-02-0.280E-03
 d Force =-0.2662767E+01[-0.265E+01,-0.267E+01]  d Ewald  = 0.3470405E+02-0.374E+02

 Steepest descent step on ions:
 trial-energy change:   -0.002381  1 .order   -0.002307   -0.004700    0.000087
  (g-gl).g = 0.795E-02      g.g   = 0.560E-02  gl.gl    = 0.667E-02
 g(Force)  = 0.464E-02   g(Stress)= 0.952E-03 ortho     =-0.261E-02
 gamma     =   0.00000
 trial     =   0.83970
 opt step  =   0.82451  (harmonic =   0.82451) maximal distance =0.00597039
 next E    =   -51.281960   (d E  =  -0.00231)

[...]

 d Force =-0.6468982E-05[-0.752E-05,-0.542E-05]  d Energy = 0.4592868E-04-0.524E-04
 d Force = 0.4803050E-01[ 0.480E-01, 0.480E-01]  d Ewald  =-0.6267811E+00 0.675E+00

[...]

 d Force = 0.1287595E-02[ 0.765E-03, 0.181E-02]  d Energy = 0.1217298E-02 0.703E-04
 d Force =-0.1105122E+01[-0.111E+01,-0.110E+01]  d Ewald  =-0.1952762E+01 0.848E+00

 Conjugate gradient step on ions:
 trial-energy change:   -0.001217  1 .order   -0.001291   -0.001815   -0.000767
  (g-gl).g = 0.197E-02      g.g   = 0.212E-02  gl.gl    = 0.560E-02
 g(Force)  = 0.199E-02   g(Stress)= 0.130E-03 ortho     = 0.144E-03
 gamma     =   0.35287
 trial     =   0.83666
 opt step  =   1.44950  (harmonic =   1.44950) maximal distance =0.00889728
 next E    =   -51.283652   (d E  =  -0.00157)

[...]

 d Force = 0.2458298E-03[-0.689E-04, 0.561E-03]  d Energy = 0.1485296E-03 0.973E-04
 d Force =-0.8117120E+00[-0.813E+00,-0.811E+00]  d Ewald  =-0.1432681E+01 0.621E+00

[...]

 eigenvalue-minimisations  :  1312
 total energy-change (2. order) : 0.1134829E-02  (-0.9954182E-03)
 number of electron      60.9999995 magnetization       4.9999998
 augmentation part        2.6841623 magnetization       3.3091936

[...]

 eigenvalues of (default mixing * dielectric matrix)
  average eigenvalue GAMMA=   0.6531
  1.5178  0.0773  0.6675  0.3497

[...]

 d Force = 0.4555280E-03[ 0.319E-03, 0.592E-03]  d Energy = 0.2651587E-03 0.190E-03
 d Force =-0.2233028E+00[-0.215E+00,-0.232E+00]  d Ewald  = 0.1096849E+02-0.112E+02

 Conjugate gradient step on ions:
 trial-energy change:   -0.000265  1 .order   -0.000562   -0.001187    0.000063
  (g-gl).g = 0.152E-02      g.g   = 0.132E-02  gl.gl    = 0.212E-02
 g(Force)  = 0.697E-03   g(Stress)= 0.619E-03 ortho     =-0.109E-03
 gamma     =   0.71709
 trial     =   0.95923
 opt step  =   0.91107  (harmonic =   0.91107) maximal distance =0.00392747
 next E    =   -51.284009   (d E  =  -0.00056)

[...]

 Broyden mixing:
  rms(total) = 0.26023E-02    rms(broyden)= 0.26021E-02
  rms(prec ) = 0.28044E-02
  weight for this iteration     100.00

[...]

--------------------------------------- Iteration     19(   2)  ---------------------------------------

[...]

 eigenvalue-minimisations  :   736
 total energy-change (2. order) :-0.7120099E-04  (-0.5363723E-04)
 number of electron      60.9999995 magnetization       4.9999998
 augmentation part        2.6773293 magnetization       3.3100225

 Free energy of the ion-electron system (eV)
  alpha Z        PSCENC =        33.65575162
  Ewald energy   TEWEN  =      9977.72946475
  -Hartree energ DENC   =    -12818.16353092
  -exchange      EXHF   =         0.00000000
  -V(xc)+E(xc)   XCENC  =        76.10778187
  PAW double counting   =      1735.93291171    -1704.03264895
  entropy T*S    EENTRO =         0.00000000
  eigenvalues    EBANDS =      -493.48631364
  atomic energy  EATOM  =      3140.97280396
  Solvation  Ediel_sol  =         0.00000000
  free energy    TOTEN  =       -51.28377958 eV

  energy without entropy =      -51.28377958  energy(sigma->0) =      -51.28377958

 average (electrostatic) potential at core
  the test charge radii are     1.0103  0.9892  0.9587  0.9698
  (the norm of the test charge is              1.0000)
       1 -52.4955       2 -51.8009       3 -92.6876       4 -92.8660       5 -94.4323
       6 -94.4323       7 -94.4323       8 -94.0029       9 -94.0029      10 -94.0029

 E-fermi :  -2.6640     XC(G=0):  -3.7492     alpha+bet : -3.1319

[...]

 spin component 2

[...]

 k-point     5 :      -0.4000    0.2000    0.0000
  band No.  band energies     occupation
      1     -18.0231      1.00000
      2     -16.3611      1.00000
      3     -16.1426      1.00000
      4     -15.9551      1.00000
      5     -15.6057      1.00000
      6     -15.3372      1.00000
      7     -11.8795      1.00000
      8      -9.9064      1.00000
      9      -8.7076      1.00000
     10      -8.1750      1.00000
     11      -8.0377      1.00000
     12      -7.5082      1.00000
     13      -7.2087      1.00000
     14      -6.6484      1.00000
     15      -6.2266      1.00000
     16      -5.9665      1.00000
     17      -5.8714      1.00000
     18      -5.6741      1.00000
     19      -5.4728      1.00000
     20      -5.3945      1.00000
     21      -5.0426      1.00000
     22      -4.6952      1.00000
     23      -4.4775      1.00000
     24      -4.4147      1.00000
     25      -3.9952      1.00000
     26      -3.3010      1.00000
     27      -2.9965      1.00000
     28      -2.9280      1.00000
     29      -2.3401      0.00000
     30      -2.3250      0.00000
     31      -2.0746      0.00000
     32      -1.5095      0.00000
     33      -1.3899      0.00000
     34      -1.0246      0.00000
     35      -0.8868      0.00000
     36      -0.2098      0.00000
     37       0.6301      0.00000
     38       0.9719      0.00000
     39       1.1425      0.00000
     40       1.8650      0.00000
     41       2.0195      0.00000
     42       2.2864      0.00000
     43       3.0704      0.00000
     44       3.2054      0.00000
     45       3.3462      0.00000
     46       3.4462      0.00000
     47       3.5131      0.00000
     48       3.9266      0.00000

[...]

 soft charge-density along one line, spin component           2
         0         1         2         3         4         5         6         7         8         9
 total charge-density along one line

------------------------ aborting loop because EDIFF is reached ----------------------------------------

[...]

  FORCE on cell =-STRESS in cart. coord.  units (eV):
  Direction    XX          YY          ZZ          XY          YZ          ZX
  Alpha Z    33.65575    33.65575    33.65575
  Ewald   12005.93388 12005.93070-14034.13724    -0.00142    -0.00056    -0.00101
  Hartree 12501.20045 12501.20094-12182.97006    -0.00012     0.00005     0.00007
  E(xc)    -241.01850  -241.01852  -240.69352     0.00003     0.00000     0.00000
  Local  -25434.84103-25434.83992 25249.74841     0.00112     0.00032     0.00058
  n-local   475.20911   476.42811   479.88492     0.37463     0.69129     0.51913
  augment   -40.40592   -40.40594   -44.95179     0.00146    -0.00000     0.00001
  Kinetic   702.06075   696.99611   739.40404    -2.95578    -0.51945    -0.14612
  Fock        0.00000     0.00000     0.00000     0.00000     0.00000     0.00000
  Total      -0.12915    -0.12915    -0.05949     0.00000    -0.00000     0.00000
  in kB      -0.32420    -0.32420    -0.14935     0.00000    -0.00000     0.00000

 VOLUME and BASIS-vectors are now :
  energy-cutoff  :      520.00
  volume of cell :      638.23
      direct lattice vectors                 reciprocal lattice vectors
     5.836840081 -0.000000086 -0.000000000     0.171325576 -0.098914866  0.000000000
     2.918419851  5.054851552 -0.000000000     0.000000003  0.197829745  0.000000000
    -0.000000000 -0.000000000 21.631856270     0.000000000  0.000000000  0.046228118

  length of vectors
     5.836840081  5.836839782 21.631856270     0.197829734  0.197829745  0.046228118

 FORCES acting on ions
    electron-ion (+dipol)            ewald-force                    non-local-force                 convergence-correction
   -.148E-03 -.123E-03 0.635E+01   0.678E-03 0.398E-03 -.748E+01   -.182E-18 -.204E-18 0.116E+01   -.106E-05 -.542E-06 -.129E-01
   0.732E-04 0.749E-04 0.117E+01   -.621E-03 -.362E-03 -.184E+01   -.105E-18 0.276E-16 0.664E+00   -.816E-06 -.535E-06 -.609E-02
   -.354E-04 -.172E-04 0.273E+03   -.229E-03 -.131E-03 -.269E+03   0.649E-18 0.726E-18 -.412E+01   -.658E-07 -.235E-07 -.180E-01
   0.350E-04 0.285E-04 -.294E+03   0.277E-03 0.152E-03 0.285E+03   -.152E-16 -.146E-17 0.828E+01   0.794E-07 0.604E-07 0.160E-01
   0.115E+02 -.152E+02 -.549E+03   -.150E+02 0.160E+02 0.554E+03   0.344E+01 -.645E+00 -.415E+01   0.595E-02 -.135E+00 0.212E-01
   -.189E+02 -.238E+01 -.549E+03   0.213E+02 0.501E+01 0.554E+03   -.228E+01 -.266E+01 -.415E+01   -.120E+00 0.625E-01 0.212E-01
   0.741E+01 0.176E+02 -.549E+03   -.633E+01 -.210E+02 0.553E+03   -.116E+01 0.330E+01 -.415E+01   0.114E+00 0.728E-01 0.212E-01
   0.639E+01 -.137E+02 0.552E+03   -.377E+01 0.148E+02 -.556E+03   -.262E+01 -.947E+00 0.380E+01   -.457E-02 -.146E+00 -.339E-01
   -.150E+02 0.131E+01 0.552E+03   0.147E+02 -.413E+01 -.556E+03   0.487E+00 0.274E+01 0.380E+01   -.124E+00 0.771E-01 -.339E-01
   0.865E+01 0.124E+02 0.552E+03   -.109E+02 -.107E+02 -.556E+03   0.213E+01 -.179E+01 0.380E+01   0.129E+00 0.692E-01 -.339E-01
   -.218E-04 -.141E-04 -.485E+01   -.178E-14 0.178E-14 0.000E+00   0.000E+00 0.000E+00 0.493E+01   -.224E-05 -.131E-05 -.591E-01

 POSITION                                       TOTAL-FORCE (eV/Angst)
      2.91842      1.68495     10.79892        -0.000000     -0.000000      0.021199
      5.83684      3.36990     10.82067        -0.000000     -0.000000     -0.012033
     -0.00000     -0.00000      9.67482        -0.000000     -0.000000     -0.027918
     -0.00000     -0.00000     11.87430        -0.000000     -0.000000     -0.080038
      3.81783     -0.09623     12.36474        -0.035794     -0.009868      0.003622
      0.92617      1.79663     12.36474         0.009351      0.035932      0.003622
      4.01127      3.35445     12.36474         0.026442     -0.026065      0.003622
      5.00503      4.97055      9.29879        -0.000730      0.015598      0.029308
      7.63895      3.28994      9.29879         0.013873     -0.007166      0.029308
      4.86654      1.84921      9.29879        -0.013143     -0.008431      0.029308
    total drift:                               -0.000024     -0.000015      0.023949

  FREE ENERGIE OF THE ION-ELECTRON SYSTEM (eV)
  free  energy   TOTEN  =       -51.28377958 eV

  energy  without entropy=      -51.28377958  energy(sigma->0) =      -51.28377958

 d Force =-0.1530659E-04[-0.146E-04,-0.160E-04]  d Energy = 0.6901176E-04-0.843E-04
 d Force = 0.1079879E-01[ 0.108E-01, 0.108E-01]  d Ewald  =-0.5505607E+00 0.561E+00

 reached required accuracy - stopping structural energy minimisation

 total charge

[...]

 magnetization (x)

# of ion       s       p       d       tot
    1        0.019   0.018   3.319   3.356
    2        0.009   0.011   1.001   1.021
    3       -0.000   0.011   0.000   0.010
    4       -0.002   0.002   0.000  -0.000
    5        0.005   0.044   0.000   0.049
    6        0.005   0.037   0.000   0.042
    7        0.006   0.044   0.000   0.050
    8        0.008   0.051   0.000   0.059
    9        0.007   0.045   0.000   0.052
   10        0.005   0.048   0.000   0.053
tot          0.061   0.312   4.320   4.692

 BZINTS: Fermi energy: -2.663966; 61.000000 electrons
         Band energy:-493.486314;  BLOECHL correction:  0.000000