 vasp.5.4.4.18Apr17-6-g9f103f2a35 (build May  1 2020 15:48:39) complex
 executed on             LinuxGNU date 2020.06.28  13:08:10

 INCAR:
 POTCAR:   PAW_PBE Co 06Sep2000
 POTCAR:    PAW_PBE P 17Jan2003
 POTCAR:   PAW_PBE Se 06Sep2000

 POTCAR:   PAW_PBE Co 06Sep2000
   VRHFIN =Co: d8 s1

   TITEL  = PAW_PBE Co 06Sep2000
   POMASS =   58.933; ZVAL   =    9.000    mass and valenz
   ENMAX  =  267.969; ENMIN  =  200.977 eV
   QCUT   =   -4.438; QGAM   =    8.876    optimization parameters

   Description
     l     E      TYP  RCUT    TYP  RCUT
     2   .000     23  2.300
     2   .000     23  2.300
     0   .000     23  2.300
     0   .000     23  2.300
     1  -.200     23  2.300
     1   .000     23  2.300
     3   .000      7   .000

 POTCAR:    PAW_PBE P 17Jan2003
   VRHFIN =P : s2p3

   TITEL  = PAW_PBE P 17Jan2003
   POMASS =   30.974; ZVAL   =    5.000    mass and valenz
   ENMAX  =  270.000; ENMIN  =  191.280 eV
   QCUT   =   -4.330; QGAM   =    8.659    optimization parameters

[...]

 POTCAR:   PAW_PBE Se 06Sep2000
   VRHFIN =Se: s2p4

   TITEL  = PAW_PBE Se 06Sep2000
   POMASS =   78.960; ZVAL   =    6.000    mass and valenz
   ENMAX  =  211.534; ENMIN  =  158.651 eV
   QCUT   =   -3.943; QGAM   =    7.886    optimization parameters

   Description
     l     E      TYP  RCUT    TYP  RCUT
     0   .000     23  2.100
     0   .000     23  2.100
     1   .000     23  2.100
     1   .000     23  2.100
     2   .000     23  2.100
     3  -.100      7  2.100

 Optimization of the real space projectors (new method)

 maximal supplied QI-value         = 16.25
 optimisation between [QCUT,QGAM] = [ 11.54, 23.24] = [ 37.28,151.24] Ry
 Optimized for a Real-space Cutoff    1.53 Angstroem

   l    n(q)    QCUT    max X(q) W(low)/X(q) W(high)/X(q)  e(spline)
   2     10    11.539     4.599    0.83E-05    0.15E-04    0.45E-07
   2     10    11.539    18.158    0.10E-03    0.14E-03    0.24E-06
   0     11    11.539    15.740    0.19E-04    0.12E-05    0.17E-07
   0     11    11.539    47.662    0.48E-04    0.15E-04    0.31E-06
   1     10    11.539     5.777    0.11E-04    0.46E-05    0.25E-07
   1     10    11.539     8.007    0.46E-04    0.29E-04    0.11E-06
 Optimization of the real space projectors (new method)

[...]

   l    n(q)    QCUT    max X(q) W(low)/X(q) W(high)/X(q)  e(spline)
   0      8    11.508     6.651    0.19E-04    0.31E-05    0.49E-08
   0      8    11.508    90.285    0.95E-04    0.17E-03    0.51E-07
   1      8    11.508     4.328    0.14E-04    0.32E-04    0.22E-07
   1      8    11.508    54.583    0.16E-03    0.71E-04    0.89E-07
 Optimization of the real space projectors (new method)

 maximal supplied QI-value         = 17.95
 optimisation between [QCUT,QGAM] = [ 11.67, 23.34] = [ 38.13,152.52] Ry
 Optimized for a Real-space Cutoff    1.25 Angstroem

   l    n(q)    QCUT    max X(q) W(low)/X(q) W(high)/X(q)  e(spline)
   0      9    11.669     6.499    0.13E-04    0.81E-05    0.11E-07
   0      9    11.669    52.623    0.18E-03    0.46E-04    0.72E-07
   1      8    11.669     4.229    0.40E-04    0.45E-04    0.31E-07
   1      8    11.669    29.991    0.22E-03    0.36E-03    0.10E-06
   2      8    11.669     3.719    0.19E-03    0.46E-04    0.50E-07

 PAW_PBE Co 06Sep2000                   :
  PAW_PBE P 17Jan2003                   :
 PAW_PBE Se 06Sep2000                   :

 POSCAR: Co2 P2 Se6
  positions in direct lattice
  velocities in cartesian coordinates
 exchange correlation table for  LEXCH =       42
   RHO(1)=    0.500       N(1)  =     2000
   RHO(2)=  100.500       N(2)  =     4000

 ion  position               nearest neighbor table
   1  0.333  0.333  0.500-   6 2.78   5 2.78   7 2.78   8 2.78  10 2.78   9 2.78
   2  0.667  0.667  0.500-   9 2.78   8 2.78  10 2.78   5 2.78   7 2.78   6 2.78
   3  0.000  0.000  0.448-   4 2.43   8 2.63  10 2.63   9 2.63
   4  0.000  0.000  0.552-   3 2.43   5 2.63   7 2.63   6 2.63
   5  0.626  0.000  0.574-   4 2.63   1 2.78   2 2.78
   6  0.000  0.373  0.574-   4 2.63   1 2.78   2 2.78
   7  0.373  0.626  0.574-   4 2.63   1 2.78   2 2.78
   8  0.374  1.000  0.426-   3 2.63   2 2.78   1 2.78
   9  1.000  0.627  0.426-   3 2.63   2 2.78   1 2.78
  10  0.627  0.374  0.426-   3 2.63   2 2.78   1 2.78

  LATTYP: Found a hexagonal cell.
 ALAT       =     6.9077769333
 C/A-ratio  =     3.3939410937

  Lattice vectors:

 A1 = (   3.4538890000,  -5.9823100000,   0.0000000000)
 A2 = (  -6.9077770000,   0.0000000000,   0.0000000000)
 A3 = (   0.0000000000,   0.0000000000, -23.4445880000)

Analysis of symmetry for initial positions (statically):
 Subroutine PRICEL returns:
 Original cell was already a primitive cell.

 Routine SETGRP: Setting up the symmetry group for a
 hexagonal supercell.

 Subroutine GETGRP returns: Found  6 space group operations
 (whereof  6 operations were pure point group operations)
 out of a pool of 24 trial point group operations.

The static configuration has the point symmetry S_6 .

Analysis of symmetry for dynamics (positions and initial velocities):
 Subroutine PRICEL returns:
 Original cell was already a primitive cell.

[...]

The dynamic configuration has the point symmetry S_6 .

Analysis of constrained symmetry for selective dynamics:
 Subroutine PRICEL returns:
 Original cell was already a primitive cell.

[...]

The constrained configuration has the point symmetry S_6 .

Analysis of structural, dynamic, and magnetic symmetry:
 Subroutine PRICEL returns:
 Original cell was already a primitive cell.

 Routine SETGRP: Setting up the symmetry group for a
 hexagonal supercell.

 Subroutine GETGRP returns: Found  6 space group operations
 (whereof  6 operations were pure point group operations)
 out of a pool of 24 trial point group operations.

The magnetic configuration has the point symmetry S_6 .

 Subroutine INISYM returns: Found  6 space group operations
 (whereof  6 operations are pure point group operations),
 and found     1 'primitive' translations

 KPOINTS: Kpoints from vasprun.xml

Automatic generation of k-mesh.
Space group operators:
 irot       det(A)        alpha          n_x          n_y          n_z        tau_x        tau_y        tau_z
    1     1.000000     0.000000     1.000000     0.000000     0.000000     0.000000     0.000000     0.000000
    2    -1.000000     0.000000     1.000000     0.000000     0.000000     0.000000     0.000000     0.000000
    3     1.000000   120.000000     0.000000     0.000000     1.000000     0.000000     0.000000     0.000000
    4    -1.000000   120.000000     0.000000     0.000000     1.000000     0.000000     0.000000     0.000000
    5     1.000000   120.000000     0.000000     0.000000    -1.000000     0.000000     0.000000     0.000000
    6    -1.000000   120.000000     0.000000     0.000000    -1.000000     0.000000     0.000000     0.000000

 Subroutine IBZKPT returns following result:

 Found      5 irreducible k-points:

 Following reciprocal coordinates:
            Coordinates               Weight
  0.000000  0.000000  0.000000      1.000000
  0.200000  0.000000  0.000000      6.000000
  0.400000  0.000000  0.000000      6.000000
  0.400000  0.200000  0.000000      6.000000
 -0.400000  0.200000  0.000000      6.000000

 Following cartesian coordinates:
            Coordinates               Weight
  0.000000  0.000000  0.000000      1.000000
  0.028953 -0.016716  0.000000      6.000000
  0.057906 -0.033432  0.000000      6.000000
  0.057906  0.000000  0.000000      6.000000
 -0.057906  0.066864  0.000000      6.000000

 TETIRR: Found     15 inequivalent tetrahedra from      150

 SYSTEM =  unknown system
 POSCAR =  Co2 P2 Se6

 Startparameter for this run:
   NWRITE =      2    write-flag & timer
   PREC   = accura    normal or accurate (medium, high low for compatibility)
   ISTART =      0    job   : 0-new  1-cont  2-samecut
   ICHARG =      2    charge: 1-file 2-atom 10-const
   ISPIN  =      2    spin polarized calculation?
   LNONCOLLINEAR =      F non collinear calculations
   LSORBIT =      F    spin-orbit coupling
   INIWAV =      1    electr: 0-lowe 1-rand  2-diag
   LASPH  =      F    aspherical Exc in radial PAW
   METAGGA=      F    non-selfconsistent MetaGGA calc.

 Electronic Relaxation 1
   ENCUT  =  520.0 eV  38.22 Ry    6.18 a.u.  12.84 12.84 43.59*2*pi/ulx,y,z
   ENINI  =  520.0     initial cutoff
   ENAUG  =  477.8 eV  augmentation charge cutoff
   NELM   =    400;   NELMIN=  2; NELMDL=  0     # of ELM steps
   EDIFF  = 0.1E-03   stopping-criterion for ELM
   LREAL  =      T    real-space projection
   NLSPLINE    = F    spline interpolate recip. space projectors
   LCOMPAT=      F    compatible to vasp.4.4
   GGA_COMPAT  = T    GGA compatible to vasp.4.4-vasp.4.6
   LMAXPAW     = -100 max onsite density
   LMAXMIX     =    2 max onsite mixed and CHGCAR
   VOSKOWN=      0    Vosko Wilk Nusair interpolation
   ROPT   =   -0.00025  -0.00025  -0.00025
 Ionic relaxation
   EDIFFG = 0.1E-02   stopping-criterion for IOM
   NSW    =     99    number of steps for IOM
   NBLOCK =      1;   KBLOCK =     99    inner block; outer block
   IBRION =      2    ionic relax: 0-MD 1-quasi-New 2-CG
   NFREE  =      1    steps in history (QN), initial steepest desc. (CG)
   ISIF   =      3    stress and relaxation
   IWAVPR =     11    prediction:  0-non 1-charg 2-wave 3-comb
   ISYM   =      2    0-nonsym 1-usesym 2-fastsym
   LCORR  =      T    Harris-Foulkes like correction to forces

   POTIM  = 0.5000    time-step for ionic-motion
   TEIN   =    0.0    initial temperature
   TEBEG  =    0.0;   TEEND  =   0.0 temperature during run
   SMASS  =  -3.00    Nose mass-parameter (am)
   estimated Nose-frequenzy (Omega)   =  0.10E-29 period in steps =****** mass=  -0.109E-26a.u.
   SCALEE = 1.0000    scale energy and forces
   NPACO  =    256;   APACO  = 16.0  distance and # of slots for P.C.
   PSTRESS=    0.0 pullay stress

  Mass of Ions in am
   POMASS =  58.93 30.97 78.96
  Ionic Valenz
   ZVAL   =   9.00  5.00  6.00
  Atomic Wigner-Seitz radii
  virtual crystal weights
   VCA    =   1.00  1.00  1.00
   NELECT =      64.0000    total number of electrons
   NUPDOWN=      -1.0000    fix difference up-down

 DOS related values:
   EMIN   =  10.00;   EMAX   =-10.00  energy-range for DOS
   EFERMI =   0.00
   ISMEAR =    -5;   SIGMA  =   0.05  broadening in eV -4-tet -1-fermi 0-gaus

 Electronic relaxation 2 (details)
   IALGO  =     38    algorithm
   LDIAG  =      T    sub-space diagonalisation (order eigenvalues)
   LSUBROT=      F    optimize rotation matrix (better conditioning)
   TURBO    =      0    0=normal 1=particle mesh
   IRESTART =      0    0=no restart 2=restart with 2 vectors
   NREBOOT  =      0    no. of reboots
   NMIN     =      0    reboot dimension
   EREF     =   0.00    reference energy to select bands
   IMIX   =      4    mixing-type and parameters
     AMIX     =   0.40;   BMIX     =  1.00
     AMIX_MAG =   1.60;   BMIX_MAG =  1.00
     AMIN     =   0.01
     WC   =   100.;   INIMIX=   1;  MIXPRE=   1;  MAXMIX= -45

 Intra band minimization:
   WEIMIN = 0.0010     energy-eigenvalue tresh-hold
   EBREAK =  0.52E-06  absolut break condition
   DEPER  =   0.30     relativ break condition

[...]
    electron-ion (+dipol)            ewald-force                    non-local-force                 convergence-correction
   0.139E-03 0.764E-04 0.107E+01   0.575E-03 0.344E-03 -.106E+01   -.173E-17 0.867E-18 -.736E-02   0.359E-06 0.204E-06 -.543E-04
   -.139E-03 -.764E-04 -.107E+01   -.575E-03 -.344E-03 0.106E+01   0.173E-17 -.867E-18 0.736E-02   -.359E-06 -.204E-06 0.543E-04
   -.326E-04 -.277E-04 0.238E+03   -.176E-03 -.974E-04 -.239E+03   0.173E-17 0.000E+00 0.145E+01   -.204E-07 -.476E-08 -.635E-03
   0.326E-04 0.277E-04 -.238E+03   0.176E-03 0.974E-04 0.239E+03   0.104E-16 0.000E+00 -.145E+01   0.204E-07 0.475E-08 0.635E-03
   -.102E+02 0.144E+00 -.417E+03   0.924E+01 -.144E+00 0.418E+03   0.174E+01 -.516E-02 -.232E+01   0.681E-02 -.447E-04 0.830E-02
   0.524E+01 0.879E+01 -.417E+03   -.475E+01 -.793E+01 0.418E+03   -.877E+00 -.151E+01 -.232E+01   -.344E-02 -.588E-02 0.831E-02
   0.499E+01 -.893E+01 -.417E+03   -.450E+01 0.808E+01 0.418E+03   -.868E+00 0.151E+01 -.232E+01   -.337E-02 0.592E-02 0.830E-02
   0.102E+02 -.144E+00 0.417E+03   -.924E+01 0.144E+00 -.418E+03   -.174E+01 0.516E-02 0.232E+01   -.681E-02 0.447E-04 -.830E-02
   -.524E+01 -.879E+01 0.417E+03   0.475E+01 0.793E+01 -.418E+03   0.877E+00 0.151E+01 0.232E+01   0.344E-02 0.588E-02 -.831E-02
   -.499E+01 0.893E+01 0.417E+03   0.450E+01 -.808E+01 -.418E+03   0.868E+00 -.151E+01 0.232E+01   0.337E-02 -.592E-02 -.830E-02
   0.232E-10 -.841E-10 0.265E-09   0.888E-15 0.355E-14 0.568E-13   0.000E+00 -.222E-15 0.000E+00   0.190E-13 -.338E-13 0.154E-11

 POSITION                                       TOTAL-FORCE (eV/Angst)
      3.45388      1.99410     11.72054        -0.000000     -0.000000      0.004000
      6.90778      3.98821     11.72405        -0.000000      0.000000     -0.004000
      0.00000      0.00000     10.50824        -0.000000      0.000000      0.346228
      0.00000      0.00000     12.93635        -0.000000      0.000000     -0.346228
      4.32819      0.00251     13.45138         0.761246     -0.004154     -1.336999
      1.29198      2.23274     13.45138        -0.384220     -0.657181     -1.336999
      4.74152      3.74706     13.45138        -0.377026      0.661335     -1.336999
      6.03348      5.97980      9.99321        -0.761246      0.004154      1.336999
      9.06969      3.74957      9.99321         0.384220      0.657181      1.336999
      5.62015      2.23525      9.99321         0.377026     -0.661335      1.336999
    total drift:                                0.000000     -0.000000      0.000000

  FREE ENERGIE OF THE ION-ELECTRON SYSTEM (eV)
  free  energy   TOTEN  =       -36.81954162 eV

  energy  without entropy=      -36.81954162  energy(sigma->0) =      -36.81954162

[...]

 d Force = 0.4363115E+00[ 0.231E+00, 0.642E+00]  d Energy = 0.4889387E+01-0.445E+01
 d Force =-0.1764329E+03[-0.197E+03,-0.156E+03]  d Ewald  =-0.1680020E+04 0.150E+04

 Steepest descent step on ions:
 trial-energy change:   -4.889387  1 .order   -3.687252   -6.388154   -0.986349
  (g-gl).g = 0.639E+01      g.g   = 0.639E+01  gl.gl    = 0.000E+00
 g(Force)  = 0.697E+00   g(Stress)= 0.569E+01 ortho     = 0.000E+00
 gamma     =   0.00000
 trial     =   1.00000
 opt step  =   1.07498  (harmonic =   1.18260) maximal distance =0.06933642
 next E    =   -41.746412   (d E  =  -4.92687)

[...]

 d Force = 0.1226458E+00[ 0.826E-01, 0.163E+00]  d Energy = 0.1971074E+00-0.745E-01
 d Force =-0.7670193E+02[-0.757E+02,-0.777E+02]  d Ewald  = 0.3447723E+03-0.421E+03

 Conjugate gradient step on ions:
 trial-energy change:   -0.197107  1 .order   -0.198232   -0.266765   -0.129700
  (g-gl).g = 0.134E+00      g.g   = 0.260E+00  gl.gl    = 0.639E+01
 g(Force)  = 0.160E+00   g(Stress)= 0.100E+00 ortho     = 0.126E+00
 gamma     =   0.02095
 trial     =   1.01500
 opt step  =   2.08345  (harmonic =   1.97545) maximal distance =0.06511321
 next E    =   -42.018156   (d E  =  -0.26406)

[...]

 d Force = 0.3793508E-01[-0.110E-01, 0.868E-01]  d Energy = 0.4637236E-01-0.844E-02
 d Force =-0.7840430E+02[-0.773E+02,-0.795E+02]  d Ewald  = 0.3606195E+03-0.439E+03

[...]

 d Force = 0.4064774E-01[ 0.203E-01, 0.610E-01]  d Energy = 0.6119777E-01-0.206E-01
 d Force =-0.1930555E+02[-0.191E+02,-0.195E+02]  d Ewald  = 0.4974735E+03-0.517E+03

 Conjugate gradient step on ions:
 trial-energy change:   -0.061198  1 .order   -0.068893   -0.182088    0.044301
  (g-gl).g = 0.205E+00      g.g   = 0.201E+00  gl.gl    = 0.260E+00
 g(Force)  = 0.678E-01   g(Stress)= 0.133E+00 ortho     =-0.264E-01
 gamma     =   0.78858
 trial     =   1.01026
 opt step  =   0.77585  (harmonic =   0.81256) maximal distance =0.02416337
 next E    =   -42.064009   (d E  =  -0.06643)

[...]

 d Force =-0.5773306E-02[-0.715E-02,-0.440E-02]  d Energy = 0.3447273E-02-0.922E-02
 d Force = 0.4441032E+01[ 0.445E+01, 0.443E+01]  d Ewald  =-0.1125689E+03 0.117E+03

[...]

 d Force = 0.2734678E-01[ 0.211E-01, 0.336E-01]  d Energy = 0.3056253E-01-0.322E-02
 d Force = 0.1351495E+02[ 0.136E+02, 0.134E+02]  d Ewald  =-0.8329851E+02 0.968E+02

 Conjugate gradient step on ions:
 trial-energy change:   -0.030563  1 .order   -0.031284   -0.038615   -0.023953
  (g-gl).g =-0.460E-02      g.g   = 0.404E-01  gl.gl    = 0.201E+00
 g(Force)  = 0.356E-01   g(Stress)= 0.482E-02 ortho     = 0.142E-01
 gamma     =  -0.02287
 trial     =   0.96337
 opt step  =   2.53725  (harmonic =   2.53725) maximal distance =0.03590912
 next E    =   -42.113071   (d E  =  -0.05085)

[...]

 Conjugate gradient step on ions:
 trial-energy change:   -0.091244  1 .order   -0.016961   -0.014622   -0.019299
  (g-gl).g = 0.846E-02      g.g   = 0.111E-01  gl.gl    = 0.404E-01
 g(Force)  = 0.928E-02   g(Stress)= 0.183E-02 ortho     = 0.156E-02
 gamma     =   0.20928
 trial     =   1.27815
 opt step  =   5.11260  (harmonic =   5.11260) maximal distance =0.04180241
 next E    =   -42.203259   (d E  =  -0.09591)

[...]

 d Force = 0.9068968E-02[-0.958E-02, 0.277E-01]  d Energy =-0.1020979E+00 0.111E+00
 d Force =-0.5644664E+02[-0.564E+02,-0.565E+02]  d Ewald  =-0.2967987E+02-0.268E+02

[...]

 d Force = 0.7578590E-03[-0.248E-02, 0.400E-02]  d Energy = 0.1363036E-01-0.129E-01
 d Force = 0.2342126E+02[ 0.234E+02, 0.234E+02]  d Ewald  = 0.1228981E+02 0.111E+02

[...]

 d Force =-0.4578884E-02[-0.693E-02,-0.222E-02]  d Energy = 0.5977120E-02-0.106E-01
 d Force = 0.2099896E+02[ 0.210E+02, 0.210E+02]  d Ewald  = 0.1105719E+02 0.994E+01

[...]

 d Force = 0.2946545E-02[ 0.220E-02, 0.370E-02]  d Energy = 0.4019575E-02-0.107E-02
 d Force =-0.1221276E+02[-0.122E+02,-0.122E+02]  d Ewald  =-0.1674461E+02 0.453E+01

 Conjugate gradient step on ions:
 trial-energy change:   -0.004020  1 .order   -0.004131   -0.004971   -0.003291
  (g-gl).g = 0.244E-01      g.g   = 0.241E-01  gl.gl    = 0.111E-01
 g(Force)  = 0.554E-02   g(Stress)= 0.186E-01 ortho     =-0.109E-02
 gamma     =   2.19925
 trial     =   0.22906
 opt step  =   0.67790  (harmonic =   0.67790) maximal distance =0.01306241
 next E    =   -42.123460   (d E  =  -0.00736)

[...]

 d Force = 0.1198725E-02[-0.190E-02, 0.430E-02]  d Energy = 0.2142812E-02-0.944E-03
 d Force =-0.2399726E+02[-0.240E+02,-0.239E+02]  d Ewald  =-0.3291068E+02 0.891E+01

[...]

 Conjugate gradient step on ions:
 trial-energy change:   -0.000616  1 .order   -0.000989   -0.001136   -0.000842
  (g-gl).g =-0.338E-02      g.g   = 0.324E-02  gl.gl    = 0.241E-01
 g(Force)  = 0.991E-03   g(Stress)= 0.225E-02 ortho     =-0.229E-02
 gamma     =  -0.14020
 trial     =   0.31882
 opt step  =   1.23082  (harmonic =   1.23082) maximal distance =0.00540283
 next E    =   -42.124459   (d E  =  -0.00219)

[...]

 eigenvalue-minimisations  :   992
 total energy-change (2. order) : 0.2780520E-03  (-0.5009698E-04)
 number of electron      63.9999994 magnetization      -0.0018090
 augmentation part        2.4367901 magnetization      -0.0022225

 Broyden mixing:
  rms(total) = 0.40770E-02    rms(broyden)= 0.40770E-02
  rms(prec ) = 0.47274E-02
  weight for this iteration     100.00

 eigenvalues of (default mixing * dielectric matrix)
  average eigenvalue GAMMA=   1.0660
  0.2099  1.6357  1.6357  0.7825

[...]

--------------------------------------- Iteration     17(   6)  ---------------------------------------

[...]

 eigenvalue-minimisations  :   896
 total energy-change (2. order) :-0.5047206E-04  (-0.1081372E-04)
 number of electron      63.9999994 magnetization      -0.0018090
 augmentation part        2.4367901 magnetization      -0.0022225

 Free energy of the ion-electron system (eV)
  alpha Z        PSCENC =        53.19345727
  Ewald energy   TEWEN  =      9103.39610787
  -Hartree energ DENC   =    -12271.60540278
  -exchange      EXHF   =         0.00000000
  -V(xc)+E(xc)   XCENC  =        31.36708579
  PAW double counting   =      2174.35434286    -2175.00094107
  entropy T*S    EENTRO =         0.00000000
  eigenvalues    EBANDS =      -494.85794756
  atomic energy  EATOM  =      3537.03019007
  Solvation  Ediel_sol  =         0.00000000
  free energy    TOTEN  =       -42.12310755 eV

  energy without entropy =      -42.12310755  energy(sigma->0) =      -42.12310755

 average (electrostatic) potential at core
  the test charge radii are     1.0452  0.9587  1.0808
  (the norm of the test charge is              1.0000)
       1 -48.8227       2 -48.8227       3 -92.4054       4 -92.4054       5 -61.3086
       6 -61.3086       7 -61.3085       8 -61.3086       9 -61.3086      10 -61.3085

 E-fermi :  -1.9303     XC(G=0):  -3.4410     alpha+bet : -2.8455

[...]

 spin component 2

[...]

 k-point     5 :      -0.4000    0.2000    0.0000
  band No.  band energies     occupation
      1     -17.0366      1.00000
      2     -16.4970      1.00000
      3     -16.0918      1.00000
      4     -15.8969      1.00000
      5     -15.5610      1.00000
      6     -15.4398      1.00000
      7     -13.1563      1.00000
      8     -11.3576      1.00000
      9      -8.3049      1.00000
     10      -7.7944      1.00000
     11      -7.6826      1.00000
     12      -7.0827      1.00000
     13      -7.0268      1.00000
     14      -6.4350      1.00000
     15      -6.4001      1.00000
     16      -6.1052      1.00000
     17      -5.9590      1.00000
     18      -5.8580      1.00000
     19      -5.8529      1.00000
     20      -5.5129      1.00000
     21      -5.4826      1.00000
     22      -4.8873      1.00000
     23      -4.3787      1.00000
     24      -4.1148      1.00000
     25      -4.0404      1.00000
     26      -3.9438      1.00000
     27      -3.6358      1.00000
     28      -3.4463      1.00000
     29      -3.3948      1.00000
     30      -3.2932      1.00000
     31      -3.2573      1.00000
     32      -2.4799      1.00000
     33      -1.9262      0.00000
     34      -1.7826      0.00000
     35      -1.4964      0.00000
     36      -1.0777      0.00000
     37      -1.0238      0.00000
     38      -0.4246      0.00000
     39      -0.0021      0.00000
     40       0.2696      0.00000
     41       0.5249      0.00000
     42       0.6604      0.00000
     43       2.8936      0.00000
     44       2.9391      0.00000
     45       3.0187      0.00000
     46       3.1749      0.00000
     47       3.2920      0.00000
     48       3.8687      0.00000

[...]

 soft charge-density along one line, spin component           2
         0         1         2         3         4         5         6         7         8         9
 total charge-density along one line

------------------------ aborting loop because EDIFF is reached ----------------------------------------

[...]

  FORCE on cell =-STRESS in cart. coord.  units (eV):
  Direction    XX          YY          ZZ          XY          YZ          ZX
  Alpha Z    53.19346    53.19346    53.19346
  Ewald   11250.54192 11250.53911-13397.68837    -0.00237    -0.00062    -0.00113
  Hartree 11844.99157 11844.99260-11420.13397    -0.00034     0.00008     0.00013
  E(xc)    -262.63993  -262.63991  -262.84570     0.00000     0.00001     0.00001
  Local  -23894.90364-23894.90316 23975.55030     0.00222     0.00033     0.00062
  n-local   295.09247   296.94737   304.60288     0.75936     0.49776     0.39829
  augment    47.90462    47.90480    45.21765     0.00003     0.00004     0.00006
  Kinetic   669.36628   661.01017   702.23714    -5.10993     0.61644    -0.15356
  Fock        0.00000     0.00000     0.00000     0.00000     0.00000     0.00000
  Total       0.29559     0.29559     0.13338     0.00000    -0.00000    -0.00000
  in kB       0.66979     0.66979     0.30225     0.00000    -0.00000    -0.00000

 VOLUME and BASIS-vectors are now :
  energy-cutoff  :      520.00
  volume of cell :      707.06
      direct lattice vectors                 reciprocal lattice vectors
     6.249870329  0.000000242 -0.000000000     0.160003323 -0.092377948  0.000000000
     3.124934607  5.412546341  0.000000000    -0.000000007  0.184755928 -0.000000000
    -0.000000000  0.000000000 20.901670841     0.000000000 -0.000000000  0.047843065

  length of vectors
     6.249870329  6.249869934 20.901670841     0.184755916  0.184755928  0.047843065

 FORCES acting on ions
    electron-ion (+dipol)            ewald-force                    non-local-force                 convergence-correction
   -.767E-04 -.566E-04 0.170E+00   0.769E-03 0.460E-03 -.173E+00   0.694E-17 0.925E-21 0.332E-02   0.200E-06 0.157E-06 0.250E-03
   0.767E-04 0.566E-04 -.170E+00   -.769E-03 -.460E-03 0.173E+00   -.104E-16 -.347E-17 -.332E-02   -.200E-06 -.157E-06 -.250E-03
   -.502E-04 -.196E-04 0.313E+03   -.219E-03 -.122E-03 -.317E+03   -.225E-16 -.128E-16 0.391E+01   -.705E-07 -.513E-07 0.187E-01
   0.502E-04 0.195E-04 -.313E+03   0.219E-03 0.122E-03 0.317E+03   -.522E-17 0.128E-16 -.391E+01   0.705E-07 0.513E-07 -.187E-01
   -.244E+02 0.115E-01 -.504E+03   0.234E+02 -.120E-01 0.506E+03   0.977E+00 -.619E-03 -.214E+01   0.164E-02 0.208E-05 -.259E-01
   0.122E+02 0.211E+02 -.504E+03   -.117E+02 -.203E+02 0.506E+03   -.489E+00 -.846E+00 -.214E+01   -.819E-03 -.142E-02 -.259E-01
   0.122E+02 -.211E+02 -.504E+03   -.117E+02 0.203E+02 0.506E+03   -.488E+00 0.846E+00 -.214E+01   -.822E-03 0.142E-02 -.259E-01
   0.244E+02 -.115E-01 0.504E+03   -.234E+02 0.120E-01 -.506E+03   -.977E+00 0.619E-03 0.214E+01   -.164E-02 -.208E-05 0.259E-01
   -.122E+02 -.211E+02 0.504E+03   0.117E+02 0.203E+02 -.506E+03   0.489E+00 0.846E+00 0.214E+01   0.819E-03 0.142E-02 0.259E-01
   -.122E+02 0.211E+02 0.504E+03   0.117E+02 -.203E+02 -.506E+03   0.488E+00 -.846E+00 0.214E+01   0.822E-03 -.142E-02 0.259E-01
   0.766E-08 0.398E-07 0.278E-07   -.711E-14 0.000E+00 0.171E-12   -.167E-15 0.111E-15 0.888E-15   0.326E-13 -.545E-13 -.302E-10

 POSITION                                       TOTAL-FORCE (eV/Angst)
      3.12493      1.80418     10.45061         0.000000     -0.000000      0.000517
      6.24987      3.60837     10.45106         0.000000     -0.000000     -0.000517
     -0.00000      0.00000      9.31829         0.000000     -0.000000     -0.036753
     -0.00000      0.00000     11.58338         0.000000     -0.000000      0.036753
      3.84776      0.00023     11.85888         0.010073     -0.000571      0.019044
      1.20126      2.08018     11.85888        -0.005531     -0.008438      0.019044
      4.32580      3.33214     11.85888        -0.004542      0.009009      0.019044
      5.52705      5.41232      9.04279        -0.010073      0.000571     -0.019044
      8.17355      3.33237      9.04279         0.005531      0.008438     -0.019044
      5.04901      2.08040      9.04279         0.004542     -0.009009     -0.019044
    total drift:                                0.000000      0.000000      0.000000

  FREE ENERGIE OF THE ION-ELECTRON SYSTEM (eV)
  free  energy   TOTEN  =       -42.12310755 eV

  energy  without entropy=      -42.12310755  energy(sigma->0) =      -42.12310755

 d Force = 0.6752447E-03[ 0.207E-03, 0.114E-02]  d Energy = 0.2250323E-03 0.450E-03
 d Force = 0.5207958E+01[ 0.521E+01, 0.520E+01]  d Ewald  =-0.1122194E+02 0.164E+02

 reached required accuracy - stopping structural energy minimisation

 total charge

[...]

 magnetization (x)

# of ion       s       p       d       tot
    1       -0.000  -0.000  -0.000  -0.000
    2       -0.000  -0.000  -0.000  -0.000
    3        0.000   0.000   0.000   0.000
    4        0.000   0.000   0.000   0.000
    5        0.000   0.000  -0.000   0.000
    6        0.000   0.000  -0.000   0.000
    7        0.000   0.000  -0.000   0.000
    8        0.000   0.000  -0.000   0.000
    9        0.000   0.000  -0.000   0.000
   10        0.000   0.000  -0.000   0.000
tot          0.000   0.000  -0.000   0.000

 BZINTS: Fermi energy: -1.930290; 64.000000 electrons
         Band energy:-494.857948;  BLOECHL correction:  0.000000