 vasp.5.4.4.18Apr17-6-g9f103f2a35 (build May  1 2020 15:48:39) complex
 executed on             LinuxGNU date 2020.06.30  19:20:05

 INCAR:
 POTCAR:   PAW_PBE Cr 06Sep2000
 POTCAR:   PAW_PBE Ge 05Jan2001
 POTCAR:   PAW_PBE Te 08Apr2002

 POTCAR:   PAW_PBE Cr 06Sep2000
   VRHFIN =Cr : d5 s1

   TITEL  = PAW_PBE Cr 06Sep2000
   POMASS =   51.996; ZVAL   =    6.000    mass and valenz
   ENMAX  =  227.082; ENMIN  =  170.311 eV
   QCUT   =   -4.085; QGAM   =    8.171    optimization parameters

   Description
     l     E      TYP  RCUT    TYP  RCUT
     2   .000     23  2.500
     2   .000     23  2.500
     0   .000     23  2.500
     0   .000     23  2.500
     1  -.400     23  2.500
     1  2.000     23  2.500
     3   .000      7   .000

 POTCAR:   PAW_PBE Ge 05Jan2001
   VRHFIN =Ge: s2p2

   TITEL  = PAW_PBE Ge 05Jan2001
   POMASS =   72.610; ZVAL   =    4.000    mass and valenz
   ENMAX  =  173.807; ENMIN  =  130.355 eV
   QCUT   =   -3.574; QGAM   =    7.148    optimization parameters

[...]

 POTCAR:   PAW_PBE Te 08Apr2002
   VRHFIN =Te: s2p4

   TITEL  = PAW_PBE Te 08Apr2002
   POMASS =  127.600; ZVAL   =    6.000    mass and valenz
   ENMAX  =  174.982; ENMIN  =  131.236 eV
   QCUT   =   -3.586; QGAM   =    7.172    optimization parameters

   Description
     l     E      TYP  RCUT    TYP  RCUT
     0   .000     23  2.300
     0   .000     23  2.300
     1   .000     23  2.300
     1   .000     23  2.300
     2   .000     23  2.300
     3  -.100     23  2.300

 Optimization of the real space projectors (new method)

 maximal supplied QI-value         = 15.12
 optimisation between [QCUT,QGAM] = [ 11.64, 23.28] = [ 37.95,151.78] Ry
 Optimized for a Real-space Cutoff    1.49 Angstroem

   l    n(q)    QCUT    max X(q) W(low)/X(q) W(high)/X(q)  e(spline)
   2      9    11.641     4.777    0.25E-04    0.21E-05    0.63E-07
   2      9    11.641    31.132    0.13E-03    0.22E-03    0.64E-06
   0     10    11.641    20.416    0.11E-04    0.74E-05    0.19E-07
   0     10    11.641    45.408    0.10E-03    0.85E-04    0.30E-06
   1     10    11.641     7.848    0.22E-04    0.23E-04    0.56E-07
   1     10    11.641     9.895    0.85E-04    0.54E-04    0.16E-06
 Optimization of the real space projectors (new method)

[...]

   l    n(q)    QCUT    max X(q) W(low)/X(q) W(high)/X(q)  e(spline)
   0      9    11.539     8.651    0.22E-04    0.16E-04    0.10E-07
   0      9    11.539    33.192    0.11E-03    0.16E-03    0.65E-07
   1      8    11.539     5.899    0.37E-04    0.28E-04    0.43E-07
   1      8    11.539    27.289    0.22E-03    0.28E-04    0.14E-06
   2      8    11.539     4.673    0.11E-03    0.18E-03    0.58E-07
 Optimization of the real space projectors (new method)

 maximal supplied QI-value         = 16.25
 optimisation between [QCUT,QGAM] = [ 11.54, 23.24] = [ 37.28,151.24] Ry
 Optimized for a Real-space Cutoff    1.36 Angstroem

   l    n(q)    QCUT    max X(q) W(low)/X(q) W(high)/X(q)  e(spline)
   0      9    11.539     7.090    0.13E-04    0.25E-05    0.51E-08
   0      9    11.539   101.654    0.53E-04    0.69E-04    0.12E-06
   1      9    11.539     5.276    0.20E-04    0.98E-05    0.24E-07
   1      9    11.539    81.891    0.24E-03    0.13E-04    0.15E-06
   2      9    11.539     5.599    0.30E-04    0.97E-04    0.54E-07

 PAW_PBE Cr 06Sep2000                   :
 PAW_PBE Ge 05Jan2001                   :
 PAW_PBE Te 08Apr2002                   :

 POSCAR: Cr2 Ge2 Te6
  positions in direct lattice
  velocities in cartesian coordinates
 exchange correlation table for  LEXCH =       42
   RHO(1)=    0.500       N(1)  =     2000
   RHO(2)=  100.500       N(2)  =     4000

 ion  position               nearest neighbor table
   1  0.333  0.333  0.500-   6 2.78   5 2.78   7 2.78   8 2.78  10 2.78   9 2.78
   2  0.667  0.667  0.500-   9 2.78   8 2.78  10 2.78   5 2.78   7 2.78   6 2.78
   3  0.000  0.000  0.448-   4 2.43   8 2.63  10 2.63   9 2.63
   4  0.000  0.000  0.552-   3 2.43   5 2.63   7 2.63   6 2.63
   5  0.626  0.000  0.574-   4 2.63   1 2.78   2 2.78
   6  0.000  0.373  0.574-   4 2.63   1 2.78   2 2.78
   7  0.373  0.626  0.574-   4 2.63   1 2.78   2 2.78
   8  0.374  1.000  0.426-   3 2.63   2 2.78   1 2.78
   9  1.000  0.627  0.426-   3 2.63   2 2.78   1 2.78
  10  0.627  0.374  0.426-   3 2.63   2 2.78   1 2.78

  LATTYP: Found a hexagonal cell.
 ALAT       =     6.9077769333
 C/A-ratio  =     3.3939410937

  Lattice vectors:

 A1 = (   3.4538890000,  -5.9823100000,   0.0000000000)
 A2 = (  -6.9077770000,   0.0000000000,   0.0000000000)
 A3 = (   0.0000000000,   0.0000000000, -23.4445880000)

Analysis of symmetry for initial positions (statically):
 Subroutine PRICEL returns:
 Original cell was already a primitive cell.

 Routine SETGRP: Setting up the symmetry group for a
 hexagonal supercell.

 Subroutine GETGRP returns: Found  6 space group operations
 (whereof  6 operations were pure point group operations)
 out of a pool of 24 trial point group operations.

The static configuration has the point symmetry S_6 .

Analysis of symmetry for dynamics (positions and initial velocities):
 Subroutine PRICEL returns:
 Original cell was already a primitive cell.

[...]

The dynamic configuration has the point symmetry S_6 .

Analysis of structural, dynamic, and magnetic symmetry:
 Subroutine PRICEL returns:
 Original cell was already a primitive cell.

 Routine SETGRP: Setting up the symmetry group for a
 hexagonal supercell.

 Subroutine GETGRP returns: Found  6 space group operations
 (whereof  6 operations were pure point group operations)
 out of a pool of 24 trial point group operations.

The magnetic configuration has the point symmetry S_6 .

 Subroutine INISYM returns: Found  6 space group operations
 (whereof  6 operations are pure point group operations),
 and found     1 'primitive' translations

 KPOINTS: Kpoints from vasprun.xml

Automatic generation of k-mesh.
Space group operators:
 irot       det(A)        alpha          n_x          n_y          n_z        tau_x        tau_y        tau_z
    1     1.000000     0.000000     1.000000     0.000000     0.000000     0.000000     0.000000     0.000000
    2    -1.000000     0.000000     1.000000     0.000000     0.000000     0.000000     0.000000     0.000000
    3     1.000000   120.000000     0.000000     0.000000     1.000000     0.000000     0.000000     0.000000
    4    -1.000000   120.000000     0.000000     0.000000     1.000000     0.000000     0.000000     0.000000
    5     1.000000   120.000000     0.000000     0.000000    -1.000000     0.000000     0.000000     0.000000
    6    -1.000000   120.000000     0.000000     0.000000    -1.000000     0.000000     0.000000     0.000000

 Subroutine IBZKPT returns following result:

 Found      5 irreducible k-points:

 Following reciprocal coordinates:
            Coordinates               Weight
  0.000000  0.000000  0.000000      1.000000
  0.200000  0.000000  0.000000      6.000000
  0.400000  0.000000  0.000000      6.000000
  0.400000  0.200000  0.000000      6.000000
 -0.400000  0.200000  0.000000      6.000000

 Following cartesian coordinates:
            Coordinates               Weight
  0.000000  0.000000  0.000000      1.000000
  0.028953 -0.016716  0.000000      6.000000
  0.057906 -0.033432  0.000000      6.000000
  0.057906  0.000000  0.000000      6.000000
 -0.057906  0.066864  0.000000      6.000000

 TETIRR: Found     15 inequivalent tetrahedra from      150

 SYSTEM =  unknown system
 POSCAR =  Cr2 Ge2 Te6

 Startparameter for this run:
   NWRITE =      2    write-flag & timer
   PREC   = accura    normal or accurate (medium, high low for compatibility)
   ISTART =      0    job   : 0-new  1-cont  2-samecut
   ICHARG =      2    charge: 1-file 2-atom 10-const
   ISPIN  =      2    spin polarized calculation?
   LNONCOLLINEAR =      F non collinear calculations
   LSORBIT =      F    spin-orbit coupling
   INIWAV =      1    electr: 0-lowe 1-rand  2-diag
   LASPH  =      F    aspherical Exc in radial PAW
   METAGGA=      F    non-selfconsistent MetaGGA calc.

 Electronic Relaxation 1
   ENCUT  =  520.0 eV  38.22 Ry    6.18 a.u.  12.84 12.84 43.59*2*pi/ulx,y,z
   ENINI  =  520.0     initial cutoff
   ENAUG  =  402.1 eV  augmentation charge cutoff
   NELM   =    400;   NELMIN=  2; NELMDL=  0     # of ELM steps
   EDIFF  = 0.1E-03   stopping-criterion for ELM
   LREAL  =      T    real-space projection
   NLSPLINE    = F    spline interpolate recip. space projectors
   LCOMPAT=      F    compatible to vasp.4.4
   GGA_COMPAT  = T    GGA compatible to vasp.4.4-vasp.4.6
   LMAXPAW     = -100 max onsite density
   LMAXMIX     =    2 max onsite mixed and CHGCAR
   VOSKOWN=      0    Vosko Wilk Nusair interpolation
   ROPT   =   -0.00025  -0.00025  -0.00025
 Ionic relaxation
   EDIFFG = 0.1E-02   stopping-criterion for IOM
   NSW    =     99    number of steps for IOM
   NBLOCK =      1;   KBLOCK =     99    inner block; outer block
   IBRION =      2    ionic relax: 0-MD 1-quasi-New 2-CG
   NFREE  =      1    steps in history (QN), initial steepest desc. (CG)
   ISIF   =      3    stress and relaxation
   IWAVPR =     11    prediction:  0-non 1-charg 2-wave 3-comb
   ISYM   =      2    0-nonsym 1-usesym 2-fastsym
   LCORR  =      T    Harris-Foulkes like correction to forces

   POTIM  = 0.5000    time-step for ionic-motion
   TEIN   =    0.0    initial temperature
   TEBEG  =    0.0;   TEEND  =   0.0 temperature during run
   SMASS  =  -3.00    Nose mass-parameter (am)
   estimated Nose-frequenzy (Omega)   =  0.10E-29 period in steps =****** mass=  -0.109E-26a.u.
   SCALEE = 1.0000    scale energy and forces
   NPACO  =    256;   APACO  = 16.0  distance and # of slots for P.C.
   PSTRESS=    0.0 pullay stress

  Mass of Ions in am
   POMASS =  52.00 72.61127.60
  Ionic Valenz
   ZVAL   =   6.00  4.00  6.00
  Atomic Wigner-Seitz radii
  virtual crystal weights
   VCA    =   1.00  1.00  1.00
   NELECT =      56.0000    total number of electrons
   NUPDOWN=      -1.0000    fix difference up-down

 DOS related values:
   EMIN   =  10.00;   EMAX   =-10.00  energy-range for DOS
   EFERMI =   0.00
   ISMEAR =    -5;   SIGMA  =   0.05  broadening in eV -4-tet -1-fermi 0-gaus

 Electronic relaxation 2 (details)
   IALGO  =     38    algorithm
   LDIAG  =      T    sub-space diagonalisation (order eigenvalues)
   LSUBROT=      F    optimize rotation matrix (better conditioning)
   TURBO    =      0    0=normal 1=particle mesh
   IRESTART =      0    0=no restart 2=restart with 2 vectors
   NREBOOT  =      0    no. of reboots
   NMIN     =      0    reboot dimension
   EREF     =   0.00    reference energy to select bands
   IMIX   =      4    mixing-type and parameters
     AMIX     =   0.40;   BMIX     =  1.00
     AMIX_MAG =   1.60;   BMIX_MAG =  1.00
     AMIN     =   0.01
     WC   =   100.;   INIMIX=   1;  MIXPRE=   1;  MAXMIX= -45

 Intra band minimization:
   WEIMIN = 0.0010     energy-eigenvalue tresh-hold
   EBREAK =  0.52E-06  absolut break condition
   DEPER  =   0.30     relativ break condition

   TIME   =   0.40     timestep for ELM

  volume/ion in A,a.u.               =      96.88       653.80
[...]
       6 -96.5309       7 -96.5309       8 -96.5309       9 -96.5309      10 -96.5309

 E-fermi :  -2.2871     XC(G=0):  -3.6122     alpha+bet : -3.0390

 spin component 1

 k-point     1 :       0.0000    0.0000    0.0000
  band No.  band energies     occupation
      1     -14.7963      1.00000
      2     -13.8572      1.00000
      3     -12.7983      1.00000
      4     -12.7982      1.00000
      5     -12.7405      1.00000
      6     -12.7405      1.00000
      7     -11.1107      1.00000
      8      -9.0524      1.00000
      9      -6.7276      1.00000
     10      -6.6810      1.00000
     11      -6.6809      1.00000
     12      -6.5657      1.00000
     13      -6.2491      1.00000
     14      -6.2491      1.00000
     15      -5.4569      1.00000
     16      -4.6157      1.00000
     17      -4.6157      1.00000
     18      -4.3129      1.00000
     19      -4.3129      1.00000
     20      -4.1692      1.00000
     21      -3.6265      1.00000
     22      -3.6182      1.00000
     23      -3.6182      1.00000
     24      -3.3567      1.00000
     25      -3.3567      1.00000
     26      -3.3452      1.00000
     27      -3.2704      1.00000
     28      -3.2704      1.00000
     29      -2.9523      1.00000
     30      -2.3156      1.00000
     31      -2.3156      1.00000
     32      -1.2615      0.00000
     33      -1.2615      0.00000
     34      -0.8061      0.00000
     35      -0.5595      0.00000
     36      -0.5595      0.00000
     37      -0.5180      0.00000
     38       1.0177      0.00000
     39       1.0177      0.00000
     40       1.6116      0.00000
     41       1.6688      0.00000
     42       2.0403      0.00000
     43       2.1687      0.00000
     44       2.1979      0.00000
     45       2.1979      0.00000
     46       2.4261      0.00000
     47       3.0520      0.00000
     48       3.0520      0.00000

[...]

 soft charge-density along one line, spin component           1
         0         1         2         3         4         5         6         7         8         9
 total charge-density along one line

[...]

------------------------ aborting loop because EDIFF is reached ----------------------------------------

 total charge

# of ion       s       p       d       tot
    1        0.333   0.406   4.237   4.976
    2        0.333   0.406   4.237   4.976
    3        1.174   1.134   0.074   2.381
    4        1.174   1.134   0.074   2.381
    5        1.392   1.974   0.033   3.399
    6        1.386   1.972   0.032   3.391
    7        1.391   1.970   0.033   3.394
    8        1.392   1.974   0.033   3.399
    9        1.386   1.972   0.032   3.391
   10        1.391   1.970   0.033   3.394
tot         11.352  14.911   8.819  35.082

 magnetization (x)

[...]

  FORCE on cell =-STRESS in cart. coord.  units (eV):
  Direction    XX          YY          ZZ          XY          YZ          ZX
  Alpha Z    14.98435    14.98435    14.98435
  Ewald    7419.63051  7419.62857 -8853.36149    -0.00107    -0.00038    -0.00069
  Hartree  7722.49883  7722.49923 -7580.54111    -0.00004     0.00005     0.00008
  E(xc)    -224.70868  -224.70869  -224.46963     0.00004     0.00002     0.00001
  Local  -15977.76371-15977.76299 15569.38004     0.00086     0.00024     0.00044
  n-local   682.39767   684.49595   693.85911     0.93556     0.78522     0.90725
  augment   -96.46660   -96.46648  -102.51652    -0.00001     0.00003     0.00001
  Kinetic   461.72352   456.08087   483.05897    -4.15049     0.68872     0.73090
  Fock        0.00000     0.00000     0.00000     0.00000     0.00000     0.00000
  Total       0.52335     0.52335     0.39373     0.00000     0.00000     0.00000
  in kB       0.86547     0.86546     0.65112     0.00000     0.00000     0.00000

 VOLUME and BASIS-vectors are now :
  energy-cutoff  :      520.00
  volume of cell :      968.84
      direct lattice vectors                 reciprocal lattice vectors
     6.907777000 -0.000000000  0.000000000     0.144764372 -0.083579742  0.000000000
     3.453888000  5.982310000  0.000000000     0.000000000  0.167159509 -0.000000000
     0.000000000  0.000000000 23.444588000    -0.000000000  0.000000000  0.042653767

[...]

 FORCES acting on ions
    electron-ion (+dipol)            ewald-force                    non-local-force                 convergence-correction
   -.306E-04 -.255E-04 0.638E+00   0.306E-03 0.183E-03 -.640E+00   0.000E+00 -.694E-17 -.927E-03   0.103E-05 0.596E-06 -.156E-03
   0.306E-04 0.255E-04 -.638E+00   -.306E-03 -.183E-03 0.640E+00   0.000E+00 0.694E-17 0.927E-03   -.103E-05 -.596E-06 0.156E-03
   -.251E-04 -.285E-04 0.160E+03   -.141E-03 -.779E-04 -.158E+03   0.694E-17 0.347E-17 -.213E+01   -.163E-06 -.834E-07 -.260E-01
   0.251E-04 0.285E-04 -.160E+03   0.141E-03 0.779E-04 0.158E+03   0.000E+00 -.347E-17 0.213E+01   0.163E-06 0.834E-07 0.260E-01
   -.820E+01 0.159E+00 -.338E+03   0.444E+01 -.152E+00 0.342E+03   0.366E+01 -.151E-01 -.450E+01   0.137E-03 -.543E-04 0.556E-01
   0.423E+01 0.702E+01 -.338E+03   -.235E+01 -.377E+01 0.342E+03   -.184E+01 -.316E+01 -.450E+01   -.116E-03 -.920E-04 0.556E-01
   0.396E+01 -.718E+01 -.338E+03   -.209E+01 0.392E+01 0.342E+03   -.182E+01 0.318E+01 -.450E+01   -.211E-04 0.146E-03 0.556E-01
   0.820E+01 -.159E+00 0.338E+03   -.444E+01 0.152E+00 -.342E+03   -.366E+01 0.151E-01 0.450E+01   -.137E-03 0.543E-04 -.556E-01
   -.423E+01 -.702E+01 0.338E+03   0.235E+01 0.377E+01 -.342E+03   0.184E+01 0.316E+01 0.450E+01   0.116E-03 0.920E-04 -.556E-01
   -.396E+01 0.718E+01 0.338E+03   0.209E+01 -.392E+01 -.342E+03   0.182E+01 -.318E+01 0.450E+01   0.211E-04 -.146E-03 -.556E-01
   -.452E-09 -.344E-09 0.126E-09   0.155E-13 0.799E-14 -.171E-12   -.222E-15 0.133E-14 0.000E+00   0.717E-14 -.686E-14 -.628E-12

 POSITION                                       TOTAL-FORCE (eV/Angst)
      3.45388      1.99410     11.72054         0.000000      0.000000     -0.002972
      6.90778      3.98821     11.72405         0.000000      0.000000      0.002972
      0.00000      0.00000     10.50824         0.000000     -0.000000      0.023691
      0.00000      0.00000     12.93635         0.000000      0.000000     -0.023691
      4.32819      0.00251     13.45138        -0.101619     -0.007958      0.025079
      1.29198      2.23274     13.45138         0.043917      0.091984      0.025079
      4.74152      3.74706     13.45138         0.057701     -0.084025      0.025079
      6.03348      5.97980      9.99321         0.101619      0.007958     -0.025079
      9.06969      3.74957      9.99321        -0.043917     -0.091984     -0.025079
      5.62015      2.23525      9.99321        -0.057701      0.084025     -0.025079
    total drift:                               -0.000000     -0.000000      0.000000

  FREE ENERGIE OF THE ION-ELECTRON SYSTEM (eV)
  free  energy   TOTEN  =       -41.76727837 eV

  energy  without entropy=      -41.76727837  energy(sigma->0) =      -41.76727837

[...]

 d Force = 0.2041809E-02[ 0.831E-03, 0.325E-02]  d Energy = 0.1206931E-02 0.835E-03
 d Force = 0.1989745E+01[ 0.198E+01, 0.200E+01]  d Ewald  = 0.2256743E+02-0.206E+02

 Steepest descent step on ions:
 trial-energy change:   -0.001207  1 .order   -0.002589   -0.006635    0.001458
  (g-gl).g = 0.663E-02      g.g   = 0.663E-02  gl.gl    = 0.000E+00
 g(Force)  = 0.324E-02   g(Stress)= 0.339E-02 ortho     = 0.000E+00
 gamma     =   0.00000
 trial     =   1.00000
 opt step  =   0.56859  (harmonic =   0.81988) maximal distance =0.00278743
 next E    =   -41.768911   (d E  =  -0.00163)

[...]

 eigenvalue-minimisations  :  1184
 total energy-change (2. order) : 0.1649316E-03  (-0.9403774E-04)
 number of electron      56.0000001 magnetization       6.0000260
 augmentation part       -3.1753256 magnetization       4.2847617

 Broyden mixing:
  rms(total) = 0.19886E-02    rms(broyden)= 0.19886E-02
  rms(prec ) = 0.27322E-02
  weight for this iteration     100.00

 eigenvalues of (default mixing * dielectric matrix)
  average eigenvalue GAMMA=   1.0115
  1.9361  0.7251  0.3734

[...]

--------------------------------------- Iteration      3(   5)  ---------------------------------------

[...]

 eigenvalue-minimisations  :   688
 total energy-change (2. order) :-0.6605393E-04  (-0.3822378E-05)
 number of electron      56.0000001 magnetization       6.0000260
 augmentation part       -3.1753256 magnetization       4.2847617

 Free energy of the ion-electron system (eV)
  alpha Z        PSCENC =        14.92529840
  Ewald energy   TEWEN  =      5973.04749068
  -Hartree energ DENC   =     -7848.76887447
  -exchange      EXHF   =         0.00000000
  -V(xc)+E(xc)   XCENC  =      -226.78476578
  PAW double counting   =      1238.22303215     -928.27479685
  entropy T*S    EENTRO =         0.00000000
  eigenvalues    EBANDS =      -378.80275400
  atomic energy  EATOM  =      2114.66635543
  Solvation  Ediel_sol  =         0.00000000
  free energy    TOTEN  =       -41.76901443 eV

  energy without entropy =      -41.76901443  energy(sigma->0) =      -41.76901443

 average (electrostatic) potential at core
  the test charge radii are     1.1394  1.1631  1.1897
  (the norm of the test charge is              1.0000)
       1 -50.7259       2 -50.7259       3 -39.1976       4 -39.1976       5 -96.5057
       6 -96.5057       7 -96.5057       8 -96.5057       9 -96.5057      10 -96.5057

 E-fermi :  -2.2610     XC(G=0):  -3.5872     alpha+bet : -3.0270

[...]

 spin component 2

[...]

 k-point     5 :      -0.4000    0.2000    0.0000
  band No.  band energies     occupation
      1     -14.1700      1.00000
      2     -13.6411      1.00000
      3     -13.4181      1.00000
      4     -13.3111      1.00000
      5     -13.1313      1.00000
      6     -12.9760      1.00000
      7     -10.5012      1.00000
      8      -8.9667      1.00000
      9      -6.4635      1.00000
     10      -6.0722      1.00000
     11      -5.9555      1.00000
     12      -5.5806      1.00000
     13      -5.3904      1.00000
     14      -5.0872      1.00000
     15      -4.7186      1.00000
     16      -4.5454      1.00000
     17      -4.3569      1.00000
     18      -4.2750      1.00000
     19      -4.0857      1.00000
     20      -3.9848      1.00000
     21      -3.7371      1.00000
     22      -3.4062      1.00000
     23      -3.2622      1.00000
     24      -3.2573      1.00000
     25      -3.1723      1.00000
     26      -1.8807      0.00000
     27      -1.3364      0.00000
     28      -0.9703      0.00000
     29      -0.9539      0.00000
     30      -0.4729      0.00000
     31      -0.4060      0.00000
     32      -0.4010      0.00000
     33      -0.0339      0.00000
     34      -0.0328      0.00000
     35       0.2894      0.00000
     36       0.3658      0.00000
     37       0.6212      0.00000
     38       0.7103      0.00000
     39       1.1283      0.00000
     40       1.6592      0.00000
     41       1.7969      0.00000
     42       1.8685      0.00000
     43       2.7777      0.00000
     44       2.8033      0.00000
     45       2.8554      0.00000
     46       2.9631      0.00000
     47       3.0984      0.00000
     48       3.5146      0.00000

[...]

 soft charge-density along one line, spin component           2
         0         1         2         3         4         5         6         7         8         9
 total charge-density along one line

------------------------ aborting loop because EDIFF is reached ----------------------------------------

[...]

  FORCE on cell =-STRESS in cart. coord.  units (eV):
  Direction    XX          YY          ZZ          XY          YZ          ZX
  Alpha Z    14.92530    14.92530    14.92530
  Ewald    7404.34071  7404.33878 -8835.63396    -0.00107    -0.00037    -0.00068
  Hartree  7708.00089  7708.00128 -7565.39542    -0.00004     0.00005     0.00008
  E(xc)    -224.59062  -224.59064  -224.36322     0.00005     0.00002     0.00002
  Local  -15947.68007-15947.67935 15536.87807     0.00086     0.00023     0.00044
  n-local   681.80661   683.91454   693.50207     0.93921     0.78071     0.90460
  augment   -96.44995   -96.44978  -102.49641    -0.00006    -0.00002     0.00004
  Kinetic   461.31417   455.72704   482.55882    -4.11567     0.68508     0.72890
  Fock        0.00000     0.00000     0.00000     0.00000     0.00000     0.00000
  Total      -0.07290    -0.07290    -0.02475     0.00000    -0.00000     0.00000
  in kB      -0.12007    -0.12007    -0.04076     0.00000    -0.00000     0.00000

 VOLUME and BASIS-vectors are now :
  energy-cutoff  :      520.00
  volume of cell :      972.67
      direct lattice vectors                 reciprocal lattice vectors
     6.917693485 -0.000000013  0.000000000     0.144556853 -0.083459931 -0.000000000
     3.458846251  5.990897920 -0.000000000     0.000000000  0.166919886 -0.000000000
     0.000000000  0.000000000 23.469908405     0.000000000  0.000000000  0.042607750

  length of vectors
     6.917693485  6.917692916 23.469908405     0.166919872  0.166919886  0.042607750

 FORCES acting on ions
    electron-ion (+dipol)            ewald-force                    non-local-force                 convergence-correction
   -.161E-04 -.192E-04 0.608E+00   0.305E-03 0.182E-03 -.610E+00   0.347E-17 0.694E-17 0.581E-03   0.101E-06 0.698E-07 0.136E-03
   0.161E-04 0.192E-04 -.608E+00   -.305E-03 -.182E-03 0.610E+00   -.347E-17 -.694E-17 -.581E-03   -.101E-06 -.698E-07 -.136E-03
   -.269E-04 -.279E-04 0.159E+03   -.140E-03 -.774E-04 -.157E+03   0.683E-17 -.539E-19 -.213E+01   -.773E-07 -.372E-07 -.329E-02
   0.269E-04 0.279E-04 -.159E+03   0.140E-03 0.774E-04 0.157E+03   -.510E-17 0.539E-19 0.213E+01   0.773E-07 0.372E-07 0.329E-02
   -.833E+01 0.132E+00 -.337E+03   0.460E+01 -.126E+00 0.342E+03   0.366E+01 -.144E-01 -.451E+01   0.602E-03 0.359E-04 0.905E-02
   0.428E+01 0.714E+01 -.337E+03   -.241E+01 -.392E+01 0.342E+03   -.184E+01 -.316E+01 -.451E+01   -.270E-03 -.539E-03 0.905E-02
   0.405E+01 -.728E+01 -.337E+03   -.219E+01 0.405E+01 0.342E+03   -.182E+01 0.318E+01 -.451E+01   -.332E-03 0.504E-03 0.905E-02
   0.833E+01 -.132E+00 0.337E+03   -.460E+01 0.126E+00 -.342E+03   -.366E+01 0.144E-01 0.451E+01   -.602E-03 -.359E-04 -.905E-02
   -.428E+01 -.714E+01 0.337E+03   0.241E+01 0.392E+01 -.342E+03   0.184E+01 0.316E+01 0.451E+01   0.270E-03 0.539E-03 -.905E-02
   -.405E+01 0.728E+01 0.337E+03   0.219E+01 -.405E+01 -.342E+03   0.182E+01 -.318E+01 0.451E+01   0.332E-03 -.504E-03 -.905E-02
   0.271E-10 0.275E-09 -.341E-09   -.444E-15 0.266E-14 0.568E-13   -.222E-15 -.444E-15 0.000E+00   0.210E-12 -.205E-12 -.138E-11

 POSITION                                       TOTAL-FORCE (eV/Angst)
      3.45884      1.99696     11.73311        -0.000000      0.000000     -0.001168
      6.91770      3.99393     11.73680        -0.000000     -0.000000      0.001168
      0.00000      0.00000     10.52024        -0.000000      0.000000      0.002784
      0.00000      0.00000     12.94967        -0.000000     -0.000000     -0.002784
      4.33160      0.00230     13.46660        -0.063006     -0.007114     -0.002347
      1.29504      2.23848     13.46660         0.025342      0.058122     -0.002347
      4.74991      3.75013     13.46660         0.037663     -0.051008     -0.002347
      6.04494      5.98860     10.00331         0.063006      0.007114      0.002347
      9.08150      3.75242     10.00331        -0.025342     -0.058122      0.002347
      5.62663      2.24077     10.00331        -0.037663      0.051008      0.002347
    total drift:                                0.000000      0.000000     -0.000000

  FREE ENERGIE OF THE ION-ELECTRON SYSTEM (eV)
  free  energy   TOTEN  =       -41.76901443 eV

  energy  without entropy=      -41.76901443  energy(sigma->0) =      -41.76901443

 d Force =-0.5792235E-03[-0.801E-03,-0.357E-03]  d Energy = 0.5291245E-03-0.111E-02
 d Force =-0.8538171E+00[-0.856E+00,-0.852E+00]  d Ewald  =-0.9715370E+01 0.886E+01

 reached required accuracy - stopping structural energy minimisation

 total charge

[...]

 magnetization (x)

# of ion       s       p       d       tot
    1        0.043   0.047   3.044   3.133
    2        0.043   0.047   3.044   3.133
    3        0.002   0.046  -0.002   0.045
    4        0.002   0.046  -0.002   0.045
    5       -0.001  -0.102   0.005  -0.098
    6       -0.002  -0.088   0.005  -0.085
    7       -0.001  -0.097   0.005  -0.094
    8       -0.001  -0.102   0.005  -0.098
    9       -0.002  -0.088   0.005  -0.085
   10       -0.001  -0.097   0.005  -0.094
tot          0.080  -0.390   6.112   5.802

 BZINTS: Fermi energy: -2.261006; 56.000000 electrons
         Band energy:-378.802754;  BLOECHL correction:  0.000000