 vasp.5.4.4.18Apr17-6-g9f103f2a35 (build May  1 2020 15:48:39) complex
 executed on             LinuxGNU date 2020.07.10  05:39:51

 INCAR:
 POTCAR:   PAW_PBE Mn 06Sep2000
 POTCAR:   PAW_PBE Si 05Jan2001
 POTCAR:    PAW_PBE S 17Jan2003

 POTCAR:   PAW_PBE Mn 06Sep2000
   VRHFIN =Mn: d6 s1

   TITEL  = PAW_PBE Mn 06Sep2000
   POMASS =   54.938; ZVAL   =    7.000    mass and valenz
   ENMAX  =  269.865; ENMIN  =  202.399 eV
   QCUT   =   -4.454; QGAM   =    8.907    optimization parameters

   Description
     l     E      TYP  RCUT    TYP  RCUT
     2   .000     23  2.300
     2   .000     23  2.300
     0   .000     23  2.300
     0   .000     23  2.300
     1  -.200     23  2.300
     1  1.500     23  2.300
     3   .000      7   .000

 POTCAR:   PAW_PBE Si 05Jan2001
   VRHFIN =Si: s2p2

   TITEL  = PAW_PBE Si 05Jan2001
   POMASS =   28.085; ZVAL   =    4.000    mass and valenz
   ENMAX  =  245.345; ENMIN  =  184.009 eV
   QCUT   =   -4.246; QGAM   =    8.493    optimization parameters

[...]

 POTCAR:    PAW_PBE S 17Jan2003
   VRHFIN =S : s2p4

   TITEL  = PAW_PBE S 17Jan2003
   POMASS =   32.066; ZVAL   =    6.000    mass and valenz
   ENMAX  =  280.000; ENMIN  =  194.016 eV
   QCUT   =   -4.360; QGAM   =    8.721    optimization parameters

   Description
     l     E      TYP  RCUT    TYP  RCUT
     0   .000     23  1.900
     0   .000     23  1.900
     1   .000     23  1.900
     1   .000     23  1.900
     2   .000     23  1.900

 Optimization of the real space projectors (new method)

 maximal supplied QI-value         = 16.25
 optimisation between [QCUT,QGAM] = [ 11.54, 23.24] = [ 37.28,151.24] Ry
 Optimized for a Real-space Cutoff    1.53 Angstroem

   l    n(q)    QCUT    max X(q) W(low)/X(q) W(high)/X(q)  e(spline)
   2     10    11.539     4.144    0.87E-05    0.14E-04    0.48E-07
   2     10    11.539    35.116    0.12E-03    0.13E-03    0.25E-06
   0     11    11.539    20.431    0.20E-04    0.18E-05    0.19E-07
   0     11    11.539    61.159    0.37E-04    0.19E-04    0.29E-06
   1     10    11.539     6.695    0.11E-04    0.24E-05    0.29E-07
   1     10    11.539     8.642    0.41E-04    0.18E-04    0.11E-06
 Optimization of the real space projectors (new method)

[...]

   l    n(q)    QCUT    max X(q) W(low)/X(q) W(high)/X(q)  e(spline)
   0      8    11.508     8.708    0.18E-04    0.44E-05    0.47E-08
   0      8    11.508   106.241    0.70E-04    0.15E-03    0.51E-07
   1      8    11.508     5.901    0.63E-05    0.23E-04    0.21E-07
   1      8    11.508    73.241    0.15E-03    0.36E-04    0.79E-07
 Optimization of the real space projectors (new method)

 maximal supplied QI-value         = 19.84
 optimisation between [QCUT,QGAM] = [ 11.51, 23.22] = [ 37.09,150.92] Ry
 Optimized for a Real-space Cutoff    1.21 Angstroem

   l    n(q)    QCUT    max X(q) W(low)/X(q) W(high)/X(q)  e(spline)
   0      8    11.508     5.487    0.18E-04    0.22E-05    0.47E-08
   0      8    11.508    85.627    0.96E-04    0.18E-03    0.54E-07
   1      8    11.508     3.530    0.17E-04    0.28E-04    0.21E-07
   1      8    11.508    42.714    0.18E-03    0.63E-04    0.92E-07

 PAW_PBE Mn 06Sep2000                   :
 PAW_PBE Si 05Jan2001                   :
  PAW_PBE S 17Jan2003                   :

 POSCAR: Mn2 Si2 S6
  positions in direct lattice
  velocities in cartesian coordinates
 exchange correlation table for  LEXCH =       42
   RHO(1)=    0.500       N(1)  =     2000
   RHO(2)=  100.500       N(2)  =     4000

 ion  position               nearest neighbor table
   1  0.333  0.333  0.500-   6 2.78   5 2.78   7 2.78   8 2.78  10 2.78   9 2.78
   2  0.667  0.667  0.500-   9 2.78   8 2.78  10 2.78   5 2.78   7 2.78   6 2.78
   3  0.000  0.000  0.448-   4 2.43   8 2.63  10 2.63   9 2.63
   4  0.000  0.000  0.552-   3 2.43   5 2.63   7 2.63   6 2.63
   5  0.626  0.000  0.574-   4 2.63   1 2.78   2 2.78
   6  0.000  0.373  0.574-   4 2.63   1 2.78   2 2.78
   7  0.373  0.626  0.574-   4 2.63   1 2.78   2 2.78
   8  0.374  1.000  0.426-   3 2.63   2 2.78   1 2.78
   9  1.000  0.627  0.426-   3 2.63   2 2.78   1 2.78
  10  0.627  0.374  0.426-   3 2.63   2 2.78   1 2.78

  LATTYP: Found a hexagonal cell.
 ALAT       =     6.9077769333
 C/A-ratio  =     3.3939410937

  Lattice vectors:

 A1 = (   3.4538890000,  -5.9823100000,   0.0000000000)
 A2 = (  -6.9077770000,   0.0000000000,   0.0000000000)
 A3 = (   0.0000000000,   0.0000000000, -23.4445880000)

Analysis of symmetry for initial positions (statically):
 Subroutine PRICEL returns:
 Original cell was already a primitive cell.

 Routine SETGRP: Setting up the symmetry group for a
 hexagonal supercell.

 Subroutine GETGRP returns: Found  6 space group operations
 (whereof  6 operations were pure point group operations)
 out of a pool of 24 trial point group operations.

The static configuration has the point symmetry S_6 .

Analysis of symmetry for dynamics (positions and initial velocities):
 Subroutine PRICEL returns:
 Original cell was already a primitive cell.

[...]

The dynamic configuration has the point symmetry S_6 .

Analysis of constrained symmetry for selective dynamics:
 Subroutine PRICEL returns:
 Original cell was already a primitive cell.

[...]

The constrained configuration has the point symmetry S_6 .

Analysis of structural, dynamic, and magnetic symmetry:
 Subroutine PRICEL returns:
 Original cell was already a primitive cell.

 Routine SETGRP: Setting up the symmetry group for a
 hexagonal supercell.

 Subroutine GETGRP returns: Found  6 space group operations
 (whereof  6 operations were pure point group operations)
 out of a pool of 24 trial point group operations.

The magnetic configuration has the point symmetry S_6 .

 Subroutine INISYM returns: Found  6 space group operations
 (whereof  6 operations are pure point group operations),
 and found     1 'primitive' translations

 KPOINTS: Kpoints from vasprun.xml

Automatic generation of k-mesh.
Space group operators:
 irot       det(A)        alpha          n_x          n_y          n_z        tau_x        tau_y        tau_z
    1     1.000000     0.000000     1.000000     0.000000     0.000000     0.000000     0.000000     0.000000
    2    -1.000000     0.000000     1.000000     0.000000     0.000000     0.000000     0.000000     0.000000
    3     1.000000   120.000000     0.000000     0.000000     1.000000     0.000000     0.000000     0.000000
    4    -1.000000   120.000000     0.000000     0.000000     1.000000     0.000000     0.000000     0.000000
    5     1.000000   120.000000     0.000000     0.000000    -1.000000     0.000000     0.000000     0.000000
    6    -1.000000   120.000000     0.000000     0.000000    -1.000000     0.000000     0.000000     0.000000

 Subroutine IBZKPT returns following result:

 Found      5 irreducible k-points:

 Following reciprocal coordinates:
            Coordinates               Weight
  0.000000  0.000000  0.000000      1.000000
  0.200000  0.000000  0.000000      6.000000
  0.400000  0.000000  0.000000      6.000000
  0.400000  0.200000  0.000000      6.000000
 -0.400000  0.200000  0.000000      6.000000

 Following cartesian coordinates:
            Coordinates               Weight
  0.000000  0.000000  0.000000      1.000000
  0.028953 -0.016716  0.000000      6.000000
  0.057906 -0.033432  0.000000      6.000000
  0.057906  0.000000  0.000000      6.000000
 -0.057906  0.066864  0.000000      6.000000

 TETIRR: Found     15 inequivalent tetrahedra from      150

 SYSTEM =  unknown system
 POSCAR =  Mn2 Si2 S6

 Startparameter for this run:
   NWRITE =      2    write-flag & timer
   PREC   = accura    normal or accurate (medium, high low for compatibility)
   ISTART =      0    job   : 0-new  1-cont  2-samecut
   ICHARG =      2    charge: 1-file 2-atom 10-const
   ISPIN  =      2    spin polarized calculation?
   LNONCOLLINEAR =      F non collinear calculations
   LSORBIT =      F    spin-orbit coupling
   INIWAV =      1    electr: 0-lowe 1-rand  2-diag
   LASPH  =      F    aspherical Exc in radial PAW
   METAGGA=      F    non-selfconsistent MetaGGA calc.

 Electronic Relaxation 1
   ENCUT  =  520.0 eV  38.22 Ry    6.18 a.u.  12.84 12.84 43.59*2*pi/ulx,y,z
   ENINI  =  520.0     initial cutoff
   ENAUG  =  500.7 eV  augmentation charge cutoff
   NELM   =    400;   NELMIN=  2; NELMDL=  0     # of ELM steps
   EDIFF  = 0.1E-03   stopping-criterion for ELM
   LREAL  =      T    real-space projection
   NLSPLINE    = F    spline interpolate recip. space projectors
   LCOMPAT=      F    compatible to vasp.4.4
   GGA_COMPAT  = T    GGA compatible to vasp.4.4-vasp.4.6
   LMAXPAW     = -100 max onsite density
   LMAXMIX     =    2 max onsite mixed and CHGCAR
   VOSKOWN=      0    Vosko Wilk Nusair interpolation
   ROPT   =   -0.00025  -0.00025  -0.00025
 Ionic relaxation
   EDIFFG = 0.1E-02   stopping-criterion for IOM
   NSW    =     99    number of steps for IOM
   NBLOCK =      1;   KBLOCK =     99    inner block; outer block
   IBRION =      2    ionic relax: 0-MD 1-quasi-New 2-CG
   NFREE  =      1    steps in history (QN), initial steepest desc. (CG)
   ISIF   =      3    stress and relaxation
   IWAVPR =     11    prediction:  0-non 1-charg 2-wave 3-comb
   ISYM   =      2    0-nonsym 1-usesym 2-fastsym
   LCORR  =      T    Harris-Foulkes like correction to forces

   POTIM  = 0.5000    time-step for ionic-motion
   TEIN   =    0.0    initial temperature
   TEBEG  =    0.0;   TEEND  =   0.0 temperature during run
   SMASS  =  -3.00    Nose mass-parameter (am)
   estimated Nose-frequenzy (Omega)   =  0.10E-29 period in steps =****** mass=  -0.109E-26a.u.
   SCALEE = 1.0000    scale energy and forces
   NPACO  =    256;   APACO  = 16.0  distance and # of slots for P.C.
   PSTRESS=    0.0 pullay stress

  Mass of Ions in am
   POMASS =  54.94 28.09 32.07
  Ionic Valenz
   ZVAL   =   7.00  4.00  6.00
  Atomic Wigner-Seitz radii
  virtual crystal weights
   VCA    =   1.00  1.00  1.00
   NELECT =      58.0000    total number of electrons
   NUPDOWN=      -1.0000    fix difference up-down

 DOS related values:
   EMIN   =  10.00;   EMAX   =-10.00  energy-range for DOS
   EFERMI =   0.00
   ISMEAR =    -5;   SIGMA  =   0.05  broadening in eV -4-tet -1-fermi 0-gaus

 Electronic relaxation 2 (details)
   IALGO  =     38    algorithm
   LDIAG  =      T    sub-space diagonalisation (order eigenvalues)
   LSUBROT=      F    optimize rotation matrix (better conditioning)
   TURBO    =      0    0=normal 1=particle mesh
   IRESTART =      0    0=no restart 2=restart with 2 vectors
   NREBOOT  =      0    no. of reboots
   NMIN     =      0    reboot dimension
   EREF     =   0.00    reference energy to select bands
   IMIX   =      4    mixing-type and parameters
     AMIX     =   0.40;   BMIX     =  1.00
     AMIX_MAG =   1.60;   BMIX_MAG =  1.00
     AMIN     =   0.01
     WC   =   100.;   INIMIX=   1;  MIXPRE=   1;  MAXMIX= -45

 Intra band minimization:
   WEIMIN = 0.0010     energy-eigenvalue tresh-hold
   EBREAK =  0.52E-06  absolut break condition
   DEPER  =   0.30     relativ break condition

   TIME   =   0.40     timestep for ELM

  volume/ion in A,a.u.               =      96.88       653.80
[...]
    1        0.207   0.167   4.808   5.181
    2        0.207   0.167   4.808   5.181
    3        0.812   0.613   0.000   1.425
    4        0.812   0.613   0.000   1.425
    5        1.379   2.177   0.000   3.556
    6        1.377   2.217   0.000   3.594
    7        1.378   2.188   0.000   3.566
    8        1.379   2.177   0.000   3.556
    9        1.377   2.217   0.000   3.594
   10        1.378   2.188   0.000   3.566
tot         10.305  14.721   9.616  34.642

 magnetization (x)

[...]

  FORCE on cell =-STRESS in cart. coord.  units (eV):
  Direction    XX          YY          ZZ          XY          YZ          ZX
  Alpha Z    19.48278    19.48278    19.48278
  Ewald    8032.18009  8032.17807 -9574.01225    -0.00129    -0.00041    -0.00075
  Hartree  8555.71679  8555.71725 -8222.12875    -0.00016     0.00005     0.00007
  E(xc)    -217.25795  -217.25800  -216.86193     0.00005     0.00000     0.00001
  Local  -17448.91902-17448.91841 16900.87531     0.00120     0.00024     0.00046
  n-local   452.74772   454.59920   465.83691     0.81427     0.03819    -0.23811
  augment   -52.87357   -52.87336   -56.55641    -0.00014    -0.00005     0.00006
  Kinetic   630.94930   627.55890   668.52604    -2.01778    -0.76506    -1.51208
  Fock        0.00000     0.00000     0.00000     0.00000     0.00000     0.00000
  Total     -28.74372   -28.74372   -14.83831     0.00000     0.00000    -0.00000
  in kB     -47.53393   -47.53392   -24.53834     0.00000     0.00000    -0.00000

 VOLUME and BASIS-vectors are now :
  energy-cutoff  :      520.00
  volume of cell :      968.84
      direct lattice vectors                 reciprocal lattice vectors
     6.907777000 -0.000000000  0.000000000     0.144764372 -0.083579742  0.000000000
     3.453888000  5.982310000  0.000000000     0.000000000  0.167159509 -0.000000000
     0.000000000  0.000000000 23.444588000    -0.000000000  0.000000000  0.042653767

[...]

 FORCES acting on ions
    electron-ion (+dipol)            ewald-force                    non-local-force                 convergence-correction
   0.195E-03 0.102E-03 0.783E+00   0.380E-03 0.228E-03 -.767E+00   0.173E-17 0.000E+00 -.111E-01   0.521E-05 0.300E-05 0.798E-04
   -.195E-03 -.102E-03 -.783E+00   -.380E-03 -.228E-03 0.767E+00   0.000E+00 0.000E+00 0.111E-01   -.521E-05 -.300E-05 -.798E-04
   -.419E-04 0.314E-04 0.171E+03   -.141E-03 -.779E-04 -.165E+03   0.208E-16 -.694E-17 -.577E+01   -.944E-06 -.520E-06 0.205E-01
   0.419E-04 -.314E-04 -.171E+03   0.141E-03 0.779E-04 0.165E+03   0.694E-17 0.694E-17 0.577E+01   0.944E-06 0.520E-06 -.205E-01
   -.121E+02 0.158E+00 -.360E+03   0.914E+01 -.153E+00 0.363E+03   0.451E+01 -.116E-01 -.465E+01   -.188E-01 0.885E-05 -.555E-01
   0.620E+01 0.104E+02 -.360E+03   -.470E+01 -.784E+01 0.363E+03   -.226E+01 -.390E+01 -.465E+01   0.942E-02 0.163E-01 -.555E-01
   0.592E+01 -.106E+02 -.360E+03   -.444E+01 0.800E+01 0.363E+03   -.224E+01 0.391E+01 -.465E+01   0.941E-02 -.163E-01 -.555E-01
   0.121E+02 -.158E+00 0.360E+03   -.914E+01 0.153E+00 -.363E+03   -.451E+01 0.116E-01 0.465E+01   0.188E-01 -.885E-05 0.555E-01
   -.620E+01 -.104E+02 0.360E+03   0.470E+01 0.784E+01 -.363E+03   0.226E+01 0.390E+01 0.465E+01   -.942E-02 -.163E-01 0.555E-01
   -.592E+01 0.106E+02 0.360E+03   0.444E+01 -.800E+01 -.363E+03   0.224E+01 -.391E+01 0.465E+01   -.941E-02 0.163E-01 0.555E-01
   0.163E-09 0.285E-09 0.106E-09   -.622E-14 0.115E-13 -.568E-13   0.444E-15 0.000E+00 0.888E-15   0.402E-13 -.223E-13 -.271E-11

 POSITION                                       TOTAL-FORCE (eV/Angst)
      3.45388      1.99410     11.72054        -0.000000     -0.000000      0.004972
      6.90778      3.98821     11.72405        -0.000000      0.000000     -0.004972
      0.00000      0.00000     10.50824        -0.000000     -0.000000     -0.201993
      0.00000      0.00000     12.93635        -0.000000      0.000000      0.201993
      4.32819      0.00251     13.45138         1.508132     -0.004870     -1.443187
      1.29198      2.23274     13.45138        -0.758284     -1.303645     -1.443187
      4.74152      3.74706     13.45138        -0.749848      1.308515     -1.443187
      6.03348      5.97980      9.99321        -1.508132      0.004870      1.443187
      9.06969      3.74957      9.99321         0.758284      1.303645      1.443187
      5.62015      2.23525      9.99321         0.749848     -1.308515      1.443187
    total drift:                                0.000000      0.000000      0.000000

  FREE ENERGIE OF THE ION-ELECTRON SYSTEM (eV)
  free  energy   TOTEN  =       -47.58535823 eV

  energy  without entropy=      -47.58535823  energy(sigma->0) =      -47.58535823

[...]

 d Force = 0.6796287E+00[ 0.229E+00, 0.113E+01]  d Energy = 0.6726130E+01-0.605E+01
 d Force =-0.1604365E+03[-0.186E+03,-0.134E+03]  d Ewald  =-0.2094281E+04 0.193E+04

 Steepest descent step on ions:
 trial-energy change:   -6.726130  1 .order   -6.528384  -10.298991   -2.757778
  (g-gl).g = 0.103E+02      g.g   = 0.103E+02  gl.gl    = 0.000E+00
 g(Force)  = 0.127E+01   g(Stress)= 0.903E+01 ortho     = 0.000E+00
 gamma     =   0.00000
 trial     =   1.00000
 opt step  =   1.30346  (harmonic =   1.36569) maximal distance =0.09483501
 next E    =   -54.735454   (d E  =  -7.15010)

[...]

 d Force =-0.7836940E-01[-0.231E+00, 0.740E-01]  d Energy =-0.2780026E+00 0.200E+00
 d Force =-0.6297659E+02[-0.665E+02,-0.595E+02]  d Ewald  =-0.8493268E+03 0.786E+03

[...]

 d Force = 0.8451992E-01[ 0.149E-01, 0.154E+00]  d Energy = 0.4667091E+00-0.382E+00
 d Force = 0.4173028E+02[ 0.403E+02, 0.432E+02]  d Ewald  = 0.5463126E+03-0.505E+03

[...]

 d Force = 0.3132316E-02[-0.533E-01, 0.596E-01]  d Energy = 0.9951906E-02-0.682E-02
 d Force =-0.2764665E+02[-0.277E+02,-0.276E+02]  d Ewald  = 0.9430980E+02-0.122E+03

 Conjugate gradient step on ions:
 trial-energy change:   -0.009952  1 .order   -0.007570   -0.085644    0.070504
  (g-gl).g =-0.156E+00      g.g   = 0.874E-01  gl.gl    = 0.103E+02
 g(Force)  = 0.576E-01   g(Stress)= 0.299E-01 ortho     = 0.243E+00
 gamma     =  -0.01514
 trial     =   1.02274
 opt step  =   0.58388  (harmonic =   0.56095) maximal distance =0.01727687
 next E    =   -54.525085   (d E  =  -0.02489)

[...]

 d Force = 0.1190714E-01[ 0.591E-03, 0.232E-01]  d Energy = 0.1495453E-01-0.305E-02
 d Force = 0.1206175E+02[ 0.120E+02, 0.121E+02]  d Ewald  =-0.4042772E+02 0.525E+02

[...]

 Conjugate gradient step on ions:
 trial-energy change:   -0.004823  1 .order   -0.004878   -0.008949   -0.000806
  (g-gl).g = 0.865E-02      g.g   = 0.968E-02  gl.gl    = 0.874E-01
 g(Force)  = 0.657E-02   g(Stress)= 0.312E-02 ortho     =-0.113E-02
 gamma     =   0.09893
 trial     =   0.93497
 opt step  =   1.02749  (harmonic =   1.02749) maximal distance =0.00598968
 next E    =   -54.530018   (d E  =  -0.00492)

[...]

 d Force = 0.2284277E-03[ 0.214E-03, 0.243E-03]  d Energy = 0.1955646E-03 0.329E-04
 d Force =-0.7390724E+00[-0.739E+00,-0.739E+00]  d Ewald  =-0.5299243E+01 0.456E+01

[...]

 d Force = 0.2672954E-03[-0.257E-02, 0.311E-02]  d Energy =-0.1877891E-03 0.455E-03
 d Force =-0.4333175E+01[-0.435E+01,-0.432E+01]  d Ewald  =-0.9512880E+01 0.518E+01

 Conjugate gradient step on ions:
 trial-energy change:    0.000188  1 .order   -0.000883   -0.004751    0.002986
  (g-gl).g = 0.748E-02      g.g   = 0.610E-02  gl.gl    = 0.968E-02
 g(Force)  = 0.147E-02   g(Stress)= 0.464E-02 ortho     =-0.145E-02
 gamma     =   0.77292
 trial     =   0.95347
 opt step  =   0.39364  (harmonic =   0.58552) maximal distance =0.00310398
 next E    =   -54.531025   (d E  =  -0.00091)

[...]

 eigenvalue-minimisations  :  1360
 total energy-change (2. order) : 0.2136789E-02  (-0.7982141E-03)
 number of electron      57.9999998 magnetization       3.9998201
 augmentation part        1.0257676 magnetization       2.9773010

 Broyden mixing:
  rms(total) = 0.75364E-02    rms(broyden)= 0.75360E-02
  rms(prec ) = 0.82526E-02
  weight for this iteration     100.00

 eigenvalues of (default mixing * dielectric matrix)
  average eigenvalue GAMMA=   0.6650
  1.0112  0.3188

[...]

--------------------------------------- Iteration     10(   4)  ---------------------------------------

[...]

 eigenvalue-minimisations  :  1136
 total energy-change (2. order) :-0.9536424E-04  (-0.5204104E-04)
 number of electron      57.9999998 magnetization       3.9998201
 augmentation part        1.0257676 magnetization       2.9773010

 Free energy of the ion-electron system (eV)
  alpha Z        PSCENC =        29.96682288
  Ewald energy   TEWEN  =      8896.29503836
  -Hartree energ DENC   =    -11355.01514705
  -exchange      EXHF   =         0.00000000
  -V(xc)+E(xc)   XCENC  =        31.39216208
  PAW double counting   =      1416.62817099    -1328.27717070
  entropy T*S    EENTRO =         0.00000000
  eigenvalues    EBANDS =      -456.54093796
  atomic energy  EATOM  =      2711.01990166
  Solvation  Ediel_sol  =         0.00000000
  free energy    TOTEN  =       -54.53115975 eV

  energy without entropy =      -54.53115975  energy(sigma->0) =      -54.53115975

 average (electrostatic) potential at core
  the test charge radii are     1.0210  0.9892  0.9698
  (the norm of the test charge is              1.0000)
       1 -52.3294       2 -52.3294       3 -92.2984       4 -92.2984       5 -94.0450
       6 -94.0450       7 -94.0450       8 -94.0450       9 -94.0450      10 -94.0450

 E-fermi :  -2.1164     XC(G=0):  -3.8111     alpha+bet : -3.2483

[...]

 spin component 2

[...]

 k-point     5 :      -0.4000    0.2000    0.0000
  band No.  band energies     occupation
      1     -16.5227      1.00000
      2     -16.0999      1.00000
      3     -15.7979      1.00000
      4     -15.6726      1.00000
      5     -15.4624      1.00000
      6     -15.2844      1.00000
      7     -10.5317      1.00000
      8      -9.3109      1.00000
      9      -8.0148      1.00000
     10      -7.5392      1.00000
     11      -7.4738      1.00000
     12      -6.9877      1.00000
     13      -6.8739      1.00000
     14      -6.4048      1.00000
     15      -6.0037      1.00000
     16      -5.7837      1.00000
     17      -5.6874      1.00000
     18      -5.4724      1.00000
     19      -5.4442      1.00000
     20      -5.1465      1.00000
     21      -5.0606      1.00000
     22      -4.4695      1.00000
     23      -4.2959      1.00000
     24      -4.1549      1.00000
     25      -3.4547      1.00000
     26      -2.7028      1.00000
     27      -2.2772      1.08148
     28      -2.2449      1.04834
     29      -1.6925      0.00000
     30      -1.5118      0.00000
     31      -1.4631      0.00000
     32      -0.8246      0.00000
     33      -0.7885      0.00000
     34      -0.4025      0.00000
     35      -0.3032      0.00000
     36       0.3458      0.00000
     37       1.2434      0.00000
     38       1.3891      0.00000
     39       1.7065      0.00000
     40       2.3547      0.00000
     41       2.5432      0.00000
     42       2.6507      0.00000
     43       3.2424      0.00000
     44       3.4540      0.00000
     45       3.4936      0.00000
     46       3.5321      0.00000
     47       3.9570      0.00000
     48       4.2719      0.00000

[...]

 soft charge-density along one line, spin component           2
         0         1         2         3         4         5         6         7         8         9
 total charge-density along one line

------------------------ aborting loop because EDIFF is reached ----------------------------------------

[...]

  FORCE on cell =-STRESS in cart. coord.  units (eV):
  Direction    XX          YY          ZZ          XY          YZ          ZX
  Alpha Z    29.96682    29.96682    29.96682
  Ewald   10724.65426 10724.65169-12553.01279    -0.00143    -0.00049    -0.00087
  Hartree 11119.39634 11119.39677-10883.76584    -0.00013     0.00004     0.00006
  E(xc)    -223.34604  -223.34605  -222.93304     0.00002     0.00000     0.00001
  Local  -22735.15511-22735.15438 22511.30431     0.00112     0.00026     0.00048
  n-local   465.12865   464.52207   470.01749    -0.05856     1.57418     1.02466
  augment   -53.87135   -53.87125   -58.15225     0.00001     0.00007    -0.00000
  Kinetic   675.56287   671.47199   706.31708    -3.01060    -0.93299     0.40797
  Fock        0.00000     0.00000     0.00000     0.00000     0.00000     0.00000
  Total      -0.01295    -0.01295    -0.25821     0.00000     0.00000     0.00000
  in kB      -0.03293    -0.03293    -0.65677     0.00000     0.00000     0.00000

 VOLUME and BASIS-vectors are now :
  energy-cutoff  :      520.00
  volume of cell :      629.88
      direct lattice vectors                 reciprocal lattice vectors
     5.824291474  0.000000090 -0.000000000     0.171694705 -0.099127976  0.000000000
     2.912145393  5.043984226 -0.000000000    -0.000000003  0.198255975 -0.000000000
    -0.000000000  0.000000000 21.440912323     0.000000000 -0.000000000  0.046639806

  length of vectors
     5.824291474  5.824291172 21.440912323     0.198255964  0.198255975  0.046639806

 FORCES acting on ions
    electron-ion (+dipol)            ewald-force                    non-local-force                 convergence-correction
   -.105E-03 -.607E-04 0.562E+00   0.524E-03 0.309E-03 -.562E+00   -.870E-18 0.347E-17 0.938E-02   0.166E-06 0.898E-08 -.393E-02
   0.105E-03 0.607E-04 -.562E+00   -.524E-03 -.309E-03 0.562E+00   -.104E-16 0.173E-17 -.938E-02   -.166E-06 -.898E-08 0.393E-02
   -.321E-04 -.307E-04 0.247E+03   -.217E-03 -.122E-03 -.238E+03   0.269E-16 -.722E-17 -.878E+01   -.192E-06 -.115E-06 0.135E-01
   0.321E-04 0.307E-04 -.247E+03   0.217E-03 0.122E-03 0.238E+03   -.958E-17 0.246E-16 0.878E+01   0.192E-06 0.115E-06 -.135E-01
   -.814E+01 0.261E-01 -.513E+03   0.496E+01 -.198E-01 0.518E+03   0.317E+01 -.978E-02 -.406E+01   -.112E-01 -.128E-02 -.388E-01
   0.409E+01 0.704E+01 -.513E+03   -.250E+01 -.428E+01 0.518E+03   -.160E+01 -.274E+01 -.406E+01   0.448E-02 0.103E-01 -.388E-01
   0.405E+01 -.707E+01 -.513E+03   -.246E+01 0.430E+01 0.518E+03   -.158E+01 0.275E+01 -.406E+01   0.671E-02 -.905E-02 -.388E-01
   0.814E+01 -.261E-01 0.513E+03   -.496E+01 0.198E-01 -.518E+03   -.317E+01 0.978E-02 0.406E+01   0.112E-01 0.128E-02 0.388E-01
   -.409E+01 -.704E+01 0.513E+03   0.250E+01 0.428E+01 -.518E+03   0.160E+01 0.274E+01 0.406E+01   -.448E-02 -.103E-01 0.388E-01
   -.405E+01 0.707E+01 0.513E+03   0.246E+01 -.430E+01 -.518E+03   0.158E+01 -.275E+01 0.406E+01   -.671E-02 0.905E-02 0.388E-01
   -.909E-12 -.708E-10 0.202E-10   0.231E-13 0.888E-15 0.000E+00   -.222E-15 0.444E-15 -.178E-14   0.977E-13 -.501E-12 0.891E-11

 POSITION                                       TOTAL-FORCE (eV/Angst)
      2.91214      1.68133     10.71929         0.000000     -0.000000      0.005519
      5.82429      3.36266     10.72162         0.000000     -0.000000     -0.005519
     -0.00000      0.00000      9.60984        -0.000000     -0.000000      0.048335
     -0.00000      0.00000     11.83108         0.000000      0.000000     -0.048335
      3.70131      0.00088     12.22390        -0.024547     -0.003899      0.006426
      1.06226      1.83812     12.22390         0.008897      0.023207      0.006426
      3.97288      3.20499     12.22390         0.015650     -0.019309      0.006426
      5.03513      5.04310      9.21701         0.024547      0.003899     -0.006426
      7.67418      3.20586      9.21701        -0.008897     -0.023207     -0.006426
      4.76356      1.83900      9.21701        -0.015650      0.019309     -0.006426
    total drift:                               -0.000000     -0.000000      0.000000

  FREE ENERGIE OF THE ION-ELECTRON SYSTEM (eV)
  free  energy   TOTEN  =       -54.53115975 eV

  energy  without entropy=      -54.53115975  energy(sigma->0) =      -54.53115975

 d Force = 0.5678227E-03[-0.371E-03, 0.151E-02]  d Energy = 0.1227927E-02-0.660E-03
 d Force = 0.2541178E+01[ 0.254E+01, 0.255E+01]  d Ewald  = 0.5582614E+01-0.304E+01

 reached required accuracy - stopping structural energy minimisation

 total charge

[...]

 magnetization (x)

# of ion       s       p       d       tot
    1        0.017   0.020   2.055   2.092
    2        0.017   0.020   2.055   2.092
    3       -0.006   0.004   0.000  -0.003
    4       -0.006   0.004   0.000  -0.003
    5       -0.002  -0.044   0.000  -0.046
    6       -0.002  -0.025   0.000  -0.027
    7       -0.002  -0.039   0.000  -0.041
    8       -0.002  -0.044   0.000  -0.046
    9       -0.002  -0.025   0.000  -0.027
   10       -0.002  -0.039   0.000  -0.041
tot          0.010  -0.169   4.110   3.952

 BZINTS: Fermi energy: -2.116402; 58.000000 electrons
         Band energy:-456.540938;  BLOECHL correction: -0.020446