 vasp.5.4.4.18Apr17-6-g9f103f2a35 (build May  1 2020 15:48:39) complex
 executed on             LinuxGNU date 2020.07.02  22:10:12

 INCAR:
 POTCAR:   PAW_PBE Co 06Sep2000
 POTCAR:   PAW_PBE Ge 05Jan2001
 POTCAR:    PAW_PBE P 17Jan2003
 POTCAR:    PAW_PBE S 17Jan2003

 POTCAR:   PAW_PBE Co 06Sep2000
   VRHFIN =Co: d8 s1

   TITEL  = PAW_PBE Co 06Sep2000
   POMASS =   58.933; ZVAL   =    9.000    mass and valenz
   ENMAX  =  267.969; ENMIN  =  200.977 eV
   QCUT   =   -4.438; QGAM   =    8.876    optimization parameters

   Description
     l     E      TYP  RCUT    TYP  RCUT
     2   .000     23  2.300
     2   .000     23  2.300
     0   .000     23  2.300
     0   .000     23  2.300
     1  -.200     23  2.300
     1   .000     23  2.300
     3   .000      7   .000

 POTCAR:   PAW_PBE Ge 05Jan2001
   VRHFIN =Ge: s2p2

   TITEL  = PAW_PBE Ge 05Jan2001
   POMASS =   72.610; ZVAL   =    4.000    mass and valenz
   ENMAX  =  173.807; ENMIN  =  130.355 eV
   QCUT   =   -3.574; QGAM   =    7.148    optimization parameters

[...]

 POTCAR:    PAW_PBE P 17Jan2003
   VRHFIN =P : s2p3

[...]

 POTCAR:    PAW_PBE S 17Jan2003
   VRHFIN =S : s2p4

   TITEL  = PAW_PBE S 17Jan2003
   POMASS =   32.066; ZVAL   =    6.000    mass and valenz
   ENMAX  =  280.000; ENMIN  =  194.016 eV
   QCUT   =   -4.360; QGAM   =    8.721    optimization parameters

   Description
     l     E      TYP  RCUT    TYP  RCUT
     0   .000     23  1.900
     0   .000     23  1.900
     1   .000     23  1.900
     1   .000     23  1.900
     2   .000     23  1.900

 Optimization of the real space projectors (new method)

 maximal supplied QI-value         = 16.25
 optimisation between [QCUT,QGAM] = [ 11.54, 23.24] = [ 37.28,151.24] Ry
 Optimized for a Real-space Cutoff    1.53 Angstroem

   l    n(q)    QCUT    max X(q) W(low)/X(q) W(high)/X(q)  e(spline)
   2     10    11.539     4.599    0.83E-05    0.15E-04    0.45E-07
   2     10    11.539    18.158    0.10E-03    0.14E-03    0.24E-06
   0     11    11.539    15.740    0.19E-04    0.12E-05    0.17E-07
   0     11    11.539    47.662    0.48E-04    0.15E-04    0.31E-06
   1     10    11.539     5.777    0.11E-04    0.46E-05    0.25E-07
   1     10    11.539     8.007    0.46E-04    0.29E-04    0.11E-06
 Optimization of the real space projectors (new method)

[...]

   l    n(q)    QCUT    max X(q) W(low)/X(q) W(high)/X(q)  e(spline)
   0      8    11.508     6.651    0.19E-04    0.31E-05    0.49E-08
   0      8    11.508    90.285    0.95E-04    0.17E-03    0.51E-07
   1      8    11.508     4.328    0.14E-04    0.32E-04    0.22E-07
   1      8    11.508    54.583    0.16E-03    0.71E-04    0.89E-07
 Optimization of the real space projectors (new method)

 maximal supplied QI-value         = 19.84
 optimisation between [QCUT,QGAM] = [ 11.51, 23.22] = [ 37.09,150.92] Ry
 Optimized for a Real-space Cutoff    1.21 Angstroem

   l    n(q)    QCUT    max X(q) W(low)/X(q) W(high)/X(q)  e(spline)
   0      8    11.508     5.487    0.18E-04    0.22E-05    0.47E-08
   0      8    11.508    85.627    0.96E-04    0.18E-03    0.54E-07
   1      8    11.508     3.530    0.17E-04    0.28E-04    0.21E-07
   1      8    11.508    42.714    0.18E-03    0.63E-04    0.92E-07

 PAW_PBE Co 06Sep2000                   :
 PAW_PBE Ge 05Jan2001                   :
  PAW_PBE P 17Jan2003                   :
  PAW_PBE S 17Jan2003                   :

 POSCAR: Co2 Ge P S6
  positions in direct lattice
  velocities in cartesian coordinates
 exchange correlation table for  LEXCH =       42
   RHO(1)=    0.500       N(1)  =     2000
   RHO(2)=  100.500       N(2)  =     4000

 ion  position               nearest neighbor table
   1  0.333  0.333  0.500-   6 2.78   5 2.78   7 2.78   8 2.78  10 2.78   9 2.78
   2  0.667  0.667  0.500-   9 2.78   8 2.78  10 2.78   5 2.78   7 2.78   6 2.78
   3  0.000  0.000  0.448-   4 2.43   8 2.63  10 2.63   9 2.63
   4  0.000  0.000  0.552-   3 2.43   5 2.63   7 2.63   6 2.63
   5  0.626  0.000  0.574-   4 2.63   1 2.78   2 2.78
   6  0.000  0.373  0.574-   4 2.63   1 2.78   2 2.78
   7  0.373  0.626  0.574-   4 2.63   1 2.78   2 2.78
   8  0.374  1.000  0.426-   3 2.63   2 2.78   1 2.78
   9  1.000  0.627  0.426-   3 2.63   2 2.78   1 2.78
  10  0.627  0.374  0.426-   3 2.63   2 2.78   1 2.78

  LATTYP: Found a hexagonal cell.
 ALAT       =     6.9077769333
 C/A-ratio  =     3.3939410937

  Lattice vectors:

 A1 = (   3.4538890000,  -5.9823100000,   0.0000000000)
 A2 = (  -6.9077770000,   0.0000000000,   0.0000000000)
 A3 = (   0.0000000000,   0.0000000000, -23.4445880000)

Analysis of symmetry for initial positions (statically):
 Subroutine PRICEL returns:
 Original cell was already a primitive cell.

 Routine SETGRP: Setting up the symmetry group for a
 hexagonal supercell.

 Subroutine GETGRP returns: Found  3 space group operations
 (whereof  3 operations were pure point group operations)
 out of a pool of 24 trial point group operations.

The static configuration has the point symmetry C_3 .

Analysis of symmetry for dynamics (positions and initial velocities):
 Subroutine PRICEL returns:
 Original cell was already a primitive cell.

[...]

The dynamic configuration has the point symmetry C_3 .

Analysis of constrained symmetry for selective dynamics:
 Subroutine PRICEL returns:
 Original cell was already a primitive cell.

[...]

The constrained configuration has the point symmetry C_3 .

Analysis of structural, dynamic, and magnetic symmetry:
 Subroutine PRICEL returns:
 Original cell was already a primitive cell.

 Routine SETGRP: Setting up the symmetry group for a
 hexagonal supercell.

 Subroutine GETGRP returns: Found  3 space group operations
 (whereof  3 operations were pure point group operations)
 out of a pool of 24 trial point group operations.

The magnetic configuration has the point symmetry C_3 .

 Subroutine INISYM returns: Found  3 space group operations
 (whereof  3 operations are pure point group operations),
 and found     1 'primitive' translations

 KPOINTS: Kpoints from vasprun.xml

Automatic generation of k-mesh.
Space group operators:
 irot       det(A)        alpha          n_x          n_y          n_z        tau_x        tau_y        tau_z
    1     1.000000     0.000000     1.000000     0.000000     0.000000     0.000000     0.000000     0.000000
    2     1.000000   120.000000     0.000000     0.000000     1.000000     0.000000     0.000000     0.000000
    3     1.000000   120.000000     0.000000     0.000000    -1.000000     0.000000     0.000000     0.000000

 Subroutine IBZKPT returns following result:

 Found      5 irreducible k-points:

 Following reciprocal coordinates:
            Coordinates               Weight
  0.000000  0.000000  0.000000      1.000000
  0.200000  0.000000  0.000000      6.000000
  0.400000  0.000000  0.000000      6.000000
  0.400000  0.200000  0.000000      6.000000
 -0.400000  0.200000  0.000000      6.000000

 Following cartesian coordinates:
            Coordinates               Weight
  0.000000  0.000000  0.000000      1.000000
  0.028953 -0.016716  0.000000      6.000000
  0.057906 -0.033432  0.000000      6.000000
  0.057906  0.000000  0.000000      6.000000
 -0.057906  0.066864  0.000000      6.000000

 TETIRR: Found     15 inequivalent tetrahedra from      150

 SYSTEM =  unknown system
 POSCAR =  Co2 Ge P S6

 Startparameter for this run:
   NWRITE =      2    write-flag & timer
   PREC   = accura    normal or accurate (medium, high low for compatibility)
   ISTART =      0    job   : 0-new  1-cont  2-samecut
   ICHARG =      2    charge: 1-file 2-atom 10-const
   ISPIN  =      2    spin polarized calculation?
   LNONCOLLINEAR =      F non collinear calculations
   LSORBIT =      F    spin-orbit coupling
   INIWAV =      1    electr: 0-lowe 1-rand  2-diag
   LASPH  =      F    aspherical Exc in radial PAW
   METAGGA=      F    non-selfconsistent MetaGGA calc.

 Electronic Relaxation 1
   ENCUT  =  520.0 eV  38.22 Ry    6.18 a.u.  12.84 12.84 43.59*2*pi/ulx,y,z
   ENINI  =  520.0     initial cutoff
   ENAUG  =  477.8 eV  augmentation charge cutoff
   NELM   =    400;   NELMIN=  2; NELMDL=  0     # of ELM steps
   EDIFF  = 0.1E-03   stopping-criterion for ELM
   LREAL  =      T    real-space projection
   NLSPLINE    = F    spline interpolate recip. space projectors
   LCOMPAT=      F    compatible to vasp.4.4
   GGA_COMPAT  = T    GGA compatible to vasp.4.4-vasp.4.6
   LMAXPAW     = -100 max onsite density
   LMAXMIX     =    2 max onsite mixed and CHGCAR
   VOSKOWN=      0    Vosko Wilk Nusair interpolation
   ROPT   =   -0.00025  -0.00025  -0.00025  -0.00025
 Ionic relaxation
   EDIFFG = 0.1E-02   stopping-criterion for IOM
   NSW    =     99    number of steps for IOM
   NBLOCK =      1;   KBLOCK =     99    inner block; outer block
   IBRION =      2    ionic relax: 0-MD 1-quasi-New 2-CG
   NFREE  =      1    steps in history (QN), initial steepest desc. (CG)
   ISIF   =      3    stress and relaxation
   IWAVPR =     11    prediction:  0-non 1-charg 2-wave 3-comb
   ISYM   =      2    0-nonsym 1-usesym 2-fastsym
   LCORR  =      T    Harris-Foulkes like correction to forces

   POTIM  = 0.5000    time-step for ionic-motion
   TEIN   =    0.0    initial temperature
   TEBEG  =    0.0;   TEEND  =   0.0 temperature during run
   SMASS  =  -3.00    Nose mass-parameter (am)
   estimated Nose-frequenzy (Omega)   =  0.10E-29 period in steps =****** mass=  -0.109E-26a.u.
   SCALEE = 1.0000    scale energy and forces
   NPACO  =    256;   APACO  = 16.0  distance and # of slots for P.C.
   PSTRESS=    0.0 pullay stress

  Mass of Ions in am
   POMASS =  58.93 72.61 30.97 32.07
  Ionic Valenz
   ZVAL   =   9.00  4.00  5.00  6.00
  Atomic Wigner-Seitz radii
  virtual crystal weights
   VCA    =   1.00  1.00  1.00  1.00
   NELECT =      63.0000    total number of electrons
   NUPDOWN=      -1.0000    fix difference up-down

 DOS related values:
   EMIN   =  10.00;   EMAX   =-10.00  energy-range for DOS
   EFERMI =   0.00
   ISMEAR =    -5;   SIGMA  =   0.05  broadening in eV -4-tet -1-fermi 0-gaus

 Electronic relaxation 2 (details)
   IALGO  =     38    algorithm
   LDIAG  =      T    sub-space diagonalisation (order eigenvalues)
   LSUBROT=      F    optimize rotation matrix (better conditioning)
   TURBO    =      0    0=normal 1=particle mesh
   IRESTART =      0    0=no restart 2=restart with 2 vectors
   NREBOOT  =      0    no. of reboots
   NMIN     =      0    reboot dimension
   EREF     =   0.00    reference energy to select bands
   IMIX   =      4    mixing-type and parameters
     AMIX     =   0.40;   BMIX     =  1.00
     AMIX_MAG =   1.60;   BMIX_MAG =  1.00
     AMIN     =   0.01
     WC   =   100.;   INIMIX=   1;  MIXPRE=   1;  MAXMIX= -45

 Intra band minimization:
   WEIMIN = 0.0010     energy-eigenvalue tresh-hold
   EBREAK =  0.52E-06  absolut break condition
   DEPER  =   0.30     relativ break condition

   TIME   =   0.40     timestep for ELM

  volume/ion in A,a.u.               =      96.88       653.80
  Fermi-wavevector in a.u.,A,eV,Ry     =   0.658322  1.244048  5.896601  0.433388
  Thomas-Fermi vector in A             =   1.730108

 Write flags
[...]

  FREE ENERGIE OF THE ION-ELECTRON SYSTEM (eV)
  free  energy   TOTEN  =       -38.27207372 eV

  energy  without entropy=      -38.27207372  energy(sigma->0) =      -38.27207372

[...]

 d Force = 0.7711678E+00[ 0.414E+00, 0.113E+01]  d Energy = 0.7759317E+01-0.699E+01
 d Force =-0.1990208E+03[-0.228E+03,-0.170E+03]  d Ewald  =-0.2341341E+04 0.214E+04

 Steepest descent step on ions:
 trial-energy change:   -7.759317  1 .order   -6.249894   -9.363586   -3.136202
  (g-gl).g = 0.936E+01      g.g   = 0.936E+01  gl.gl    = 0.000E+00
 g(Force)  = 0.124E+01   g(Stress)= 0.812E+01 ortho     = 0.000E+00
 gamma     =   0.00000
 trial     =   1.00000
 opt step  =   1.18493  (harmonic =   1.50361) maximal distance =0.09146930
 next E    =   -46.330928   (d E  =  -8.05885)

[...]

 d Force = 0.3981967E-01[-0.118E-02, 0.808E-01]  d Energy = 0.3479039E+00-0.308E+00
 d Force =-0.4608078E+02[-0.475E+02,-0.447E+02]  d Ewald  =-0.5531967E+03 0.507E+03

[...]

 d Force = 0.2990527E+00[ 0.159E+00, 0.439E+00]  d Energy = 0.3332366E+00-0.342E-01
 d Force =-0.9021726E+02[-0.914E+02,-0.891E+02]  d Ewald  = 0.2011795E+03-0.291E+03

 Conjugate gradient step on ions:
 trial-energy change:   -0.333237  1 .order   -0.335335   -0.529302   -0.141369
  (g-gl).g = 0.484E+00      g.g   = 0.509E+00  gl.gl    = 0.936E+01
 g(Force)  = 0.426E+00   g(Stress)= 0.830E-01 ortho     = 0.249E-01
 gamma     =   0.05171
 trial     =   1.03699
 opt step  =   1.43262  (harmonic =   1.41488) maximal distance =0.10583976
 next E    =   -46.739382   (d E  =  -0.36009)

[...]

 d Force = 0.3734845E-01[ 0.646E-02, 0.682E-01]  d Energy = 0.4974866E-01-0.124E-01
 d Force = 0.3551996E+01[ 0.355E+01, 0.355E+01]  d Ewald  = 0.1927525E+03-0.189E+03

[...]

 d Force =-0.2605102E-02[-0.383E-02,-0.138E-02]  d Energy = 0.4870006E-02-0.748E-02
 d Force =-0.7596368E+00[-0.760E+00,-0.760E+00]  d Ewald  =-0.4090047E+02 0.401E+02

[...]

 Conjugate gradient step on ions:
 trial-energy change:   -0.018250  1 .order   -0.016767   -0.024312   -0.009222
  (g-gl).g = 0.345E-01      g.g   = 0.245E-01  gl.gl    = 0.120E+00
 g(Force)  = 0.155E-01   g(Stress)= 0.899E-02 ortho     =-0.597E-02
 gamma     =   0.28674
 trial     =   1.06815
 opt step  =   1.43265  (harmonic =   1.72098) maximal distance =0.02979384
 next E    =   -46.813877   (d E  =  -0.01988)

[...]

 d Force = 0.1317277E-01[ 0.141E-01, 0.123E-01]  d Energy =-0.5929826E-02 0.191E-01
 d Force =-0.5942325E+02[-0.594E+02,-0.594E+02]  d Ewald  =-0.2683611E+03 0.209E+03

[...]

 d Force =-0.8009911E-02[-0.756E-02,-0.846E-02]  d Energy = 0.3870504E-02-0.119E-01
 d Force = 0.3567403E+02[ 0.357E+02, 0.357E+02]  d Ewald  = 0.1644514E+03-0.129E+03

[...]

 Steepest descent step on ions:
 trial-energy change:   -0.012654  1 .order   -0.013795   -0.020074   -0.007517
  (g-gl).g = 0.226E-01      g.g   = 0.273E-01  gl.gl    = 0.619E-02
 g(Force)  = 0.197E-01   g(Stress)= 0.761E-02 ortho     =-0.224E-02
 gamma     =   0.00000
 trial     =   0.73601
 opt step  =   1.17663  (harmonic =   1.17663) maximal distance =0.00506030
 next E    =   -46.857583   (d E  =  -0.01605)

[...]

 d Force = 0.2419456E-02[ 0.862E-03, 0.398E-02]  d Energy = 0.1134253E-02 0.129E-02
 d Force =-0.6080691E+01[-0.606E+01,-0.610E+01]  d Ewald  = 0.3172164E+02-0.378E+02

[...]

 d Force = 0.1216122E-02[ 0.426E-03, 0.201E-02]  d Energy =-0.7782270E-03 0.199E-02
 d Force = 0.4079352E+01[ 0.409E+01, 0.406E+01]  d Ewald  = 0.3429138E+02-0.302E+02

[...]

 d Force = 0.2154445E-02[ 0.195E-02, 0.236E-02]  d Energy = 0.2711048E-02-0.557E-03
 d Force = 0.1466979E+01[ 0.146E+01, 0.147E+01]  d Ewald  =-0.5610210E+02 0.576E+02

[...]

 d Force = 0.3158439E-02[ 0.245E-02, 0.387E-02]  d Energy = 0.1086793E-02 0.207E-02
 d Force = 0.2882982E+01[ 0.286E+01, 0.290E+01]  d Ewald  =-0.1112242E+03 0.114E+03

[...]

 d Force =-0.9249819E-02[-0.361E-01, 0.176E-01]  d Energy =-0.7263986E-02-0.199E-02
 d Force =-0.6755642E+02[-0.670E+02,-0.681E+02]  d Ewald  =-0.3244068E+03 0.257E+03

[...]

 d Force = 0.8767398E-02[-0.231E-02, 0.198E-01]  d Energy =-0.9251386E-03 0.969E-02
 d Force =-0.1056334E+03[-0.104E+03,-0.107E+03]  d Ewald  =-0.1867552E+03 0.811E+02

[...]

 d Force =-0.1053848E-02[-0.331E-02, 0.120E-02]  d Energy = 0.6286928E-02-0.734E-02
 d Force = 0.4912526E+02[ 0.494E+02, 0.489E+02]  d Ewald  = 0.8813246E+02-0.390E+02

[...]

 d Force = 0.4610350E-02[-0.436E-01, 0.528E-01]  d Energy =-0.1117888E-01 0.158E-01
 d Force =-0.1859208E+03[-0.184E+03,-0.188E+03]  d Ewald  =-0.2445946E+03 0.587E+02

[...]

 d Force = 0.8777466E-02[-0.648E-02, 0.240E-01]  d Energy = 0.1610476E-01-0.733E-02
 d Force = 0.1008697E+03[ 0.102E+03, 0.100E+03]  d Ewald  = 0.1345402E+03-0.337E+02

[...]

 d Force =-0.1775288E-02[-0.287E-02,-0.679E-03]  d Energy = 0.4929861E-02-0.671E-02
 d Force =-0.2517207E+02[-0.252E+02,-0.251E+02]  d Ewald  =-0.1164106E+03 0.912E+02

[...]

 d Force =-0.1113884E-01[-0.165E-01,-0.575E-02]  d Energy =-0.1511813E-03-0.110E-01
 d Force =-0.5062945E+02[-0.507E+02,-0.505E+02]  d Ewald  =-0.2350644E+03 0.184E+03

[...]

 d Force = 0.6578522E-02[ 0.537E-02, 0.779E-02]  d Energy = 0.2107989E-02 0.447E-02
 d Force = 0.2385774E+02[ 0.238E+02, 0.239E+02]  d Ewald  = 0.1117227E+03-0.879E+02

[...]

 d Force =-0.8014300E-02[-0.720E-02,-0.883E-02]  d Energy = 0.5824276E-02-0.138E-01
 d Force = 0.3257198E+02[ 0.325E+02, 0.326E+02]  d Ewald  = 0.3412123E+03-0.309E+03

[...]

 Conjugate gradient step on ions:
 trial-energy change:   -0.015482  1 .order   -0.017653   -0.029781   -0.005525
  (g-gl).g = 0.313E-01      g.g   = 0.354E-01  gl.gl    = 0.558E-01
 g(Force)  = 0.924E-02   g(Stress)= 0.261E-01 ortho     =-0.535E-02
 gamma     =   0.56136
 trial     =   0.91938
 opt step  =   1.12882  (harmonic =   1.12882) maximal distance =0.03055169
 next E    =   -47.104415   (d E  =  -0.01828)

[...]

 d Force = 0.3639448E-02[ 0.366E-02, 0.362E-02]  d Energy =-0.7653558E-03 0.440E-02
 d Force =-0.5928779E+01[-0.591E+01,-0.595E+01]  d Ewald  =-0.8203588E+01 0.227E+01

[...]

 d Force = 0.1032353E-01[ 0.585E-02, 0.148E-01]  d Energy = 0.6131506E-02 0.419E-02
 d Force =-0.5063923E+02[-0.503E+02,-0.509E+02]  d Ewald  =-0.1471299E+02-0.359E+02

[...]

 d Force = 0.1010959E-02[-0.159E-02, 0.361E-02]  d Energy = 0.2789603E-02-0.178E-02
 d Force =-0.1605174E+02[-0.161E+02,-0.160E+02]  d Ewald  =-0.1399273E+03 0.124E+03

 Conjugate gradient step on ions:
 trial-energy change:   -0.002790  1 .order   -0.000861   -0.010119    0.008397
  (g-gl).g = 0.173E-02      g.g   = 0.843E-02  gl.gl    = 0.207E-01
 g(Force)  = 0.262E-02   g(Stress)= 0.581E-02 ortho     = 0.270E-02
 gamma     =   0.08347
 trial     =   1.16885
 opt step  =   0.79719  (harmonic =   0.63876) maximal distance =0.00398571
 next E    =   -47.124880   (d E  =  -0.00406)

[...]

 d Force = 0.2369033E-03[-0.330E-04, 0.507E-03]  d Energy = 0.1268736E-02-0.103E-02
 d Force = 0.5122080E+01[ 0.512E+01, 0.513E+01]  d Ewald  = 0.4469330E+02-0.396E+02

[...]

 d Force = 0.4129973E-03[-0.302E-03, 0.113E-02]  d Energy =-0.5996913E-03 0.101E-02
 d Force = 0.2270605E+01[ 0.227E+01, 0.227E+01]  d Ewald  = 0.1892928E+02-0.167E+02

 Steepest descent step on ions:
 trial-energy change:    0.000600  1 .order   -0.000990   -0.004393    0.002413
  (g-gl).g = 0.734E-02      g.g   = 0.401E-02  gl.gl    = 0.843E-02
 g(Force)  = 0.103E-02   g(Stress)= 0.299E-02 ortho     =-0.309E-02
 gamma     =   0.00000
 trial     =   1.09451
 opt step  =   0.36536  (harmonic =   0.70649) maximal distance =0.00133926
 next E    =   -47.125550   (d E  =  -0.00067)

[...]

 eigenvalue-minimisations  :  1344
 total energy-change (2. order) : 0.1205959E-02  (-0.4318237E-03)
 number of electron      62.9999997 magnetization       0.8978671
 augmentation part        4.1000896 magnetization       0.2931647

[...]

 Broyden mixing:
  rms(total) = 0.10458E-02    rms(broyden)= 0.10454E-02
  rms(prec ) = 0.14246E-02
  weight for this iteration     100.00

 eigenvalues of (default mixing * dielectric matrix)
  average eigenvalue GAMMA=   0.9459
  2.2183  1.1578  1.1578  0.7252  0.2463  0.1697

[...]

--------------------------------------- Iteration     61(   8)  ---------------------------------------

[...]

 eigenvalue-minimisations  :   704
 total energy-change (2. order) :-0.4060681E-04  (-0.4348231E-05)
 number of electron      62.9999997 magnetization       0.8983393
 augmentation part        4.1179950 magnetization       0.2976106

 Free energy of the ion-electron system (eV)
  alpha Z        PSCENC =        35.74961097
  Ewald energy   TEWEN  =     14062.46507223
  -Hartree energ DENC   =    -17247.93329063
  -exchange      EXHF   =         0.00000000
  -V(xc)+E(xc)   XCENC  =       100.96864646
  PAW double counting   =      2132.51190736    -2192.60564568
  entropy T*S    EENTRO =         0.00000000
  eigenvalues    EBANDS =      -521.42156962
  atomic energy  EATOM  =      3583.13977814
  Solvation  Ediel_sol  =         0.00000000
  free energy    TOTEN  =       -47.12549077 eV

  energy without entropy =      -47.12549077  energy(sigma->0) =      -47.12549077

 average (electrostatic) potential at core
  the test charge radii are     1.0452  1.1631  0.9587  0.9698
  (the norm of the test charge is              1.0000)
       1 -49.4250       2 -49.4248       3 -39.7800       4 -93.1853       5 -94.8646
       6 -94.8646       7 -94.8645       8 -94.7590       9 -94.7590      10 -94.7590

 E-fermi :  -2.8391     XC(G=0):  -3.3132     alpha+bet : -2.6295

[...]

 spin component 2

[...]

 k-point     5 :      -0.4000    0.2000    0.0000
  band No.  band energies     occupation
      1     -18.2388      1.00000
      2     -16.9292      1.00000
      3     -16.5449      1.00000
      4     -15.9342      1.00000
      5     -15.9297      1.00000
      6     -15.6498      1.00000
      7     -12.3513      1.00000
      8     -10.8788      1.00000
      9      -9.0293      1.00000
     10      -8.5531      1.00000
     11      -8.1658      1.00000
     12      -7.6548      1.00000
     13      -7.6257      1.00000
     14      -7.2765      1.00000
     15      -7.0873      1.00000
     16      -6.7132      1.00000
     17      -6.5354      1.00000
     18      -6.4296      1.00000
     19      -6.2268      1.00000
     20      -5.8807      1.00000
     21      -5.7403      1.00000
     22      -5.1135      1.00000
     23      -4.9670      1.00000
     24      -4.8673      1.00000
     25      -4.5518      1.00000
     26      -4.2774      1.00000
     27      -3.9583      1.00000
     28      -3.7738      1.00000
     29      -3.7455      1.00000
     30      -3.5815      1.00000
     31      -3.5541      1.00000
     32      -2.7330     -0.04855
     33      -2.0082      0.00000
     34      -1.9191      0.00000
     35      -1.6600      0.00000
     36      -1.3753      0.00000
     37      -0.3539      0.00000
     38       0.2485      0.00000
     39       0.2621      0.00000
     40       0.9272      0.00000
     41       1.1333      0.00000
     42       1.2265      0.00000
     43       2.6127      0.00000
     44       2.7370      0.00000
     45       2.8490      0.00000
     46       3.0696      0.00000
     47       3.2749      0.00000
     48       3.5748      0.00000

[...]

 soft charge-density along one line, spin component           2
         0         1         2         3         4         5         6         7         8         9
 total charge-density along one line

------------------------ aborting loop because EDIFF is reached ----------------------------------------

[...]

  FORCE on cell =-STRESS in cart. coord.  units (eV):
  Direction    XX          YY          ZZ          XY          YZ          ZX
  Alpha Z    35.74961    35.74961    35.74961
  Ewald   16265.82768 16265.82514-18469.19003    -0.00228    -0.00064    -0.00115
  Hartree 16823.87289 16823.87377-16398.28011    -0.00042     0.00006     0.00009
  E(xc)    -254.18767  -254.18771  -253.77981     0.00004     0.00001     0.00001
  Local  -34008.82659-34008.82624 33908.71544     0.00222     0.00039     0.00071
  n-local   445.11581   446.27605   451.96601     0.44522     0.49892     0.51596
  augment   -17.32704   -17.32694   -21.27593     0.00007    -0.00019     0.00020
  Kinetic   712.81223   705.39144   746.16856    -4.04837     0.62504     0.37580
  Fock        0.00000     0.00000     0.00000     0.00000     0.00000     0.00000
  Total      -0.09398    -0.09398     0.07374     0.00000    -0.00000    -0.00000
  in kB      -0.20449    -0.20449     0.16047     0.00000    -0.00000    -0.00000

 VOLUME and BASIS-vectors are now :
  energy-cutoff  :      520.00
  volume of cell :      736.30
      direct lattice vectors                 reciprocal lattice vectors
     5.866687444 -0.000000250  0.000000000     0.170453938 -0.098411631 -0.000000000
     2.933343672  5.080700043 -0.000000000     0.000000008  0.196823266  0.000000000
     0.000000000 -0.000000000 24.702333311    -0.000000000  0.000000000  0.040482006

  length of vectors
     5.866687444  5.866687142 24.702333311     0.196823256  0.196823266  0.040482006

 FORCES acting on ions
    electron-ion (+dipol)            ewald-force                    non-local-force                 convergence-correction
   -.118E-03 -.103E-03 -.668E+02   0.871E-03 0.516E-03 0.667E+02   -.137E-16 -.502E-18 0.155E+00   0.881E-07 -.482E-07 0.163E-02
   0.151E-03 0.775E-04 -.664E+02   -.796E-03 -.474E-03 0.663E+02   0.141E-16 -.521E-18 0.161E+00   -.771E-07 -.159E-06 0.143E-02
   -.372E-04 -.125E-04 0.410E+03   -.197E-03 -.112E-03 -.412E+03   0.210E-17 -.192E-16 0.163E+01   -.111E-08 -.159E-08 -.743E-02
   0.215E-04 0.265E-04 -.218E+03   0.191E-03 0.106E-03 0.210E+03   0.343E-16 -.806E-16 0.774E+01   0.330E-07 0.194E-07 0.641E-02
   -.150E+02 0.342E-01 -.599E+03   0.121E+02 -.348E-01 0.604E+03   0.286E+01 0.242E-02 -.505E+01   0.394E-03 -.217E-02 0.788E-02
   0.754E+01 0.130E+02 -.599E+03   -.610E+01 -.105E+02 0.604E+03   -.143E+01 -.248E+01 -.505E+01   -.208E-02 0.745E-03 0.788E-02
   0.748E+01 -.130E+02 -.599E+03   -.604E+01 0.105E+02 0.604E+03   -.143E+01 0.248E+01 -.505E+01   0.168E-02 0.143E-02 0.788E-02
   0.348E+02 -.428E-01 0.577E+03   -.323E+02 0.482E-01 -.581E+03   -.257E+01 0.713E-04 0.432E+01   0.161E-02 -.309E-02 -.604E-02
   -.175E+02 -.302E+02 0.577E+03   0.162E+02 0.279E+02 -.581E+03   0.128E+01 0.222E+01 0.432E+01   -.348E-02 0.147E-03 -.604E-02
   -.174E+02 0.302E+02 0.577E+03   0.161E+02 -.280E+02 -.581E+03   0.128E+01 -.222E+01 0.432E+01   0.187E-02 0.294E-02 -.604E-02
   0.647E-04 0.299E-04 -.741E+01   0.000E+00 -.711E-14 0.000E+00   0.888E-15 0.444E-15 0.748E+01   0.333E-07 -.202E-06 0.755E-02

 POSITION                                       TOTAL-FORCE (eV/Angst)
      2.93334      1.69356     12.80631         0.000000     -0.000000      0.044192
      5.86669      3.38713     12.80557         0.000000     -0.000000      0.050010
      0.00000     -0.00000     11.07198        -0.000000      0.000000     -0.179364
      0.00000     -0.00000     13.48995         0.000000     -0.000000      0.001925
      3.87955     -0.00008     14.17391        -0.023411      0.000424     -0.001040
      0.99350      1.72095     14.17391         0.012073      0.020063     -0.001040
      3.92698      3.35983     14.17391         0.011339     -0.020487     -0.001040
      2.42947      0.00006     11.44791         0.021654      0.001623      0.028786
      1.71866      2.97668     11.44791        -0.009421     -0.019564      0.028786
      4.65189      2.10395     11.44791        -0.012233      0.017941      0.028786
    total drift:                                0.000065      0.000030      0.074772

  FREE ENERGIE OF THE ION-ELECTRON SYSTEM (eV)
  free  energy   TOTEN  =       -47.12549077 eV

  energy  without entropy=      -47.12549077  energy(sigma->0) =      -47.12549077

 d Force =-0.1074713E-03[-0.415E-03, 0.200E-03]  d Energy = 0.1214305E-02-0.132E-02
 d Force =-0.1504372E+01[-0.151E+01,-0.150E+01]  d Ewald  =-0.1260419E+02 0.111E+02

 reached required accuracy - stopping structural energy minimisation

 total charge

[...]

 magnetization (x)

# of ion       s       p       d       tot
    1        0.000   0.002   0.213   0.215
    2        0.000   0.002   0.214   0.216
    3        0.048   0.018   0.004   0.070
    4       -0.000   0.007   0.000   0.006
    5        0.004   0.005   0.000   0.009
    6        0.003   0.001   0.000   0.004
    7        0.003   0.004   0.000   0.007
    8        0.006   0.073   0.000   0.079
    9        0.004   0.039   0.000   0.044
   10        0.005   0.067   0.000   0.072
tot          0.074   0.219   0.431   0.723

 BZINTS: Fermi energy: -2.839136; 63.000000 electrons
         Band energy:-521.421570;  BLOECHL correction: -0.008058