 vasp.5.4.4.18Apr17-6-g9f103f2a35 (build May  1 2020 15:48:39) complex
 executed on             LinuxGNU date 2020.06.28  04:52:57

 INCAR:
 POTCAR:   PAW_PBE Co 06Sep2000
 POTCAR:   PAW_PBE Si 05Jan2001
 POTCAR:    PAW_PBE P 17Jan2003
 POTCAR:   PAW_PBE Te 08Apr2002

 POTCAR:   PAW_PBE Co 06Sep2000
   VRHFIN =Co: d8 s1

   TITEL  = PAW_PBE Co 06Sep2000
   POMASS =   58.933; ZVAL   =    9.000    mass and valenz
   ENMAX  =  267.969; ENMIN  =  200.977 eV
   QCUT   =   -4.438; QGAM   =    8.876    optimization parameters

   Description
     l     E      TYP  RCUT    TYP  RCUT
     2   .000     23  2.300
     2   .000     23  2.300
     0   .000     23  2.300
     0   .000     23  2.300
     1  -.200     23  2.300
     1   .000     23  2.300
     3   .000      7   .000

 POTCAR:   PAW_PBE Si 05Jan2001
   VRHFIN =Si: s2p2

   TITEL  = PAW_PBE Si 05Jan2001
   POMASS =   28.085; ZVAL   =    4.000    mass and valenz
   ENMAX  =  245.345; ENMIN  =  184.009 eV
   QCUT   =   -4.246; QGAM   =    8.493    optimization parameters

[...]

 POTCAR:    PAW_PBE P 17Jan2003
   VRHFIN =P : s2p3

   TITEL  = PAW_PBE P 17Jan2003
   POMASS =   30.974; ZVAL   =    5.000    mass and valenz
   ENMAX  =  270.000; ENMIN  =  191.280 eV
   QCUT   =   -4.330; QGAM   =    8.659    optimization parameters

[...]

 POTCAR:   PAW_PBE Te 08Apr2002
   VRHFIN =Te: s2p4

   TITEL  = PAW_PBE Te 08Apr2002
   POMASS =  127.600; ZVAL   =    6.000    mass and valenz
   ENMAX  =  174.982; ENMIN  =  131.236 eV
   QCUT   =   -3.586; QGAM   =    7.172    optimization parameters

   Description
     l     E      TYP  RCUT    TYP  RCUT
     0   .000     23  2.300
     0   .000     23  2.300
     1   .000     23  2.300
     1   .000     23  2.300
     2   .000     23  2.300
     3  -.100     23  2.300

 Optimization of the real space projectors (new method)

 maximal supplied QI-value         = 16.25
 optimisation between [QCUT,QGAM] = [ 11.54, 23.24] = [ 37.28,151.24] Ry
 Optimized for a Real-space Cutoff    1.53 Angstroem

   l    n(q)    QCUT    max X(q) W(low)/X(q) W(high)/X(q)  e(spline)
   2     10    11.539     4.599    0.83E-05    0.15E-04    0.45E-07
   2     10    11.539    18.158    0.10E-03    0.14E-03    0.24E-06
   0     11    11.539    15.740    0.19E-04    0.12E-05    0.17E-07
   0     11    11.539    47.662    0.48E-04    0.15E-04    0.31E-06
   1     10    11.539     5.777    0.11E-04    0.46E-05    0.25E-07
   1     10    11.539     8.007    0.46E-04    0.29E-04    0.11E-06
 Optimization of the real space projectors (new method)

[...]

   l    n(q)    QCUT    max X(q) W(low)/X(q) W(high)/X(q)  e(spline)
   0      8    11.508     6.651    0.19E-04    0.31E-05    0.49E-08
   0      8    11.508    90.285    0.95E-04    0.17E-03    0.51E-07
   1      8    11.508     4.328    0.14E-04    0.32E-04    0.22E-07
   1      8    11.508    54.583    0.16E-03    0.71E-04    0.89E-07
 Optimization of the real space projectors (new method)

 maximal supplied QI-value         = 16.25
 optimisation between [QCUT,QGAM] = [ 11.54, 23.24] = [ 37.28,151.24] Ry
 Optimized for a Real-space Cutoff    1.36 Angstroem

   l    n(q)    QCUT    max X(q) W(low)/X(q) W(high)/X(q)  e(spline)
   0      9    11.539     7.090    0.13E-04    0.25E-05    0.51E-08
   0      9    11.539   101.654    0.53E-04    0.69E-04    0.12E-06
   1      9    11.539     5.276    0.20E-04    0.98E-05    0.24E-07
   1      9    11.539    81.891    0.24E-03    0.13E-04    0.15E-06
   2      9    11.539     5.599    0.30E-04    0.97E-04    0.54E-07

 PAW_PBE Co 06Sep2000                   :
 PAW_PBE Si 05Jan2001                   :
  PAW_PBE P 17Jan2003                   :
 PAW_PBE Te 08Apr2002                   :

 POSCAR: Co2 Si P Te6
  positions in direct lattice
  velocities in cartesian coordinates
 exchange correlation table for  LEXCH =       42
   RHO(1)=    0.500       N(1)  =     2000
   RHO(2)=  100.500       N(2)  =     4000

 ion  position               nearest neighbor table
   1  0.333  0.333  0.500-   6 2.78   5 2.78   7 2.78   8 2.78  10 2.78   9 2.78
   2  0.667  0.667  0.500-   9 2.78   8 2.78  10 2.78   5 2.78   7 2.78   6 2.78
   3  0.000  0.000  0.448-   4 2.43   8 2.63  10 2.63   9 2.63
   4  0.000  0.000  0.552-   3 2.43   5 2.63   7 2.63   6 2.63
   5  0.626  0.000  0.574-   4 2.63   1 2.78   2 2.78
   6  0.000  0.373  0.574-   4 2.63   1 2.78   2 2.78
   7  0.373  0.626  0.574-   4 2.63   1 2.78   2 2.78
   8  0.374  1.000  0.426-   3 2.63   2 2.78   1 2.78
   9  1.000  0.627  0.426-   3 2.63   2 2.78   1 2.78
  10  0.627  0.374  0.426-   3 2.63   2 2.78   1 2.78

  LATTYP: Found a hexagonal cell.
 ALAT       =     6.9077769333
 C/A-ratio  =     3.3939410937

  Lattice vectors:

 A1 = (   3.4538890000,  -5.9823100000,   0.0000000000)
 A2 = (  -6.9077770000,   0.0000000000,   0.0000000000)
 A3 = (   0.0000000000,   0.0000000000, -23.4445880000)

Analysis of symmetry for initial positions (statically):
 Subroutine PRICEL returns:
 Original cell was already a primitive cell.

 Routine SETGRP: Setting up the symmetry group for a
 hexagonal supercell.

 Subroutine GETGRP returns: Found  3 space group operations
 (whereof  3 operations were pure point group operations)
 out of a pool of 24 trial point group operations.

The static configuration has the point symmetry C_3 .

Analysis of symmetry for dynamics (positions and initial velocities):
 Subroutine PRICEL returns:
 Original cell was already a primitive cell.

[...]

The dynamic configuration has the point symmetry C_3 .

Analysis of constrained symmetry for selective dynamics:
 Subroutine PRICEL returns:
 Original cell was already a primitive cell.

[...]

The constrained configuration has the point symmetry C_3 .

Analysis of structural, dynamic, and magnetic symmetry:
 Subroutine PRICEL returns:
 Original cell was already a primitive cell.

 Routine SETGRP: Setting up the symmetry group for a
 hexagonal supercell.

 Subroutine GETGRP returns: Found  3 space group operations
 (whereof  3 operations were pure point group operations)
 out of a pool of 24 trial point group operations.

The magnetic configuration has the point symmetry C_3 .

 Subroutine INISYM returns: Found  3 space group operations
 (whereof  3 operations are pure point group operations),
 and found     1 'primitive' translations

 KPOINTS: Kpoints from vasprun.xml

Automatic generation of k-mesh.
Space group operators:
 irot       det(A)        alpha          n_x          n_y          n_z        tau_x        tau_y        tau_z
    1     1.000000     0.000000     1.000000     0.000000     0.000000     0.000000     0.000000     0.000000
    2     1.000000   120.000000     0.000000     0.000000     1.000000     0.000000     0.000000     0.000000
    3     1.000000   120.000000     0.000000     0.000000    -1.000000     0.000000     0.000000     0.000000

 Subroutine IBZKPT returns following result:

 Found      5 irreducible k-points:

 Following reciprocal coordinates:
            Coordinates               Weight
  0.000000  0.000000  0.000000      1.000000
  0.200000  0.000000  0.000000      6.000000
  0.400000  0.000000  0.000000      6.000000
  0.400000  0.200000  0.000000      6.000000
 -0.400000  0.200000  0.000000      6.000000

 Following cartesian coordinates:
            Coordinates               Weight
  0.000000  0.000000  0.000000      1.000000
  0.028953 -0.016716  0.000000      6.000000
  0.057906 -0.033432  0.000000      6.000000
  0.057906  0.000000  0.000000      6.000000
 -0.057906  0.066864  0.000000      6.000000

 TETIRR: Found     15 inequivalent tetrahedra from      150

 SYSTEM =  unknown system
 POSCAR =  Co2 Si P Te6

 Startparameter for this run:
   NWRITE =      2    write-flag & timer
   PREC   = accura    normal or accurate (medium, high low for compatibility)
   ISTART =      0    job   : 0-new  1-cont  2-samecut
   ICHARG =      2    charge: 1-file 2-atom 10-const
   ISPIN  =      2    spin polarized calculation?
   LNONCOLLINEAR =      F non collinear calculations
   LSORBIT =      F    spin-orbit coupling
   INIWAV =      1    electr: 0-lowe 1-rand  2-diag
   LASPH  =      F    aspherical Exc in radial PAW
   METAGGA=      F    non-selfconsistent MetaGGA calc.

 Electronic Relaxation 1
   ENCUT  =  520.0 eV  38.22 Ry    6.18 a.u.  12.84 12.84 43.59*2*pi/ulx,y,z
   ENINI  =  520.0     initial cutoff
   ENAUG  =  477.8 eV  augmentation charge cutoff
   NELM   =    400;   NELMIN=  2; NELMDL=  0     # of ELM steps
   EDIFF  = 0.1E-03   stopping-criterion for ELM
   LREAL  =      T    real-space projection
   NLSPLINE    = F    spline interpolate recip. space projectors
   LCOMPAT=      F    compatible to vasp.4.4
   GGA_COMPAT  = T    GGA compatible to vasp.4.4-vasp.4.6
   LMAXPAW     = -100 max onsite density
   LMAXMIX     =    2 max onsite mixed and CHGCAR
   VOSKOWN=      0    Vosko Wilk Nusair interpolation
   ROPT   =   -0.00025  -0.00025  -0.00025  -0.00025
 Ionic relaxation
   EDIFFG = 0.1E-02   stopping-criterion for IOM
   NSW    =     99    number of steps for IOM
   NBLOCK =      1;   KBLOCK =     99    inner block; outer block
   IBRION =      2    ionic relax: 0-MD 1-quasi-New 2-CG
   NFREE  =      1    steps in history (QN), initial steepest desc. (CG)
   ISIF   =      3    stress and relaxation
   IWAVPR =     11    prediction:  0-non 1-charg 2-wave 3-comb
   ISYM   =      2    0-nonsym 1-usesym 2-fastsym
   LCORR  =      T    Harris-Foulkes like correction to forces

   POTIM  = 0.5000    time-step for ionic-motion
   TEIN   =    0.0    initial temperature
   TEBEG  =    0.0;   TEEND  =   0.0 temperature during run
   SMASS  =  -3.00    Nose mass-parameter (am)
   estimated Nose-frequenzy (Omega)   =  0.10E-29 period in steps =****** mass=  -0.109E-26a.u.
   SCALEE = 1.0000    scale energy and forces
   NPACO  =    256;   APACO  = 16.0  distance and # of slots for P.C.
   PSTRESS=    0.0 pullay stress

  Mass of Ions in am
   POMASS =  58.93 28.09 30.97127.60
  Ionic Valenz
   ZVAL   =   9.00  4.00  5.00  6.00
  Atomic Wigner-Seitz radii
  virtual crystal weights
   VCA    =   1.00  1.00  1.00  1.00
   NELECT =      63.0000    total number of electrons
   NUPDOWN=      -1.0000    fix difference up-down

 DOS related values:
   EMIN   =  10.00;   EMAX   =-10.00  energy-range for DOS
   EFERMI =   0.00
   ISMEAR =    -5;   SIGMA  =   0.05  broadening in eV -4-tet -1-fermi 0-gaus

 Electronic relaxation 2 (details)
   IALGO  =     38    algorithm
   LDIAG  =      T    sub-space diagonalisation (order eigenvalues)
   LSUBROT=      F    optimize rotation matrix (better conditioning)
   TURBO    =      0    0=normal 1=particle mesh
   IRESTART =      0    0=no restart 2=restart with 2 vectors
   NREBOOT  =      0    no. of reboots
   NMIN     =      0    reboot dimension
   EREF     =   0.00    reference energy to select bands
   IMIX   =      4    mixing-type and parameters
     AMIX     =   0.40;   BMIX     =  1.00
     AMIX_MAG =   1.60;   BMIX_MAG =  1.00
     AMIN     =   0.01
     WC   =   100.;   INIMIX=   1;  MIXPRE=   1;  MAXMIX= -45

 Intra band minimization:
   WEIMIN = 0.0010     energy-eigenvalue tresh-hold
   EBREAK =  0.52E-06  absolut break condition
[...]
  n-local   679.02993   679.87300   693.82689     0.22933     0.42276     0.37124
  augment   -79.50080   -79.50059   -88.12468    -0.00004     0.00006     0.00005
  Kinetic   527.92219   520.89807   547.58746    -4.28660    -0.52819    -0.78229
  Fock        0.00000     0.00000     0.00000     0.00000     0.00000     0.00000
  Total     -10.83035   -10.83034   -13.82643     0.00000     0.00000     0.00000
  in kB     -17.91031   -17.91031   -22.86497     0.00000     0.00000     0.00000

 VOLUME and BASIS-vectors are now :
  energy-cutoff  :      520.00
  volume of cell :      968.84
      direct lattice vectors                 reciprocal lattice vectors
     6.907777000 -0.000000000  0.000000000     0.144764372 -0.083579742  0.000000000
     3.453888000  5.982310000  0.000000000     0.000000000  0.167159509 -0.000000000
     0.000000000  0.000000000 23.444588000    -0.000000000  0.000000000  0.042653767

[...]

 FORCES acting on ions
    electron-ion (+dipol)            ewald-force                    non-local-force                 convergence-correction
   0.170E-03 0.990E-04 0.902E+01   0.562E-03 0.337E-03 -.908E+01   0.694E-17 0.000E+00 0.221E+00   -.332E-06 -.239E-06 -.390E-01
   -.168E-03 -.892E-04 0.695E+01   -.562E-03 -.337E-03 -.698E+01   0.694E-17 -.139E-16 0.208E+00   0.465E-06 0.836E-07 -.491E-01
   -.479E-04 0.654E-05 0.191E+03   -.141E-03 -.779E-04 -.191E+03   -.139E-16 0.000E+00 0.768E+00   0.332E-07 0.555E-07 -.879E-02
   0.443E-04 0.196E-04 -.224E+03   0.176E-03 0.974E-04 0.224E+03   -.139E-16 0.000E+00 -.490E+00   0.871E-06 0.955E-06 -.254E-01
   -.135E+02 0.131E+00 -.405E+03   0.106E+02 -.146E+00 0.408E+03   0.264E+01 0.884E-02 -.504E+01   0.132E-01 0.527E-02 -.519E-01
   0.684E+01 0.116E+02 -.405E+03   -.542E+01 -.910E+01 0.408E+03   -.131E+01 -.229E+01 -.504E+01   -.202E-02 -.140E-01 -.519E-01
   0.662E+01 -.117E+02 -.405E+03   -.517E+01 0.925E+01 0.408E+03   -.133E+01 0.228E+01 -.504E+01   -.111E-01 0.877E-02 -.519E-01
   0.206E+02 -.181E+00 0.410E+03   -.172E+02 0.153E+00 -.414E+03   -.341E+01 0.328E-01 0.523E+01   -.292E-02 0.105E-01 -.145E-01
   -.105E+02 -.178E+02 0.410E+03   0.874E+01 0.148E+02 -.414E+03   0.173E+01 0.293E+01 0.523E+01   0.105E-01 -.272E-02 -.145E-01
   -.101E+02 0.179E+02 0.410E+03   0.847E+01 -.150E+02 -.414E+03   0.168E+01 -.297E+01 0.523E+01   -.763E-02 -.778E-02 -.145E-01
   0.530E-04 0.440E-06 -.984E+00   -.711E-14 0.178E-14 -.568E-13   -.666E-15 0.000E+00 0.130E+01   0.698E-05 0.417E-05 -.321E+00

 POSITION                                       TOTAL-FORCE (eV/Angst)
      3.45388      1.99410     11.72054        -0.000000      0.000000      0.130089
      6.90778      3.98821     11.72405        -0.000000      0.000000      0.127774
      0.00000      0.00000     10.50824        -0.000000      0.000000      0.788382
      0.00000      0.00000     12.93635        -0.000000      0.000000     -0.592993
      4.32819      0.00251     13.45138        -0.212983     -0.000372     -1.238989
      1.29198      2.23274     13.45138         0.106169      0.184634     -1.238989
      4.74152      3.74706     13.45138         0.106814     -0.184262     -1.238989
      6.03348      5.97980      9.99321        -0.007231      0.014355      1.087905
      9.06969      3.74957      9.99321         0.016047     -0.000916      1.087905
      5.62015      2.23525      9.99321        -0.008817     -0.013440      1.087905
    total drift:                                0.000060      0.000005     -0.009994

  FREE ENERGIE OF THE ION-ELECTRON SYSTEM (eV)
  free  energy   TOTEN  =       -36.60905388 eV

  energy  without entropy=      -36.60905388  energy(sigma->0) =      -36.60905388

[...]

 d Force = 0.7757205E-02[-0.298E-01, 0.453E-01]  d Energy = 0.9359594E+00-0.928E+00
 d Force =-0.1355986E+02[-0.142E+02,-0.129E+02]  d Ewald  =-0.2588846E+03 0.245E+03

 Steepest descent step on ions:
 trial-energy change:   -0.935959  1 .order   -0.794860   -2.102546    0.512826
  (g-gl).g = 0.210E+01      g.g   = 0.210E+01  gl.gl    = 0.000E+00
 g(Force)  = 0.486E-01   g(Stress)= 0.205E+01 ortho     = 0.000E+00
 gamma     =   0.00000
 trial     =   1.00000
 opt step  =   0.84607  (harmonic =   0.80392) maximal distance =0.03217930
 next E    =   -37.583967   (d E  =  -0.97491)

[...]

 d Force = 0.3650662E-02[ 0.233E-02, 0.497E-02]  d Energy = 0.3808819E-01-0.344E-01
 d Force = 0.2356816E+01[ 0.234E+01, 0.238E+01]  d Ewald  = 0.4049432E+02-0.381E+02

[...]

 d Force = 0.7293808E-03[ 0.513E-03, 0.946E-03]  d Energy =-0.6998102E-02 0.773E-02
 d Force = 0.9448764E+00[ 0.942E+00, 0.948E+00]  d Ewald  = 0.1646915E+02-0.155E+02

[...]

 d Force =-0.2706820E-03[-0.314E-03,-0.228E-03]  d Energy = 0.4729126E-02-0.500E-02
 d Force =-0.4185281E+00[-0.419E+00,-0.418E+00]  d Ewald  =-0.7349786E+01 0.693E+01

[...]

 Conjugate gradient step on ions:
 trial-energy change:   -0.082814  1 .order   -0.083404   -0.103740   -0.063068
  (g-gl).g = 0.459E-01      g.g   = 0.106E+00  gl.gl    = 0.210E+01
 g(Force)  = 0.617E-02   g(Stress)= 0.100E+00 ortho     = 0.606E-01
 gamma     =   0.02184
 trial     =   0.96226
 opt step  =   3.01388  (harmonic =   2.45441) maximal distance =0.04341345
 next E    =   -37.725159   (d E  =  -0.14433)

[...]

 d Force =-0.1693897E-01[-0.149E-01,-0.190E-01]  d Energy = 0.1953908E-01-0.365E-01
 d Force =-0.3457857E+01[-0.346E+01,-0.345E+01]  d Ewald  =-0.2968031E+03 0.293E+03

[...]

 d Force = 0.4732291E-01[ 0.159E-01, 0.787E-01]  d Energy = 0.3969876E-01 0.762E-02
 d Force = 0.1918270E+02[ 0.193E+02, 0.191E+02]  d Ewald  = 0.1878934E+03-0.169E+03

 Conjugate gradient step on ions:
 trial-energy change:   -0.039699  1 .order   -0.046151   -0.072955   -0.019348
  (g-gl).g = 0.853E-01      g.g   = 0.858E-01  gl.gl    = 0.106E+00
 g(Force)  = 0.799E-01   g(Stress)= 0.597E-02 ortho     = 0.484E-03
 gamma     =   0.80126
 trial     =   0.84611
 opt step  =   1.15150  (harmonic =   1.15150) maximal distance =0.06959627
 next E    =   -37.751910   (d E  =  -0.04964)

[...]

 d Force = 0.2297155E-02[-0.119E-02, 0.579E-02]  d Energy = 0.4793790E-02-0.250E-02
 d Force = 0.7021541E+01[ 0.703E+01, 0.701E+01]  d Ewald  = 0.6756791E+02-0.605E+02

[...]

 d Force = 0.8161640E-03[ 0.766E-03, 0.866E-03]  d Energy = 0.1302683E-02-0.487E-03
 d Force = 0.2423329E+00[ 0.247E+00, 0.238E+00]  d Ewald  =-0.2847020E+02 0.287E+02

 Conjugate gradient step on ions:
 trial-energy change:   -0.001303  1 .order   -0.001577   -0.004226    0.001072
  (g-gl).g = 0.442E-02      g.g   = 0.486E-02  gl.gl    = 0.858E-01
 g(Force)  = 0.116E-02   g(Stress)= 0.370E-02 ortho     =-0.385E-02
 gamma     =   0.05155
 trial     =   0.90719
 opt step  =   0.72361  (harmonic =   0.72361) maximal distance =0.00359010
 next E    =   -37.748445   (d E  =  -0.00169)

[...]

 d Force =-0.1574878E-03[-0.160E-03,-0.155E-03]  d Energy = 0.1093911E-03-0.267E-03
 d Force =-0.4981017E-01[-0.496E-01,-0.500E-01]  d Ewald  = 0.5776767E+01-0.583E+01

[...]

 d Force = 0.6125264E-03[ 0.598E-03, 0.627E-03]  d Energy =-0.3207599E-03 0.933E-03
 d Force =-0.4643006E+00[-0.462E+00,-0.467E+00]  d Ewald  = 0.8181176E+01-0.865E+01

 Steepest descent step on ions:
 trial-energy change:    0.000321  1 .order   -0.001517   -0.004247    0.001212
  (g-gl).g = 0.883E-02      g.g   = 0.600E-02  gl.gl    = 0.486E-02
 g(Force)  = 0.884E-03   g(Stress)= 0.512E-02 ortho     =-0.334E-02
 gamma     =   0.00000
 trial     =   0.70762
 opt step  =   0.55046  (harmonic =   0.55046) maximal distance =0.00319476
 next E    =   -37.749824   (d E  =  -0.00165)

[...]

 eigenvalue-minimisations  :  1136
 total energy-change (2. order) : 0.7489443E-04  (-0.1481506E-03)
 number of electron      63.0000007 magnetization       0.6888646
 augmentation part        2.5200053 magnetization       0.2757721

 Broyden mixing:
  rms(total) = 0.56974E-02    rms(broyden)= 0.56973E-02
  rms(prec ) = 0.63663E-02
  weight for this iteration     100.00

 eigenvalues of (default mixing * dielectric matrix)
  average eigenvalue GAMMA=   0.9199
  1.9725  0.2073  0.5801

[...]

--------------------------------------- Iteration     14(   5)  ---------------------------------------

[...]

 eigenvalue-minimisations  :   752
 total energy-change (2. order) :-0.3858642E-04  (-0.7826258E-05)
 number of electron      63.0000007 magnetization       0.6888646
 augmentation part        2.5200053 magnetization       0.2757721

 Free energy of the ion-electron system (eV)
  alpha Z        PSCENC =        19.48209856
  Ewald energy   TEWEN  =      6939.88103018
  -Hartree energ DENC   =     -9887.82792626
  -exchange      EXHF   =         0.00000000
  -V(xc)+E(xc)   XCENC  =      -148.77165695
  PAW double counting   =      2107.67067025    -1944.65200241
  entropy T*S    EENTRO =         0.00000000
  eigenvalues    EBANDS =      -383.75950156
  atomic energy  EATOM  =      3260.22896581
  Solvation  Ediel_sol  =         0.00000000
  free energy    TOTEN  =       -37.74832238 eV

  energy without entropy =      -37.74832238  energy(sigma->0) =      -37.74832238

 average (electrostatic) potential at core
  the test charge radii are     1.0452  0.9892  0.9587  1.1897
  (the norm of the test charge is              1.0000)
       1 -47.5556       2 -47.5638       3 -91.7253       4 -91.1247       5 -96.3443
       6 -96.3443       7 -96.3442       8 -96.1158       9 -96.1158      10 -96.1158

 E-fermi :  -1.1683     XC(G=0):  -3.7349     alpha+bet : -3.5275

[...]

 spin component 2

[...]

 k-point     5 :      -0.4000    0.2000    0.0000
  band No.  band energies     occupation
      1     -14.7066      1.00000
      2     -13.6555      1.00000
      3     -13.2891      1.00000
      4     -13.0324      1.00000
      5     -12.7141      1.00000
      6     -12.5776      1.00000
      7     -10.7640      1.00000
      8      -8.5445      1.00000
      9      -6.8275      1.00000
     10      -6.3835      1.00000
     11      -6.1170      1.00000
     12      -5.5246      1.00000
     13      -5.4916      1.00000
     14      -4.9735      1.00000
     15      -4.7875      1.00000
     16      -4.5449      1.00000
     17      -4.5287      1.00000
     18      -4.1719      1.00000
     19      -4.1037      1.00000
     20      -3.8893      1.00000
     21      -3.8768      1.00000
     22      -3.4355      1.00000
     23      -3.0726      1.00000
     24      -2.8578      1.00000
     25      -2.6580      1.00000
     26      -2.6450      1.00000
     27      -2.3651      1.00000
     28      -2.2801      1.00000
     29      -2.1700      1.00000
     30      -2.1582      1.00000
     31      -2.1325      1.00000
     32      -1.0446     -0.01410
     33      -0.7826      0.00000
     34      -0.7200      0.00000
     35      -0.3441      0.00000
     36      -0.1145      0.00000
     37       0.3836      0.00000
     38       0.4998      0.00000
     39       1.0201      0.00000
     40       1.5219      0.00000
     41       1.8568      0.00000
     42       2.0309      0.00000
     43       3.0664      0.00000
     44       3.2396      0.00000
     45       3.2819      0.00000
     46       3.3742      0.00000
     47       3.4375      0.00000
     48       3.9798      0.00000

[...]

 soft charge-density along one line, spin component           2
         0         1         2         3         4         5         6         7         8         9
 total charge-density along one line

------------------------ aborting loop because EDIFF is reached ----------------------------------------

[...]

  FORCE on cell =-STRESS in cart. coord.  units (eV):
  Direction    XX          YY          ZZ          XY          YZ          ZX
  Alpha Z    19.48210    19.48210    19.48210
  Ewald    8882.86771  8882.86498-10825.85588    -0.00202    -0.00060    -0.00108
  Hartree  9451.85292  9451.85385 -9016.91765    -0.00025     0.00009     0.00014
  E(xc)    -266.24873  -266.24872  -266.21251     0.00003     0.00002     0.00002
  Local  -19231.13380-19231.13294 18907.68954     0.00195     0.00039     0.00073
  n-local   688.85669   689.39469   703.06252    -0.03455     0.76059     0.68819
  augment   -79.88932   -79.88917   -87.56160     0.00006     0.00003     0.00005
  Kinetic   537.21594   529.44528   566.00183    -4.40483     0.25021    -0.54867
  Fock        0.00000     0.00000     0.00000     0.00000     0.00000     0.00000
  Total      -0.61320    -0.61320    -0.31165     0.00000     0.00000    -0.00000
  in kB      -1.19860    -1.19860    -0.60916     0.00000     0.00000    -0.00000

 VOLUME and BASIS-vectors are now :
  energy-cutoff  :      520.00
  volume of cell :      819.67
      direct lattice vectors                 reciprocal lattice vectors
     6.734794062 -0.000000050  0.000000000     0.148482639 -0.085726486 -0.000000000
     3.367396614  5.832502386  0.000000000     0.000000001  0.171452994 -0.000000000
     0.000000000  0.000000000 20.867075942    -0.000000000 -0.000000000  0.047922383

  length of vectors
     6.734794062  6.734793541 20.867075942     0.171452981  0.171452994  0.047922383

 FORCES acting on ions
    electron-ion (+dipol)            ewald-force                    non-local-force                 convergence-correction
   0.845E-04 0.333E-04 0.807E+01   0.660E-03 0.395E-03 -.823E+01   0.275E-19 0.817E-20 0.141E+00   0.379E-06 0.472E-06 -.319E-02
   -.965E-04 -.441E-04 0.559E+01   -.644E-03 -.386E-03 -.571E+01   0.186E-19 0.278E-16 0.958E-01   0.633E-07 0.241E-06 -.763E-03
   -.474E-04 -.110E-04 0.205E+03   -.148E-03 -.821E-04 -.204E+03   0.275E-16 -.139E-16 -.123E+01   0.534E-07 0.159E-07 0.431E-02
   0.399E-04 0.164E-04 -.246E+03   0.192E-03 0.106E-03 0.246E+03   0.278E-16 0.221E-19 0.383E+00   0.491E-07 0.281E-07 -.102E-01
   -.199E+02 0.910E-01 -.412E+03   0.166E+02 -.143E+00 0.416E+03   0.264E+01 -.132E-01 -.446E+01   -.112E-01 0.551E-01 -.237E-01
   0.100E+02 0.172E+02 -.412E+03   -.841E+01 -.143E+02 0.416E+03   -.133E+01 -.228E+01 -.446E+01   0.533E-01 -.178E-01 -.237E-01
   0.985E+01 -.173E+02 -.412E+03   -.817E+01 0.144E+02 0.416E+03   -.131E+01 0.230E+01 -.446E+01   -.421E-01 -.372E-01 -.237E-01
   0.265E+02 -.207E+00 0.421E+03   -.228E+02 0.145E+00 -.426E+03   -.346E+01 0.169E-01 0.467E+01   0.837E-02 0.540E-01 0.225E-01
   -.134E+02 -.228E+02 0.421E+03   0.115E+02 0.196E+02 -.426E+03   0.175E+01 0.299E+01 0.467E+01   0.426E-01 -.342E-01 0.225E-01
   -.131E+02 0.230E+02 0.421E+03   0.113E+02 -.198E+02 -.426E+03   0.172E+01 -.301E+01 0.467E+01   -.510E-01 -.198E-01 0.225E-01
   0.906E-04 -.212E-05 -.132E-01   -.178E-14 -.711E-14 -.114E-12   -.222E-15 0.000E+00 0.190E-01   0.689E-06 0.847E-06 -.135E-01

 POSITION                                       TOTAL-FORCE (eV/Angst)
      3.36739      1.94417     10.45139        -0.000000      0.000000     -0.025698
      6.73480      3.88834     10.45522        -0.000000      0.000000     -0.024020
      0.00000      0.00000      9.33216        -0.000000      0.000000      0.123709
      0.00000      0.00000     11.59681        -0.000000      0.000000      0.031809
      4.21980      0.00245     11.97253        -0.655634     -0.009542     -0.004100
      1.25962      2.17683     11.97253         0.319554      0.572566     -0.004100
      4.62278      3.65323     11.97253         0.336080     -0.563025     -0.004100
      5.88239      5.83005      8.89455         0.265092      0.009083     -0.031167
      8.84257      3.65567      8.89455        -0.124680     -0.234117     -0.031167
      5.47941      2.17927      8.89455        -0.140412      0.225035     -0.031167
    total drift:                                0.000091     -0.000001     -0.007744

  FREE ENERGIE OF THE ION-ELECTRON SYSTEM (eV)
  free  energy   TOTEN  =       -37.74832238 eV

  energy  without entropy=      -37.74832238  energy(sigma->0) =      -37.74832238

 d Force =-0.1337203E-03[-0.135E-03,-0.132E-03]  d Energy = 0.4712042E-03-0.605E-03
 d Force = 0.1024114E+00[ 0.103E+00, 0.102E+00]  d Ewald  =-0.1816304E+01 0.192E+01

 reached required accuracy - stopping structural energy minimisation

 total charge

[...]

 magnetization (x)

# of ion       s       p       d       tot
    1        0.000   0.001   0.193   0.195
    2        0.000   0.001   0.194   0.195
    3        0.003   0.004   0.000   0.007
    4        0.018   0.007   0.000   0.025
    5        0.005   0.031   0.000   0.037
    6        0.003   0.023   0.001   0.027
    7        0.004   0.029   0.001   0.034
    8        0.003   0.001   0.000   0.005
    9        0.003   0.010   0.000   0.014
   10        0.003   0.001   0.000   0.004
tot          0.044   0.109   0.390   0.543

 BZINTS: Fermi energy: -1.168311; 63.000000 electrons
         Band energy:-383.759502;  BLOECHL correction: -0.023729