 vasp.5.4.4.18Apr17-6-g9f103f2a35 (build May  1 2020 15:48:39) complex
 executed on             LinuxGNU date 2020.06.30  22:57:05

 INCAR:
 POTCAR:   PAW_PBE Cr 06Sep2000
 POTCAR:    PAW_PBE P 17Jan2003
 POTCAR:   PAW_PBE Te 08Apr2002

 POTCAR:   PAW_PBE Cr 06Sep2000
   VRHFIN =Cr : d5 s1

   TITEL  = PAW_PBE Cr 06Sep2000
   POMASS =   51.996; ZVAL   =    6.000    mass and valenz
   ENMAX  =  227.082; ENMIN  =  170.311 eV
   QCUT   =   -4.085; QGAM   =    8.171    optimization parameters

   Description
     l     E      TYP  RCUT    TYP  RCUT
     2   .000     23  2.500
     2   .000     23  2.500
     0   .000     23  2.500
     0   .000     23  2.500
     1  -.400     23  2.500
     1  2.000     23  2.500
     3   .000      7   .000

 POTCAR:    PAW_PBE P 17Jan2003
   VRHFIN =P : s2p3

   TITEL  = PAW_PBE P 17Jan2003
   POMASS =   30.974; ZVAL   =    5.000    mass and valenz
   ENMAX  =  270.000; ENMIN  =  191.280 eV
   QCUT   =   -4.330; QGAM   =    8.659    optimization parameters

[...]

 POTCAR:   PAW_PBE Te 08Apr2002
   VRHFIN =Te: s2p4

   TITEL  = PAW_PBE Te 08Apr2002
   POMASS =  127.600; ZVAL   =    6.000    mass and valenz
   ENMAX  =  174.982; ENMIN  =  131.236 eV
   QCUT   =   -3.586; QGAM   =    7.172    optimization parameters

   Description
     l     E      TYP  RCUT    TYP  RCUT
     0   .000     23  2.300
     0   .000     23  2.300
     1   .000     23  2.300
     1   .000     23  2.300
     2   .000     23  2.300
     3  -.100     23  2.300

 Optimization of the real space projectors (new method)

 maximal supplied QI-value         = 15.12
 optimisation between [QCUT,QGAM] = [ 11.64, 23.28] = [ 37.95,151.78] Ry
 Optimized for a Real-space Cutoff    1.49 Angstroem

   l    n(q)    QCUT    max X(q) W(low)/X(q) W(high)/X(q)  e(spline)
   2      9    11.641     4.777    0.25E-04    0.21E-05    0.63E-07
   2      9    11.641    31.132    0.13E-03    0.22E-03    0.64E-06
   0     10    11.641    20.416    0.11E-04    0.74E-05    0.19E-07
   0     10    11.641    45.408    0.10E-03    0.85E-04    0.30E-06
   1     10    11.641     7.848    0.22E-04    0.23E-04    0.56E-07
   1     10    11.641     9.895    0.85E-04    0.54E-04    0.16E-06
 Optimization of the real space projectors (new method)

[...]

   l    n(q)    QCUT    max X(q) W(low)/X(q) W(high)/X(q)  e(spline)
   0      8    11.508     6.651    0.19E-04    0.31E-05    0.49E-08
   0      8    11.508    90.285    0.95E-04    0.17E-03    0.51E-07
   1      8    11.508     4.328    0.14E-04    0.32E-04    0.22E-07
   1      8    11.508    54.583    0.16E-03    0.71E-04    0.89E-07
 Optimization of the real space projectors (new method)

 maximal supplied QI-value         = 16.25
 optimisation between [QCUT,QGAM] = [ 11.54, 23.24] = [ 37.28,151.24] Ry
 Optimized for a Real-space Cutoff    1.36 Angstroem

   l    n(q)    QCUT    max X(q) W(low)/X(q) W(high)/X(q)  e(spline)
   0      9    11.539     7.090    0.13E-04    0.25E-05    0.51E-08
   0      9    11.539   101.654    0.53E-04    0.69E-04    0.12E-06
   1      9    11.539     5.276    0.20E-04    0.98E-05    0.24E-07
   1      9    11.539    81.891    0.24E-03    0.13E-04    0.15E-06
   2      9    11.539     5.599    0.30E-04    0.97E-04    0.54E-07

 PAW_PBE Cr 06Sep2000                   :
  PAW_PBE P 17Jan2003                   :
 PAW_PBE Te 08Apr2002                   :

 POSCAR: Cr2 P2 Te6
  positions in direct lattice
 exchange correlation table for  LEXCH =       42
   RHO(1)=    0.500       N(1)  =     2000
   RHO(2)=  100.500       N(2)  =     4000

 ion  position               nearest neighbor table
   1  0.333  0.333  0.500-   6 2.78   5 2.78   7 2.78   8 2.78  10 2.78   9 2.78
   2  0.667  0.667  0.500-   9 2.78   8 2.78  10 2.78   5 2.78   7 2.78   6 2.78
   3  0.000  0.000  0.448-   4 2.43   8 2.63  10 2.63   9 2.63
   4  0.000  0.000  0.552-   3 2.43   5 2.63   7 2.63   6 2.63
   5  0.626  0.000  0.574-   4 2.63   1 2.78   2 2.78
   6  0.000  0.373  0.574-   4 2.63   1 2.78   2 2.78
   7  0.373  0.626  0.574-   4 2.63   1 2.78   2 2.78
   8  0.374  1.000  0.426-   3 2.63   2 2.78   1 2.78
   9  1.000  0.627  0.426-   3 2.63   2 2.78   1 2.78
  10  0.627  0.374  0.426-   3 2.63   2 2.78   1 2.78

  LATTYP: Found a hexagonal cell.
 ALAT       =     6.9077769333
 C/A-ratio  =     3.3939410937

  Lattice vectors:

 A1 = (   3.4538890000,  -5.9823100000,   0.0000000000)
 A2 = (  -6.9077770000,   0.0000000000,   0.0000000000)
 A3 = (   0.0000000000,   0.0000000000, -23.4445880000)

Analysis of symmetry for initial positions (statically):
 Subroutine PRICEL returns:
 Original cell was already a primitive cell.

 Routine SETGRP: Setting up the symmetry group for a
 hexagonal supercell.

 Subroutine GETGRP returns: Found  6 space group operations
 (whereof  6 operations were pure point group operations)
 out of a pool of 24 trial point group operations.

The static configuration has the point symmetry S_6 .

Analysis of symmetry for dynamics (positions and initial velocities):
 Subroutine PRICEL returns:
 Original cell was already a primitive cell.

[...]

The dynamic configuration has the point symmetry S_6 .

Analysis of constrained symmetry for selective dynamics:
 Subroutine PRICEL returns:
 Original cell was already a primitive cell.

[...]

The constrained configuration has the point symmetry S_6 .

Analysis of structural, dynamic, and magnetic symmetry:
 Subroutine PRICEL returns:
 Original cell was already a primitive cell.

 Routine SETGRP: Setting up the symmetry group for a
 hexagonal supercell.

 Subroutine GETGRP returns: Found  6 space group operations
 (whereof  6 operations were pure point group operations)
 out of a pool of 24 trial point group operations.

The magnetic configuration has the point symmetry S_6 .

 Subroutine INISYM returns: Found  6 space group operations
 (whereof  6 operations are pure point group operations),
 and found     1 'primitive' translations

 KPOINTS: Kpoints from vasprun.xml

Automatic generation of k-mesh.
Space group operators:
 irot       det(A)        alpha          n_x          n_y          n_z        tau_x        tau_y        tau_z
    1     1.000000     0.000000     1.000000     0.000000     0.000000     0.000000     0.000000     0.000000
    2    -1.000000     0.000000     1.000000     0.000000     0.000000     0.000000     0.000000     0.000000
    3     1.000000   120.000000     0.000000     0.000000     1.000000     0.000000     0.000000     0.000000
    4    -1.000000   120.000000     0.000000     0.000000     1.000000     0.000000     0.000000     0.000000
    5     1.000000   120.000000     0.000000     0.000000    -1.000000     0.000000     0.000000     0.000000
    6    -1.000000   120.000000     0.000000     0.000000    -1.000000     0.000000     0.000000     0.000000

 Subroutine IBZKPT returns following result:

 Found      5 irreducible k-points:

 Following reciprocal coordinates:
            Coordinates               Weight
  0.000000  0.000000  0.000000      1.000000
  0.200000  0.000000  0.000000      6.000000
  0.400000  0.000000  0.000000      6.000000
  0.400000  0.200000  0.000000      6.000000
 -0.400000  0.200000  0.000000      6.000000

 Following cartesian coordinates:
            Coordinates               Weight
  0.000000  0.000000  0.000000      1.000000
  0.028953 -0.016716  0.000000      6.000000
  0.057906 -0.033432  0.000000      6.000000
  0.057906  0.000000  0.000000      6.000000
 -0.057906  0.066864  0.000000      6.000000

 TETIRR: Found     15 inequivalent tetrahedra from      150

 SYSTEM =  unknown system
 POSCAR =  Cr2 P2 Te6

 Startparameter for this run:
   NWRITE =      2    write-flag & timer
   PREC   = accura    normal or accurate (medium, high low for compatibility)
   ISTART =      0    job   : 0-new  1-cont  2-samecut
   ICHARG =      2    charge: 1-file 2-atom 10-const
   ISPIN  =      2    spin polarized calculation?
   LNONCOLLINEAR =      F non collinear calculations
   LSORBIT =      F    spin-orbit coupling
   INIWAV =      1    electr: 0-lowe 1-rand  2-diag
   LASPH  =      F    aspherical Exc in radial PAW
   METAGGA=      F    non-selfconsistent MetaGGA calc.

 Electronic Relaxation 1
   ENCUT  =  520.0 eV  38.22 Ry    6.18 a.u.  12.84 12.84 43.59*2*pi/ulx,y,z
   ENINI  =  520.0     initial cutoff
   ENAUG  =  402.1 eV  augmentation charge cutoff
   NELM   =    400;   NELMIN=  2; NELMDL=  0     # of ELM steps
   EDIFF  = 0.1E-03   stopping-criterion for ELM
   LREAL  =      T    real-space projection
   NLSPLINE    = F    spline interpolate recip. space projectors
   LCOMPAT=      F    compatible to vasp.4.4
   GGA_COMPAT  = T    GGA compatible to vasp.4.4-vasp.4.6
   LMAXPAW     = -100 max onsite density
   LMAXMIX     =    2 max onsite mixed and CHGCAR
   VOSKOWN=      0    Vosko Wilk Nusair interpolation
   ROPT   =   -0.00025  -0.00025  -0.00025
 Ionic relaxation
   EDIFFG = 0.1E-02   stopping-criterion for IOM
   NSW    =     99    number of steps for IOM
   NBLOCK =      1;   KBLOCK =     99    inner block; outer block
   IBRION =      2    ionic relax: 0-MD 1-quasi-New 2-CG
   NFREE  =      1    steps in history (QN), initial steepest desc. (CG)
   ISIF   =      3    stress and relaxation
   IWAVPR =     11    prediction:  0-non 1-charg 2-wave 3-comb
   ISYM   =      2    0-nonsym 1-usesym 2-fastsym
   LCORR  =      T    Harris-Foulkes like correction to forces

   POTIM  = 0.5000    time-step for ionic-motion
   TEIN   =    0.0    initial temperature
   TEBEG  =    0.0;   TEEND  =   0.0 temperature during run
   SMASS  =  -3.00    Nose mass-parameter (am)
   estimated Nose-frequenzy (Omega)   =  0.10E-29 period in steps =****** mass=  -0.109E-26a.u.
   SCALEE = 1.0000    scale energy and forces
   NPACO  =    256;   APACO  = 16.0  distance and # of slots for P.C.
   PSTRESS=    0.0 pullay stress

  Mass of Ions in am
   POMASS =  52.00 30.97127.60
  Ionic Valenz
   ZVAL   =   6.00  5.00  6.00
  Atomic Wigner-Seitz radii
  virtual crystal weights
   VCA    =   1.00  1.00  1.00
   NELECT =      58.0000    total number of electrons
   NUPDOWN=      -1.0000    fix difference up-down

 DOS related values:
   EMIN   =  10.00;   EMAX   =-10.00  energy-range for DOS
   EFERMI =   0.00
   ISMEAR =    -5;   SIGMA  =   0.05  broadening in eV -4-tet -1-fermi 0-gaus

 Electronic relaxation 2 (details)
   IALGO  =     38    algorithm
   LDIAG  =      T    sub-space diagonalisation (order eigenvalues)
   LSUBROT=      F    optimize rotation matrix (better conditioning)
   TURBO    =      0    0=normal 1=particle mesh
   IRESTART =      0    0=no restart 2=restart with 2 vectors
   NREBOOT  =      0    no. of reboots
   NMIN     =      0    reboot dimension
   EREF     =   0.00    reference energy to select bands
   IMIX   =      4    mixing-type and parameters
     AMIX     =   0.40;   BMIX     =  1.00
     AMIX_MAG =   1.60;   BMIX_MAG =  1.00
     AMIN     =   0.01
     WC   =   100.;   INIMIX=   1;  MIXPRE=   1;  MAXMIX= -45

 Intra band minimization:
   WEIMIN = 0.0010     energy-eigenvalue tresh-hold
   EBREAK =  0.63E-06  absolut break condition
   DEPER  =   0.30     relativ break condition

   TIME   =   0.40     timestep for ELM

[...]

 spin component 1

 k-point     1 :       0.0000    0.0000    0.0000
  band No.  band energies     occupation
      1     -15.3068      1.00000
      2     -14.1469      1.00000
      3     -12.7768      1.00000
      4     -12.7768      1.00000
      5     -12.7310      1.00000
      6     -12.7309      1.00000
      7     -12.3423      1.00000
      8     -10.6257      1.00000
      9      -7.0247      1.00000
     10      -7.0247      1.00000
     11      -6.8939      1.00000
     12      -6.6346      1.00000
     13      -6.4893      1.00000
     14      -6.4892      1.00000
     15      -5.3893      1.00000
     16      -4.9121      1.00000
     17      -4.4977      1.00000
     18      -4.4977      1.00000
     19      -4.2200      1.00000
     20      -4.2200      1.00000
     21      -3.8035      1.00000
     22      -3.8035      1.00000
     23      -3.6659      1.00000
     24      -3.2550      1.00000
     25      -3.2550      1.00000
     26      -3.2150      1.00000
     27      -3.1794      1.00000
     28      -3.1794      1.00000
     29      -3.1500      1.00000
     30      -2.4461      1.00000
     31      -2.4460      1.00000
     32      -1.4937     -0.26585
     33      -1.2382      0.00000
     34      -1.2381      0.00000
     35      -1.2245      0.00000
     36      -0.5156      0.00000
     37      -0.5156      0.00000
     38      -0.1073      0.00000
     39      -0.1073      0.00000
     40       0.3059      0.00000

[...]

 soft charge-density along one line, spin component           1
         0         1         2         3         4         5         6         7         8         9
 total charge-density along one line

[...]

------------------------ aborting loop because EDIFF is reached ----------------------------------------

 total charge

# of ion       s       p       d       tot
    1        0.329   0.397   4.255   4.981
    2        0.329   0.397   4.255   4.981
    3        1.126   1.260   0.000   2.387
    4        1.126   1.260   0.000   2.387
    5        1.404   1.944   0.035   3.384
    6        1.392   1.902   0.037   3.330
    7        1.401   1.931   0.036   3.368
    8        1.404   1.944   0.035   3.384
    9        1.392   1.902   0.037   3.330
   10        1.401   1.931   0.036   3.368
tot         11.304  14.868   8.726  34.898

 magnetization (x)

[...]

  FORCE on cell =-STRESS in cart. coord.  units (eV):
  Direction    XX          YY          ZZ          XY          YZ          ZX
  Alpha Z    12.19922    12.19922    12.19922
  Ewald    7992.72397  7992.72161 -9523.21780    -0.00104    -0.00041    -0.00075
  Hartree  8324.68358  8324.68396 -8179.50753     0.00002     0.00006     0.00009
  E(xc)    -229.38701  -229.38702  -229.76751     0.00004     0.00002     0.00001
  Local  -17227.85528-17227.85419 16756.50904     0.00075     0.00026     0.00048
  n-local   751.27747   751.50275   769.73747    -0.14448     0.41793     0.28809
  augment  -121.03252  -121.03241  -129.04401    -0.00001    -0.00003     0.00006
  Kinetic   498.51820   490.62901   518.13748    -5.47786    -0.50695    -0.55533
  Fock        0.00000     0.00000     0.00000     0.00000     0.00000     0.00000
  Total      -2.70472    -2.70472    -4.95362     0.00000     0.00000    -0.00000
  in kB      -4.47284    -4.47283    -8.19187     0.00000     0.00000    -0.00000

 VOLUME and BASIS-vectors are now :
  energy-cutoff  :      520.00
  volume of cell :      968.84
      direct lattice vectors                 reciprocal lattice vectors
     6.907777000 -0.000000000  0.000000000     0.144764372 -0.083579742  0.000000000
     3.453888000  5.982310000  0.000000000     0.000000000  0.167159509 -0.000000000
     0.000000000  0.000000000 23.444588000    -0.000000000  0.000000000  0.042653767

[...]

 FORCES acting on ions
    electron-ion (+dipol)            ewald-force                    non-local-force                 convergence-correction
   -.282E-04 -.189E-04 0.650E+00   0.323E-03 0.191E-03 -.652E+00   0.000E+00 -.347E-17 -.339E-03   -.102E-05 -.587E-06 -.153E-04
   0.282E-04 0.189E-04 -.650E+00   -.323E-03 -.191E-03 0.652E+00   0.000E+00 0.347E-17 0.339E-03   0.102E-05 0.587E-06 0.153E-04
   -.378E-04 -.226E-04 0.210E+03   -.176E-03 -.973E-04 -.213E+03   -.239E-17 -.867E-17 0.354E+01   0.255E-06 0.143E-06 -.117E-01
   0.378E-04 0.226E-04 -.210E+03   0.176E-03 0.973E-04 0.213E+03   -.111E-16 0.867E-17 -.354E+01   -.255E-06 -.143E-06 0.117E-01
   0.206E+01 0.145E+00 -.351E+03   -.488E+01 -.141E+00 0.355E+03   0.268E+01 -.110E-01 -.425E+01   0.947E-03 0.198E-04 0.270E-01
   -.907E+00 -.186E+01 -.351E+03   0.232E+01 0.430E+01 0.355E+03   -.135E+01 -.232E+01 -.425E+01   -.456E-03 -.830E-03 0.270E-01
   -.116E+01 0.171E+01 -.351E+03   0.256E+01 -.416E+01 0.355E+03   -.133E+01 0.233E+01 -.425E+01   -.491E-03 0.810E-03 0.270E-01
   -.206E+01 -.145E+00 0.351E+03   0.488E+01 0.141E+00 -.355E+03   -.268E+01 0.110E-01 0.425E+01   -.947E-03 -.198E-04 -.270E-01
   0.907E+00 0.186E+01 0.351E+03   -.232E+01 -.430E+01 -.355E+03   0.135E+01 0.232E+01 0.425E+01   0.456E-03 0.830E-03 -.270E-01
   0.116E+01 -.171E+01 0.351E+03   -.256E+01 0.416E+01 -.355E+03   0.133E+01 -.233E+01 0.425E+01   0.491E-03 -.810E-03 -.270E-01
   -.465E-09 -.380E-09 0.369E-09   0.888E-14 0.533E-14 0.568E-13   -.444E-15 0.000E+00 0.000E+00   0.900E-14 -.401E-14 0.325E-11

 POSITION                                       TOTAL-FORCE (eV/Angst)
      3.45388      1.99410     11.72054        -0.000000     -0.000000     -0.001742
      6.90778      3.98821     11.72405        -0.000000      0.000000      0.001742
      0.00000      0.00000     10.50824        -0.000000      0.000000      0.955319
      0.00000      0.00000     12.93635        -0.000000     -0.000000     -0.955319
      4.32819      0.00251     13.45138        -0.133816     -0.007040     -0.258682
      1.29198      2.23274     13.45138         0.060811      0.119408     -0.258682
      4.74152      3.74706     13.45138         0.073005     -0.112368     -0.258682
      6.03348      5.97980      9.99321         0.133816      0.007040      0.258682
      9.06969      3.74957      9.99321        -0.060811     -0.119408      0.258682
      5.62015      2.23525      9.99321        -0.073005      0.112368      0.258682
    total drift:                               -0.000000     -0.000000      0.000000

  FREE ENERGIE OF THE ION-ELECTRON SYSTEM (eV)
  free  energy   TOTEN  =       -42.95755476 eV

  energy  without entropy=      -42.95755476  energy(sigma->0) =      -42.95755476

[...]

 d Force = 0.5528862E-01[ 0.246E-01, 0.860E-01]  d Energy = 0.1424701E+00-0.872E-01
 d Force =-0.1936110E+02[-0.196E+02,-0.191E+02]  d Ewald  = 0.1021928E+01-0.204E+02

 Steepest descent step on ions:
 trial-energy change:   -0.142470  1 .order   -0.136302   -0.277019    0.004415
  (g-gl).g = 0.277E+00      g.g   = 0.277E+00  gl.gl    = 0.000E+00
 g(Force)  = 0.881E-01   g(Stress)= 0.189E+00 ortho     = 0.000E+00
 gamma     =   0.00000
 trial     =   1.00000
 opt step  =   0.98611  (harmonic =   0.98431) maximal distance =0.04544712
 next E    =   -43.100055   (d E  =  -0.14250)

[...]

 d Force =-0.3606629E-03[-0.371E-03,-0.350E-03]  d Energy = 0.1206467E-03-0.481E-03
 d Force = 0.2789082E+00[ 0.279E+00, 0.279E+00]  d Ewald  =-0.2994820E-01 0.309E+00

[...]

 d Force = 0.3669153E-02[-0.327E-02, 0.106E-01]  d Energy = 0.1008566E-01-0.642E-02
 d Force =-0.7944777E+01[-0.791E+01,-0.798E+01]  d Ewald  = 0.1080879E+03-0.116E+03

 Conjugate gradient step on ions:
 trial-energy change:   -0.010086  1 .order   -0.011083   -0.025279    0.003113
  (g-gl).g = 0.268E-01      g.g   = 0.255E-01  gl.gl    = 0.277E+00
 g(Force)  = 0.809E-02   g(Stress)= 0.174E-01 ortho     =-0.131E-02
 gamma     =   0.09670
 trial     =   0.99722
 opt step  =   0.86349  (harmonic =   0.88790) maximal distance =0.01591275
 next E    =   -43.110442   (d E  =  -0.01030)

[...]

 eigenvalue-minimisations  :   864
 total energy-change (2. order) :-0.1586979E-03  (-0.2870574E-04)
 number of electron      57.9999994 magnetization       5.8191109
 augmentation part       -2.9881969 magnetization       4.0184677

 Broyden mixing:
  rms(total) = 0.54985E-02    rms(broyden)= 0.54985E-02
  rms(prec ) = 0.61480E-02
  weight for this iteration     100.00

 eigenvalues of (default mixing * dielectric matrix)
  average eigenvalue GAMMA=   0.7639
  1.1733  0.3545

[...]

--------------------------------------- Iteration      5(   4)  ---------------------------------------

[...]

 eigenvalue-minimisations  :   768
 total energy-change (2. order) : 0.1432658E-04  (-0.1918337E-04)
 number of electron      57.9999994 magnetization       5.8191109
 augmentation part       -2.9881969 magnetization       4.0184677

 Free energy of the ion-electron system (eV)
  alpha Z        PSCENC =        12.74853298
  Ewald energy   TEWEN  =      6367.53566271
  -Hartree energ DENC   =     -8380.31583882
  -exchange      EXHF   =         0.00000000
  -V(xc)+E(xc)   XCENC  =      -205.50602412
  PAW double counting   =      1250.54795715     -952.76982168
  entropy T*S    EENTRO =         0.00000000
  eigenvalues    EBANDS =      -391.40806374
  atomic energy  EATOM  =      2256.05692028
  Solvation  Ediel_sol  =         0.00000000
  free energy    TOTEN  =       -43.11067525 eV

  energy without entropy =      -43.11067525  energy(sigma->0) =      -43.11067525

 average (electrostatic) potential at core
  the test charge radii are     1.1394  0.9587  1.1897
  (the norm of the test charge is              1.0000)
       1 -50.3715       2 -50.3715       3 -91.7116       4 -91.7116       5 -96.3722
       6 -96.3722       7 -96.3721       8 -96.3722       9 -96.3722      10 -96.3721

 E-fermi :  -1.4667     XC(G=0):  -3.2992     alpha+bet : -3.2050

[...]

 spin component 2

[...]

 k-point     5 :      -0.4000    0.2000    0.0000
  band No.  band energies     occupation
      1     -15.2608      1.00000
      2     -13.6458      1.00000
      3     -13.5786      1.00000
      4     -13.2568      1.00000
      5     -12.9796      1.00000
      6     -12.8388      1.00000
      7     -11.5784      1.00000
      8     -10.1023      1.00000
      9      -6.8789      1.00000
     10      -6.5666      1.00000
     11      -6.4972      1.00000
     12      -5.9979      1.00000
     13      -5.6132      1.00000
     14      -5.1846      1.00000
     15      -4.8052      1.00000
     16      -4.6074      1.00000
     17      -4.4361      1.00000
     18      -4.4084      1.00000
     19      -4.2633      1.00000
     20      -4.0402      1.00000
     21      -3.5935      1.00000
     22      -3.5614      1.00000
     23      -3.1730      1.00000
     24      -3.0245      1.00000
     25      -2.9746      1.00000
     26      -2.3683      1.00000
     27      -1.6882      0.98426
     28      -1.1652      0.00000
     29      -0.9281      0.00000
     30      -0.4822      0.00000
     31      -0.4084      0.00000
     32      -0.2775      0.00000
     33      -0.0685      0.00000
     34       0.0764      0.00000
     35       0.1680      0.00000
     36       0.5136      0.00000
     37       0.5972      0.00000
     38       0.6682      0.00000
     39       0.9941      0.00000
     40       1.0176      0.00000

[...]

 soft charge-density along one line, spin component           2
         0         1         2         3         4         5         6         7         8         9
 total charge-density along one line

------------------------ aborting loop because EDIFF is reached ----------------------------------------

[...]

  FORCE on cell =-STRESS in cart. coord.  units (eV):
  Direction    XX          YY          ZZ          XY          YZ          ZX
  Alpha Z    12.74853    12.74853    12.74853
  Ewald    7911.43158  7911.42916 -9455.32775    -0.00105    -0.00044    -0.00080
  Hartree  8237.11302  8237.11341 -8095.43605     0.00003     0.00006     0.00010
  E(xc)    -230.44209  -230.44206  -230.75049     0.00001     0.00002     0.00001
  Local  -17061.86006-17061.85893 16602.09523     0.00075     0.00027     0.00050
  n-local   753.41940   753.34323   774.18036    -0.25654     0.53766     0.42811
  augment  -121.00660  -121.00649  -129.32897     0.00001     0.00002     0.00002
  Kinetic   503.01337   494.64718   521.89178    -5.69730    -0.47045    -0.47589
  Fock        0.00000     0.00000     0.00000     0.00000     0.00000     0.00000
  Total       0.19559     0.19559     0.07265     0.00000     0.00000     0.00000
  in kB       0.33802     0.33802     0.12556     0.00000     0.00000     0.00000

 VOLUME and BASIS-vectors are now :
  energy-cutoff  :      520.00
  volume of cell :      927.09
      direct lattice vectors                 reciprocal lattice vectors
     6.849180625  0.000000019 -0.000000000     0.146002866 -0.084294787  0.000000000
     3.424589809  5.931564069 -0.000000000    -0.000000000  0.168589598 -0.000000000
    -0.000000000 -0.000000000 22.819911787     0.000000000 -0.000000000  0.043821379

  length of vectors
     6.849180625  6.849180073 22.819911787     0.168589584  0.168589598  0.043821379

 FORCES acting on ions
    electron-ion (+dipol)            ewald-force                    non-local-force                 convergence-correction
   -.420E-04 -.271E-04 0.672E+00   0.339E-03 0.200E-03 -.676E+00   0.347E-17 0.694E-17 -.140E-02   -.992E-08 -.616E-08 0.703E-04
   0.420E-04 0.271E-04 -.672E+00   -.339E-03 -.200E-03 0.676E+00   -.172E-22 -.117E-31 0.140E-02   0.992E-08 0.616E-08 -.703E-04
   -.339E-04 -.282E-04 0.213E+03   -.172E-03 -.952E-04 -.216E+03   0.829E-18 0.152E-16 0.316E+01   -.196E-08 -.477E-08 0.172E-01
   0.339E-04 0.282E-04 -.213E+03   0.172E-03 0.952E-04 0.216E+03   0.177E-17 -.147E-16 -.316E+01   0.196E-08 0.477E-08 -.172E-01
   0.136E+01 0.149E+00 -.358E+03   -.411E+01 -.146E+00 0.362E+03   0.262E+01 -.100E-01 -.403E+01   -.147E-02 0.128E-04 -.162E-01
   -.551E+00 -.125E+01 -.358E+03   0.193E+01 0.363E+01 0.362E+03   -.132E+01 -.227E+01 -.403E+01   0.748E-03 0.127E-02 -.162E-01
   -.810E+00 0.110E+01 -.358E+03   0.218E+01 -.348E+01 0.362E+03   -.130E+01 0.228E+01 -.403E+01   0.726E-03 -.128E-02 -.162E-01
   -.136E+01 -.149E+00 0.358E+03   0.411E+01 0.146E+00 -.362E+03   -.262E+01 0.100E-01 0.403E+01   0.147E-02 -.128E-04 0.162E-01
   0.551E+00 0.125E+01 0.358E+03   -.193E+01 -.363E+01 -.362E+03   0.132E+01 0.227E+01 0.403E+01   -.748E-03 -.127E-02 0.162E-01
   0.810E+00 -.110E+01 0.358E+03   -.218E+01 0.348E+01 -.362E+03   0.130E+01 -.228E+01 0.403E+01   -.726E-03 0.128E-02 0.162E-01
   -.185E-09 -.199E-09 0.166E-10   0.195E-13 -.888E-15 0.114E-12   0.222E-15 0.000E+00 0.000E+00   0.377E-14 -.637E-14 0.102E-10

 POSITION                                       TOTAL-FORCE (eV/Angst)
      3.42459      1.97719     11.40824        -0.000000      0.000000     -0.004950
      6.84918      3.95438     11.41167        -0.000000      0.000000      0.004950
     -0.00000      0.00000     10.28832        -0.000000      0.000000     -0.035298
     -0.00000     -0.00000     12.53159        -0.000000      0.000000      0.035298
      4.29147      0.00249     13.09297        -0.124600     -0.006402      0.001835
      1.28102      2.21380     13.09297         0.056756      0.111107      0.001835
      4.70129      3.71528     13.09297         0.067844     -0.104706      0.001835
      5.98230      5.92907      9.72694         0.124600      0.006402     -0.001835
      8.99275      3.71776      9.72694        -0.056756     -0.111107     -0.001835
      5.57248      2.21629      9.72694        -0.067844      0.104706     -0.001835
    total drift:                               -0.000000     -0.000000      0.000000

  FREE ENERGIE OF THE ION-ELECTRON SYSTEM (eV)
  free  energy   TOTEN  =       -43.11067525 eV

  energy  without entropy=      -43.11067525  energy(sigma->0) =      -43.11067525

 d Force = 0.3070551E-03[ 0.174E-03, 0.440E-03]  d Energy = 0.4440952E-03-0.137E-03
 d Force = 0.1066298E+01[ 0.107E+01, 0.107E+01]  d Ewald  =-0.1438568E+02 0.155E+02

 reached required accuracy - stopping structural energy minimisation

 total charge

[...]

 magnetization (x)

# of ion       s       p       d       tot
    1        0.041   0.048   2.877   2.966
    2        0.041   0.048   2.877   2.966
    3        0.004   0.012   0.000   0.017
    4        0.004   0.012   0.000   0.017
    5        0.002  -0.068   0.005  -0.061
    6       -0.001  -0.066   0.005  -0.062
    7        0.000  -0.071   0.005  -0.066
    8        0.002  -0.068   0.005  -0.061
    9       -0.001  -0.066   0.005  -0.062
   10        0.000  -0.071   0.005  -0.066
tot          0.091  -0.288   5.785   5.588

 BZINTS: Fermi energy: -1.466724; 58.000000 electrons
         Band energy:-391.408064;  BLOECHL correction: -0.039735