 vasp.5.4.4.18Apr17-6-g9f103f2a35 (build May  1 2020 15:48:39) complex
 executed on             LinuxGNU date 2020.07.01  12:20:07

 INCAR:
 POTCAR:   PAW_PBE Cr 06Sep2000
 POTCAR:   PAW_PBE Ge 05Jan2001
 POTCAR:    PAW_PBE P 17Jan2003
 POTCAR:   PAW_PBE Se 06Sep2000

 POTCAR:   PAW_PBE Cr 06Sep2000
   VRHFIN =Cr : d5 s1

   TITEL  = PAW_PBE Cr 06Sep2000
   POMASS =   51.996; ZVAL   =    6.000    mass and valenz
   ENMAX  =  227.082; ENMIN  =  170.311 eV
   QCUT   =   -4.085; QGAM   =    8.171    optimization parameters

   Description
     l     E      TYP  RCUT    TYP  RCUT
     2   .000     23  2.500
     2   .000     23  2.500
     0   .000     23  2.500
     0   .000     23  2.500
     1  -.400     23  2.500
     1  2.000     23  2.500
     3   .000      7   .000

 POTCAR:   PAW_PBE Ge 05Jan2001
   VRHFIN =Ge: s2p2

   TITEL  = PAW_PBE Ge 05Jan2001
   POMASS =   72.610; ZVAL   =    4.000    mass and valenz
   ENMAX  =  173.807; ENMIN  =  130.355 eV
   QCUT   =   -3.574; QGAM   =    7.148    optimization parameters

[...]

 POTCAR:    PAW_PBE P 17Jan2003
   VRHFIN =P : s2p3

   TITEL  = PAW_PBE P 17Jan2003
   POMASS =   30.974; ZVAL   =    5.000    mass and valenz
   ENMAX  =  270.000; ENMIN  =  191.280 eV
   QCUT   =   -4.330; QGAM   =    8.659    optimization parameters

[...]

 POTCAR:   PAW_PBE Se 06Sep2000
   VRHFIN =Se: s2p4

   TITEL  = PAW_PBE Se 06Sep2000
   POMASS =   78.960; ZVAL   =    6.000    mass and valenz
   ENMAX  =  211.534; ENMIN  =  158.651 eV
   QCUT   =   -3.943; QGAM   =    7.886    optimization parameters

   Description
     l     E      TYP  RCUT    TYP  RCUT
     0   .000     23  2.100
     0   .000     23  2.100
     1   .000     23  2.100
     1   .000     23  2.100
     2   .000     23  2.100
     3  -.100      7  2.100

 Optimization of the real space projectors (new method)

 maximal supplied QI-value         = 15.12
 optimisation between [QCUT,QGAM] = [ 11.64, 23.28] = [ 37.95,151.78] Ry
 Optimized for a Real-space Cutoff    1.49 Angstroem

   l    n(q)    QCUT    max X(q) W(low)/X(q) W(high)/X(q)  e(spline)
   2      9    11.641     4.777    0.25E-04    0.21E-05    0.63E-07
   2      9    11.641    31.132    0.13E-03    0.22E-03    0.64E-06
   0     10    11.641    20.416    0.11E-04    0.74E-05    0.19E-07
   0     10    11.641    45.408    0.10E-03    0.85E-04    0.30E-06
   1     10    11.641     7.848    0.22E-04    0.23E-04    0.56E-07
   1     10    11.641     9.895    0.85E-04    0.54E-04    0.16E-06
 Optimization of the real space projectors (new method)

[...]

   l    n(q)    QCUT    max X(q) W(low)/X(q) W(high)/X(q)  e(spline)
   0      8    11.508     6.651    0.19E-04    0.31E-05    0.49E-08
   0      8    11.508    90.285    0.95E-04    0.17E-03    0.51E-07
   1      8    11.508     4.328    0.14E-04    0.32E-04    0.22E-07
   1      8    11.508    54.583    0.16E-03    0.71E-04    0.89E-07
 Optimization of the real space projectors (new method)

 maximal supplied QI-value         = 17.95
 optimisation between [QCUT,QGAM] = [ 11.67, 23.34] = [ 38.13,152.52] Ry
 Optimized for a Real-space Cutoff    1.25 Angstroem

   l    n(q)    QCUT    max X(q) W(low)/X(q) W(high)/X(q)  e(spline)
   0      9    11.669     6.499    0.13E-04    0.81E-05    0.11E-07
   0      9    11.669    52.623    0.18E-03    0.46E-04    0.72E-07
   1      8    11.669     4.229    0.40E-04    0.45E-04    0.31E-07
   1      8    11.669    29.991    0.22E-03    0.36E-03    0.10E-06
   2      8    11.669     3.719    0.19E-03    0.46E-04    0.50E-07

 PAW_PBE Cr 06Sep2000                   :
 PAW_PBE Ge 05Jan2001                   :
  PAW_PBE P 17Jan2003                   :
 PAW_PBE Se 06Sep2000                   :

 POSCAR: Cr2 Ge P Se6
  positions in direct lattice
  velocities in cartesian coordinates
 exchange correlation table for  LEXCH =       42
   RHO(1)=    0.500       N(1)  =     2000
   RHO(2)=  100.500       N(2)  =     4000

 ion  position               nearest neighbor table
   1  0.333  0.333  0.500-   6 2.78   5 2.78   7 2.78   8 2.78  10 2.78   9 2.78
   2  0.667  0.667  0.500-   9 2.78   8 2.78  10 2.78   5 2.78   7 2.78   6 2.78
   3  0.000  0.000  0.448-   4 2.43   8 2.63  10 2.63   9 2.63
   4  0.000  0.000  0.552-   3 2.43   5 2.63   7 2.63   6 2.63
   5  0.626  0.000  0.574-   4 2.63   1 2.78   2 2.78
   6  0.000  0.373  0.574-   4 2.63   1 2.78   2 2.78
   7  0.373  0.626  0.574-   4 2.63   1 2.78   2 2.78
   8  0.374  1.000  0.426-   3 2.63   2 2.78   1 2.78
   9  1.000  0.627  0.426-   3 2.63   2 2.78   1 2.78
  10  0.627  0.374  0.426-   3 2.63   2 2.78   1 2.78

  LATTYP: Found a hexagonal cell.
 ALAT       =     6.9077769333
 C/A-ratio  =     3.3939410937

  Lattice vectors:

 A1 = (   3.4538890000,  -5.9823100000,   0.0000000000)
 A2 = (  -6.9077770000,   0.0000000000,   0.0000000000)
 A3 = (   0.0000000000,   0.0000000000, -23.4445880000)

Analysis of symmetry for initial positions (statically):
 Subroutine PRICEL returns:
 Original cell was already a primitive cell.

 Routine SETGRP: Setting up the symmetry group for a
 hexagonal supercell.

 Subroutine GETGRP returns: Found  3 space group operations
 (whereof  3 operations were pure point group operations)
 out of a pool of 24 trial point group operations.

The static configuration has the point symmetry C_3 .

Analysis of symmetry for dynamics (positions and initial velocities):
 Subroutine PRICEL returns:
 Original cell was already a primitive cell.

[...]

The dynamic configuration has the point symmetry C_3 .

Analysis of constrained symmetry for selective dynamics:
 Subroutine PRICEL returns:
 Original cell was already a primitive cell.

[...]

The constrained configuration has the point symmetry C_3 .

Analysis of structural, dynamic, and magnetic symmetry:
 Subroutine PRICEL returns:
 Original cell was already a primitive cell.

 Routine SETGRP: Setting up the symmetry group for a
 hexagonal supercell.

 Subroutine GETGRP returns: Found  3 space group operations
 (whereof  3 operations were pure point group operations)
 out of a pool of 24 trial point group operations.

The magnetic configuration has the point symmetry C_3 .

 Subroutine INISYM returns: Found  3 space group operations
 (whereof  3 operations are pure point group operations),
 and found     1 'primitive' translations

 KPOINTS: Kpoints from vasprun.xml

Automatic generation of k-mesh.
Space group operators:
 irot       det(A)        alpha          n_x          n_y          n_z        tau_x        tau_y        tau_z
    1     1.000000     0.000000     1.000000     0.000000     0.000000     0.000000     0.000000     0.000000
    2     1.000000   120.000000     0.000000     0.000000     1.000000     0.000000     0.000000     0.000000
    3     1.000000   120.000000     0.000000     0.000000    -1.000000     0.000000     0.000000     0.000000

 Subroutine IBZKPT returns following result:

 Found      5 irreducible k-points:

 Following reciprocal coordinates:
            Coordinates               Weight
  0.000000  0.000000  0.000000      1.000000
  0.200000  0.000000  0.000000      6.000000
  0.400000  0.000000  0.000000      6.000000
  0.400000  0.200000  0.000000      6.000000
 -0.400000  0.200000  0.000000      6.000000

 Following cartesian coordinates:
            Coordinates               Weight
  0.000000  0.000000  0.000000      1.000000
  0.028953 -0.016716  0.000000      6.000000
  0.057906 -0.033432  0.000000      6.000000
  0.057906  0.000000  0.000000      6.000000
 -0.057906  0.066864  0.000000      6.000000

 TETIRR: Found     15 inequivalent tetrahedra from      150

 SYSTEM =  unknown system
 POSCAR =  Cr2 Ge P Se6

 Startparameter for this run:
   NWRITE =      2    write-flag & timer
   PREC   = accura    normal or accurate (medium, high low for compatibility)
   ISTART =      0    job   : 0-new  1-cont  2-samecut
   ICHARG =      2    charge: 1-file 2-atom 10-const
   ISPIN  =      2    spin polarized calculation?
   LNONCOLLINEAR =      F non collinear calculations
   LSORBIT =      F    spin-orbit coupling
   INIWAV =      1    electr: 0-lowe 1-rand  2-diag
   LASPH  =      F    aspherical Exc in radial PAW
   METAGGA=      F    non-selfconsistent MetaGGA calc.

 Electronic Relaxation 1
   ENCUT  =  520.0 eV  38.22 Ry    6.18 a.u.  12.84 12.84 43.59*2*pi/ulx,y,z
   ENINI  =  520.0     initial cutoff
   ENAUG  =  446.8 eV  augmentation charge cutoff
   NELM   =    400;   NELMIN=  2; NELMDL=  0     # of ELM steps
   EDIFF  = 0.1E-03   stopping-criterion for ELM
   LREAL  =      T    real-space projection
   NLSPLINE    = F    spline interpolate recip. space projectors
   LCOMPAT=      F    compatible to vasp.4.4
   GGA_COMPAT  = T    GGA compatible to vasp.4.4-vasp.4.6
   LMAXPAW     = -100 max onsite density
   LMAXMIX     =    2 max onsite mixed and CHGCAR
   VOSKOWN=      0    Vosko Wilk Nusair interpolation
   ROPT   =   -0.00025  -0.00025  -0.00025  -0.00025
 Ionic relaxation
   EDIFFG = 0.1E-02   stopping-criterion for IOM
   NSW    =     99    number of steps for IOM
   NBLOCK =      1;   KBLOCK =     99    inner block; outer block
   IBRION =      2    ionic relax: 0-MD 1-quasi-New 2-CG
   NFREE  =      1    steps in history (QN), initial steepest desc. (CG)
   ISIF   =      3    stress and relaxation
   IWAVPR =     11    prediction:  0-non 1-charg 2-wave 3-comb
   ISYM   =      2    0-nonsym 1-usesym 2-fastsym
   LCORR  =      T    Harris-Foulkes like correction to forces

   POTIM  = 0.5000    time-step for ionic-motion
   TEIN   =    0.0    initial temperature
   TEBEG  =    0.0;   TEEND  =   0.0 temperature during run
   SMASS  =  -3.00    Nose mass-parameter (am)
   estimated Nose-frequenzy (Omega)   =  0.10E-29 period in steps =****** mass=  -0.109E-26a.u.
   SCALEE = 1.0000    scale energy and forces
   NPACO  =    256;   APACO  = 16.0  distance and # of slots for P.C.
   PSTRESS=    0.0 pullay stress

  Mass of Ions in am
   POMASS =  52.00 72.61 30.97 78.96
  Ionic Valenz
   ZVAL   =   6.00  4.00  5.00  6.00
  Atomic Wigner-Seitz radii
  virtual crystal weights
   VCA    =   1.00  1.00  1.00  1.00
   NELECT =      57.0000    total number of electrons
   NUPDOWN=      -1.0000    fix difference up-down

 DOS related values:
   EMIN   =  10.00;   EMAX   =-10.00  energy-range for DOS
   EFERMI =   0.00
   ISMEAR =    -5;   SIGMA  =   0.05  broadening in eV -4-tet -1-fermi 0-gaus

 Electronic relaxation 2 (details)
   IALGO  =     38    algorithm
   LDIAG  =      T    sub-space diagonalisation (order eigenvalues)
   LSUBROT=      F    optimize rotation matrix (better conditioning)
   TURBO    =      0    0=normal 1=particle mesh
   IRESTART =      0    0=no restart 2=restart with 2 vectors
   NREBOOT  =      0    no. of reboots
   NMIN     =      0    reboot dimension
   EREF     =   0.00    reference energy to select bands
   IMIX   =      4    mixing-type and parameters
     AMIX     =   0.40;   BMIX     =  1.00
     AMIX_MAG =   1.60;   BMIX_MAG =  1.00
     AMIN     =   0.01
     WC   =   100.;   INIMIX=   1;  MIXPRE=   1;  MAXMIX= -45

 Intra band minimization:
   WEIMIN = 0.0010     energy-eigenvalue tresh-hold
   EBREAK =  0.63E-06  absolut break condition
[...]
  Local  -16549.45337-16549.45262 16350.35296     0.00082     0.00020     0.00038
  n-local   293.61742   294.53232   302.57610     0.34318     0.17201     0.16466
  augment    25.30077    25.30088    22.28318    -0.00003    -0.00012     0.00009
  Kinetic   572.65911   569.37067   602.08794    -2.34640     0.29756     0.03343
  Fock        0.00000     0.00000     0.00000     0.00000     0.00000     0.00000
  Total     -19.09824   -19.09823   -12.12557     0.00000    -0.00000    -0.00000
  in kB     -31.58305   -31.58304   -20.05224     0.00000    -0.00000    -0.00000

 VOLUME and BASIS-vectors are now :
  energy-cutoff  :      520.00
  volume of cell :      968.84
      direct lattice vectors                 reciprocal lattice vectors
     6.907777000 -0.000000000  0.000000000     0.144764372 -0.083579742  0.000000000
     3.453888000  5.982310000  0.000000000     0.000000000  0.167159509 -0.000000000
     0.000000000  0.000000000 23.444588000    -0.000000000  0.000000000  0.042653767

[...]

 FORCES acting on ions
    electron-ion (+dipol)            ewald-force                    non-local-force                 convergence-correction
   -.782E-04 -.454E-04 0.621E+01   0.314E-03 0.187E-03 -.600E+01   0.000E+00 0.000E+00 -.484E-02   0.184E-05 0.106E-05 -.220E-02
   0.735E-04 0.520E-04 0.489E+01   -.314E-03 -.187E-03 -.471E+01   0.000E+00 0.000E+00 0.526E-02   -.184E-05 -.106E-05 -.217E-02
   -.238E-04 -.317E-04 0.171E+03   -.141E-03 -.779E-04 -.170E+03   -.347E-17 0.347E-17 -.114E+01   -.412E-06 -.214E-06 -.955E-02
   0.303E-04 0.301E-04 -.196E+03   0.176E-03 0.973E-04 0.197E+03   -.694E-17 -.347E-17 -.121E+01   0.606E-06 0.326E-06 0.805E-02
   0.233E+01 0.145E+00 -.345E+03   -.353E+01 -.143E+00 0.346E+03   0.166E+01 -.853E-02 -.301E+01   -.310E-03 -.537E-03 0.163E-01
   -.104E+01 -.210E+01 -.345E+03   0.164E+01 0.313E+01 0.346E+03   -.835E+00 -.143E+01 -.301E+01   -.312E-03 0.536E-03 0.163E-01
   -.130E+01 0.195E+01 -.345E+03   0.189E+01 -.298E+01 0.346E+03   -.820E+00 0.144E+01 -.301E+01   0.621E-03 -.779E-08 0.163E-01
   0.449E+01 -.152E+00 0.350E+03   -.308E+01 0.150E+00 -.352E+03   -.200E+01 0.919E-02 0.289E+01   0.705E-03 -.542E-03 -.222E-01
   -.238E+01 -.381E+01 0.350E+03   0.167E+01 0.259E+01 -.352E+03   0.101E+01 0.173E+01 0.289E+01   -.820E-03 -.339E-03 -.222E-01
   -.211E+01 0.397E+01 0.350E+03   0.141E+01 -.274E+01 -.352E+03   0.992E+00 -.174E+01 0.289E+01   0.116E-03 0.881E-03 -.222E-01
   0.455E-04 0.301E-04 0.274E+01   0.142E-13 0.533E-14 0.568E-13   -.444E-15 0.000E+00 -.272E+01   0.129E-06 0.754E-07 -.234E-01

 POSITION                                       TOTAL-FORCE (eV/Angst)
      3.45388      1.99410     11.72054         0.000000      0.000000      0.201219
      6.90778      3.98821     11.72405         0.000000      0.000000      0.190357
      0.00000      0.00000     10.50824         0.000000      0.000000      0.149363
      0.00000      0.00000     12.93635         0.000000      0.000000      0.573855
      4.32819      0.00251     13.45138         0.462063     -0.006015     -1.406771
      1.29198      2.23274     13.45138        -0.236241     -0.397151     -1.406771
      4.74152      3.74706     13.45138        -0.225823      0.403166     -1.406771
      6.03348      5.97980      9.99321        -0.589634      0.005815      1.035173
      9.06969      3.74957      9.99321         0.299853      0.507730      1.035173
      5.62015      2.23525      9.99321         0.289781     -0.513545      1.035173
    total drift:                                0.000046      0.000030      0.003463

  FREE ENERGIE OF THE ION-ELECTRON SYSTEM (eV)
  free  energy   TOTEN  =       -45.64122963 eV

  energy  without entropy=      -45.64122963  energy(sigma->0) =      -45.64122963

[...]

 d Force = 0.2037408E+00[-0.969E-01, 0.504E+00]  d Energy = 0.2388543E+01-0.218E+01
 d Force =-0.1229558E+03[-0.135E+03,-0.111E+03]  d Ewald  =-0.1141361E+04 0.102E+04

 Steepest descent step on ions:
 trial-energy change:   -2.388543  1 .order   -1.885349   -4.767158    0.996461
  (g-gl).g = 0.477E+01      g.g   = 0.477E+01  gl.gl    = 0.000E+00
 g(Force)  = 0.539E+00   g(Stress)= 0.423E+01 ortho     = 0.000E+00
 gamma     =   0.00000
 trial     =   1.00000
 opt step  =   0.88174  (harmonic =   0.82711) maximal distance =0.04403343
 next E    =   -48.087863   (d E  =  -2.44663)

[...]

 d Force = 0.5261958E-02[-0.190E-02, 0.124E-01]  d Energy = 0.6583877E-01-0.606E-01
 d Force = 0.1689102E+02[ 0.167E+02, 0.171E+02]  d Ewald  = 0.1523649E+03-0.135E+03

[...]

 d Force = 0.2218876E-01[ 0.116E-01, 0.328E-01]  d Energy = 0.2181054E-01 0.378E-03
 d Force = 0.3283010E+01[ 0.335E+01, 0.322E+01]  d Ewald  =-0.4088403E+02 0.442E+02

 Conjugate gradient step on ions:
 trial-energy change:   -0.021811  1 .order   -0.022612   -0.034312   -0.010911
  (g-gl).g = 0.625E-01      g.g   = 0.355E-01  gl.gl    = 0.477E+01
 g(Force)  = 0.333E-01   g(Stress)= 0.216E-02 ortho     =-0.270E-01
 gamma     =   0.01311
 trial     =   0.97635
 opt step  =   1.68058  (harmonic =   1.43161) maximal distance =0.04669661
 next E    =   -48.121057   (d E  =  -0.02545)

[...]

 d Force = 0.3312360E-02[-0.172E-02, 0.835E-02]  d Energy = 0.1643234E-02 0.167E-02
 d Force = 0.2445575E+01[ 0.248E+01, 0.241E+01]  d Ewald  =-0.2950704E+02 0.320E+02

[...]

 d Force = 0.2665734E-02[ 0.390E-03, 0.494E-02]  d Energy = 0.4628193E-02-0.196E-02
 d Force =-0.2390379E+01[-0.239E+01,-0.239E+01]  d Ewald  = 0.7069404E+02-0.731E+02

 Steepest descent step on ions:
 trial-energy change:   -0.004628  1 .order   -0.005145   -0.008896   -0.001394
  (g-gl).g = 0.123E-01      g.g   = 0.796E-02  gl.gl    = 0.355E-01
 g(Force)  = 0.443E-02   g(Stress)= 0.353E-02 ortho     =-0.492E-02
 gamma     =   0.00000
 trial     =   1.11719
 opt step  =   1.65171  (harmonic =   1.32487) maximal distance =0.00695610
 next E    =   -48.123970   (d E  =  -0.00491)

[...]

 d Force =-0.3133016E-03[-0.813E-03, 0.187E-03]  d Energy =-0.1679802E-02 0.137E-02
 d Force =-0.1143735E+01[-0.114E+01,-0.114E+01]  d Ewald  = 0.3365757E+02-0.348E+02

[...]

 Steepest descent step on ions:
 trial-energy change:   -0.001677  1 .order   -0.001785   -0.003304   -0.000267
  (g-gl).g = 0.486E-02      g.g   = 0.270E-02  gl.gl    = 0.796E-02
 g(Force)  = 0.183E-02   g(Stress)= 0.873E-03 ortho     =-0.217E-02
 gamma     =   0.00000
 trial     =   1.22410
 opt step  =   1.33152  (harmonic =   1.33152) maximal distance =0.00977885
 next E    =   -48.123811   (d E  =  -0.00180)

[...]

 d Force = 0.5395398E-04[ 0.421E-04, 0.658E-04]  d Energy = 0.1502291E-03-0.963E-04
 d Force = 0.3511089E+00[ 0.351E+00, 0.351E+00]  d Ewald  =-0.1747438E+01 0.210E+01

[...]

 d Force = 0.7651503E-03[ 0.693E-03, 0.838E-03]  d Energy = 0.7598773E-03 0.527E-05
 d Force = 0.6521194E+01[ 0.652E+01, 0.652E+01]  d Ewald  = 0.2532633E+02-0.188E+02

[...]

 d Force = 0.4694204E-03[-0.114E-02, 0.207E-02]  d Energy = 0.7878562E-03-0.318E-03
 d Force = 0.1949782E+02[ 0.195E+02, 0.195E+02]  d Ewald  = 0.7567181E+02-0.562E+02

[...]

 d Force =-0.3291215E-04[-0.190E-04,-0.468E-04]  d Energy = 0.2695967E-03-0.303E-03
 d Force = 0.2744116E+01[ 0.274E+01, 0.274E+01]  d Ewald  = 0.1196339E+02-0.922E+01

 Conjugate gradient step on ions:
 trial-energy change:   -0.000270  1 .order   -0.000512   -0.000450   -0.000573
  (g-gl).g = 0.277E-02      g.g   = 0.255E-02  gl.gl    = 0.936E-03
 g(Force)  = 0.656E-03   g(Stress)= 0.190E-02 ortho     =-0.591E-04
 gamma     =   2.96304
 trial     =   0.18932
 opt step  =   0.75729  (harmonic =   0.75729) maximal distance =0.00552271
 next E    =   -48.128177   (d E  =  -0.00279)

[...]

 d Force =-0.4513669E-04[-0.341E-04,-0.562E-04]  d Energy =-0.1360036E-03 0.909E-04
 d Force = 0.8216755E+01[ 0.822E+01, 0.822E+01]  d Ewald  = 0.3587479E+02-0.277E+02

[...]

 eigenvalue-minimisations  :  1032
 total energy-change (2. order) : 0.1135232E-03  (-0.8881113E-04)
 number of electron      56.9999998 magnetization       5.3203770
 augmentation part       -2.7387869 magnetization       4.0096671

[...]

 Broyden mixing:
  rms(total) = 0.88919E-03    rms(broyden)= 0.88919E-03
  rms(prec ) = 0.26780E-02
  weight for this iteration     100.00

 eigenvalues of (default mixing * dielectric matrix)
  average eigenvalue GAMMA=   1.3969
  4.3967  2.4444  1.5113  1.2490  0.9458  0.6858  0.6401  0.3790  0.3196

[...]

--------------------------------------- Iteration     14(  11)  ---------------------------------------

[...]

 eigenvalue-minimisations  :   896
 total energy-change (2. order) :-0.8940826E-04  (-0.2862417E-04)
 number of electron      56.9999998 magnetization       5.3026836
 augmentation part       -2.7390571 magnetization       3.9929033

 Free energy of the ion-electron system (eV)
  alpha Z        PSCENC =        41.31022868
  Ewald energy   TEWEN  =      6977.73718208
  -Hartree energ DENC   =     -9100.82590806
  -exchange      EXHF   =         0.00000000
  -V(xc)+E(xc)   XCENC  =       -48.23205363
  PAW double counting   =      1293.25120948    -1142.86971104
  entropy T*S    EENTRO =         0.00000000
  eigenvalues    EBANDS =      -457.47042771
  atomic energy  EATOM  =      2388.97348331
  Solvation  Ediel_sol  =         0.00000000
  free energy    TOTEN  =       -48.12599688 eV

  energy without entropy =      -48.12599688  energy(sigma->0) =      -48.12599688

 average (electrostatic) potential at core
  the test charge radii are     1.1394  1.1631  0.9587  1.0808
  (the norm of the test charge is              1.0000)
       1 -51.2514       2 -51.2518       3 -39.9458       4 -92.4987       5 -61.2748
       6 -61.2748       7 -61.2748       8 -61.0435       9 -61.0434      10 -61.0434

 E-fermi :  -2.2034     XC(G=0):  -3.3645     alpha+bet : -2.7435

[...]

 spin component 2

[...]

 k-point     5 :      -0.4000    0.2000    0.0000
  band No.  band energies     occupation
      1     -16.8300      1.00000
      2     -16.1610      1.00000
      3     -15.9026      1.00000
      4     -15.8263      1.00000
      5     -15.5823      1.00000
      6     -15.4288      1.00000
      7     -12.5851      1.00000
      8     -10.4411      1.00000
      9      -7.9233      1.00000
     10      -7.4498      1.00000
     11      -7.2573      1.00000
     12      -6.7412      1.00000
     13      -6.6278      1.00000
     14      -6.1196      1.00000
     15      -5.8606      1.00000
     16      -5.7255      1.00000
     17      -5.6634      1.00000
     18      -5.2421      1.00000
     19      -5.1282      1.00000
     20      -5.0323      1.00000
     21      -4.8095      1.00000
     22      -4.3029      1.00000
     23      -4.1420      1.00000
     24      -4.1087      1.00000
     25      -4.0482      1.00000
     26      -3.0253      1.00000
     27      -1.8196      0.00000
     28      -1.6032      0.00000
     29      -1.5750      0.00000
     30      -0.9408      0.00000
     31      -0.8524      0.00000
     32      -0.8278      0.00000
     33      -0.5816      0.00000
     34      -0.4796      0.00000
     35      -0.0302      0.00000
     36       0.0500      0.00000
     37       0.0560      0.00000
     38       0.3306      0.00000
     39       0.6350      0.00000
     40       1.3140      0.00000

[...]

 soft charge-density along one line, spin component           2
         0         1         2         3         4         5         6         7         8         9
 total charge-density along one line

------------------------ aborting loop because EDIFF is reached ----------------------------------------

[...]

  FORCE on cell =-STRESS in cart. coord.  units (eV):
  Direction    XX          YY          ZZ          XY          YZ          ZX
  Alpha Z    41.31023    41.31023    41.31023
  Ewald    8596.98385  8596.98143-10216.23031    -0.00118    -0.00042    -0.00076
  Hartree  8937.53723  8937.53762 -8776.63755    -0.00003     0.00005     0.00008
  E(xc)    -220.50209  -220.50209  -220.52982     0.00002     0.00001     0.00001
  Local  -18275.15136-18275.15061 18213.28979     0.00082     0.00019     0.00036
  n-local   305.22657   306.36757   312.45190     0.53903     0.35830     0.37244
  augment    24.97969    24.97975    21.32284    -0.00004     0.00002     0.00002
  Kinetic   592.43009   585.69268   624.90783    -4.32940     0.03082    -0.25436
  Fock        0.00000     0.00000     0.00000     0.00000     0.00000     0.00000
  Total       0.01540     0.01540    -0.11510     0.00000    -0.00000    -0.00000
  in kB       0.03227     0.03227    -0.24122     0.00000    -0.00000    -0.00000

 VOLUME and BASIS-vectors are now :
  energy-cutoff  :      520.00
  volume of cell :      764.50
      direct lattice vectors                 reciprocal lattice vectors
     6.350525570 -0.000000199 -0.000000000     0.157467279 -0.090913776  0.000000000
     3.175262579  5.499716095 -0.000000000     0.000000006  0.181827564  0.000000000
    -0.000000000 -0.000000000 21.889047628     0.000000000 -0.000000000  0.045684948

  length of vectors
     6.350525570  6.350525141 21.889047628     0.181827552  0.181827564  0.045684948

 FORCES acting on ions
    electron-ion (+dipol)            ewald-force                    non-local-force                 convergence-correction
   -.128E-03 -.655E-04 0.584E+01   0.386E-03 0.228E-03 -.618E+01   -.696E-17 -.280E-20 0.758E-01   -.886E-07 -.503E-07 0.150E-02
   0.126E-03 0.922E-04 0.544E+01   -.361E-03 -.214E-03 -.578E+01   -.140E-19 -.161E-20 0.437E-01   -.626E-07 -.367E-07 0.182E-02
   -.347E-04 -.218E-04 0.197E+03   -.166E-03 -.923E-04 -.196E+03   0.108E-16 0.477E-19 -.129E+01   0.811E-07 0.470E-07 0.921E-02
   0.474E-04 0.312E-04 -.252E+03   0.230E-03 0.128E-03 0.253E+03   0.158E-16 -.260E-16 -.617E+00   0.153E-06 0.899E-07 -.131E-01
   0.388E+01 -.977E-01 -.402E+03   -.603E+01 0.101E+00 0.404E+03   0.213E+01 -.184E-03 -.218E+01   -.408E-02 -.391E-03 -.207E-01
   -.203E+01 -.331E+01 -.402E+03   0.310E+01 0.517E+01 0.404E+03   -.107E+01 -.185E+01 -.218E+01   0.170E-02 0.373E-02 -.207E-01
   -.186E+01 0.341E+01 -.402E+03   0.293E+01 -.527E+01 0.404E+03   -.107E+01 0.185E+01 -.218E+01   0.238E-02 -.334E-02 -.207E-01
   0.561E+01 0.206E+00 0.417E+03   -.359E+01 -.210E+00 -.419E+03   -.206E+01 -.341E-02 0.230E+01   0.947E-03 -.166E-03 0.228E-01
   -.263E+01 -.496E+01 0.417E+03   0.161E+01 0.321E+01 -.419E+03   0.103E+01 0.179E+01 0.230E+01   -.618E-03 -.737E-03 0.228E-01
   -.298E+01 0.476E+01 0.417E+03   0.198E+01 -.300E+01 -.419E+03   0.103E+01 -.178E+01 0.230E+01   -.330E-03 0.904E-03 0.228E-01
   0.116E-03 0.742E-04 0.141E+01   0.444E-14 -.888E-15 0.114E-12   0.444E-15 0.000E+00 -.141E+01   -.725E-08 -.312E-08 0.564E-02

 POSITION                                       TOTAL-FORCE (eV/Angst)
      3.17526      1.83324     10.94288        -0.000000     -0.000000     -0.265911
      6.35053      3.66648     10.94617        -0.000000     -0.000000     -0.297034
     -0.00000     -0.00000      9.81102        -0.000000     -0.000000      0.244733
     -0.00000     -0.00000     12.16840        -0.000000     -0.000000      0.018825
      3.99257      0.00009     12.48357        -0.023248      0.003540      0.079218
      1.17906      2.04201     12.48357         0.014689      0.018364      0.079218
      4.35416      3.45762     12.48357         0.008559     -0.021903      0.079218
      2.36897      0.00063      9.31760        -0.040544     -0.008258      0.020578
      1.99132      3.44781      9.31760         0.013120      0.039241      0.020578
      5.16549      2.05127      9.31760         0.027424     -0.030983      0.020578
    total drift:                                0.000116      0.000074      0.004742

  FREE ENERGIE OF THE ION-ELECTRON SYSTEM (eV)
  free  energy   TOTEN  =       -48.12599688 eV

  energy  without entropy=      -48.12599688  energy(sigma->0) =      -48.12599688

 d Force = 0.4935560E-04[ 0.165E-03,-0.662E-04]  d Energy = 0.4745189E-03-0.425E-03
 d Force = 0.1638596E+02[ 0.164E+02, 0.164E+02]  d Ewald  = 0.7169149E+02-0.553E+02

 reached required accuracy - stopping structural energy minimisation

 total charge

[...]

 magnetization (x)

# of ion       s       p       d       tot
    1        0.035   0.040   2.797   2.872
    2        0.035   0.040   2.796   2.872
    3        0.005   0.028  -0.001   0.032
    4       -0.036   0.003   0.000  -0.032
    5       -0.004  -0.114   0.005  -0.113
    6       -0.003  -0.109   0.006  -0.106
    7       -0.005  -0.119   0.005  -0.118
    8        0.000  -0.081   0.005  -0.076
    9       -0.001  -0.062   0.005  -0.058
   10       -0.001  -0.076   0.005  -0.072
tot          0.027  -0.450   5.622   5.199

 BZINTS: Fermi energy: -2.203379; 57.000000 electrons
         Band energy:-457.470428;  BLOECHL correction: -0.021902