 vasp.5.4.4.18Apr17-6-g9f103f2a35 (build May  1 2020 15:48:39) complex
 executed on             LinuxGNU date 2020.06.26  00:40:31

 INCAR:
 POTCAR:   PAW_PBE Ni 06Sep2000
 POTCAR:   PAW_PBE Ge 05Jan2001
 POTCAR:   PAW_PBE Si 05Jan2001
 POTCAR:   PAW_PBE Te 08Apr2002

 POTCAR:   PAW_PBE Ni 06Sep2000
   VRHFIN =Ni:

   TITEL  = PAW_PBE Ni 06Sep2000
   POMASS =   58.690; ZVAL   =   10.000    mass and valenz
   ENMAX  =  269.533; ENMIN  =  202.150 eV
   QCUT   =   -4.451; QGAM   =    8.902    optimization parameters

   Description
     l     E      TYP  RCUT    TYP  RCUT
     2   .000     23  2.300
     2   .000     23  2.300
     0   .000     23  2.300
     0   .000     23  2.300
     1  -.200     23  2.300
     1   .000     23  2.300
     3   .000      7   .000

 POTCAR:   PAW_PBE Ge 05Jan2001
   VRHFIN =Ge: s2p2

   TITEL  = PAW_PBE Ge 05Jan2001
   POMASS =   72.610; ZVAL   =    4.000    mass and valenz
   ENMAX  =  173.807; ENMIN  =  130.355 eV
   QCUT   =   -3.574; QGAM   =    7.148    optimization parameters

[...]

 POTCAR:   PAW_PBE Si 05Jan2001
   VRHFIN =Si: s2p2

   TITEL  = PAW_PBE Si 05Jan2001
   POMASS =   28.085; ZVAL   =    4.000    mass and valenz
   ENMAX  =  245.345; ENMIN  =  184.009 eV
   QCUT   =   -4.246; QGAM   =    8.493    optimization parameters

[...]

 POTCAR:   PAW_PBE Te 08Apr2002
   VRHFIN =Te: s2p4

   TITEL  = PAW_PBE Te 08Apr2002
   POMASS =  127.600; ZVAL   =    6.000    mass and valenz
   ENMAX  =  174.982; ENMIN  =  131.236 eV
   QCUT   =   -3.586; QGAM   =    7.172    optimization parameters

   Description
     l     E      TYP  RCUT    TYP  RCUT
     0   .000     23  2.300
     0   .000     23  2.300
     1   .000     23  2.300
     1   .000     23  2.300
     2   .000     23  2.300
     3  -.100     23  2.300

 Optimization of the real space projectors (new method)

 maximal supplied QI-value         = 16.25
 optimisation between [QCUT,QGAM] = [ 11.54, 23.24] = [ 37.28,151.24] Ry
 Optimized for a Real-space Cutoff    1.49 Angstroem

   l    n(q)    QCUT    max X(q) W(low)/X(q) W(high)/X(q)  e(spline)
   2      9    11.539     4.811    0.20E-04    0.14E-04    0.45E-07
   2      9    11.539    15.146    0.24E-03    0.12E-03    0.20E-06
   0     10    11.539    14.357    0.18E-04    0.12E-05    0.14E-07
   0     10    11.539    43.282    0.39E-04    0.17E-04    0.23E-06
   1     10    11.539     5.514    0.99E-05    0.13E-04    0.19E-07
   1     10    11.539     7.697    0.38E-04    0.79E-04    0.91E-07
 Optimization of the real space projectors (new method)

[...]

   l    n(q)    QCUT    max X(q) W(low)/X(q) W(high)/X(q)  e(spline)
   0      8    11.508     8.708    0.18E-04    0.44E-05    0.47E-08
   0      8    11.508   106.241    0.70E-04    0.15E-03    0.51E-07
   1      8    11.508     5.901    0.63E-05    0.23E-04    0.21E-07
   1      8    11.508    73.241    0.15E-03    0.36E-04    0.79E-07
 Optimization of the real space projectors (new method)

 maximal supplied QI-value         = 16.25
 optimisation between [QCUT,QGAM] = [ 11.54, 23.24] = [ 37.28,151.24] Ry
 Optimized for a Real-space Cutoff    1.36 Angstroem

   l    n(q)    QCUT    max X(q) W(low)/X(q) W(high)/X(q)  e(spline)
   0      9    11.539     7.090    0.13E-04    0.25E-05    0.51E-08
   0      9    11.539   101.654    0.53E-04    0.69E-04    0.12E-06
   1      9    11.539     5.276    0.20E-04    0.98E-05    0.24E-07
   1      9    11.539    81.891    0.24E-03    0.13E-04    0.15E-06
   2      9    11.539     5.599    0.30E-04    0.97E-04    0.54E-07

 PAW_PBE Ni 06Sep2000                   :
 PAW_PBE Ge 05Jan2001                   :
 PAW_PBE Si 05Jan2001                   :
 PAW_PBE Te 08Apr2002                   :

 POSCAR: Ni2 Ge Si Te6
  positions in direct lattice
  velocities in cartesian coordinates
 exchange correlation table for  LEXCH =       42
   RHO(1)=    0.500       N(1)  =     2000
   RHO(2)=  100.500       N(2)  =     4000

 ion  position               nearest neighbor table
   1  0.333  0.333  0.500-   6 2.78   5 2.78   7 2.78   8 2.78  10 2.78   9 2.78
   2  0.667  0.667  0.500-   9 2.78   8 2.78  10 2.78   5 2.78   7 2.78   6 2.78
   3  0.000  0.000  0.448-   4 2.43   8 2.63  10 2.63   9 2.63
   4  0.000  0.000  0.552-   3 2.43   5 2.63   7 2.63   6 2.63
   5  0.626  0.000  0.574-   4 2.63   1 2.78   2 2.78
   6  0.000  0.373  0.574-   4 2.63   1 2.78   2 2.78
   7  0.373  0.626  0.574-   4 2.63   1 2.78   2 2.78
   8  0.374  1.000  0.426-   3 2.63   2 2.78   1 2.78
   9  1.000  0.627  0.426-   3 2.63   2 2.78   1 2.78
  10  0.627  0.374  0.426-   3 2.63   2 2.78   1 2.78

  LATTYP: Found a hexagonal cell.
 ALAT       =     6.9077769333
 C/A-ratio  =     3.3939410937

  Lattice vectors:

 A1 = (   3.4538890000,  -5.9823100000,   0.0000000000)
 A2 = (  -6.9077770000,   0.0000000000,   0.0000000000)
 A3 = (   0.0000000000,   0.0000000000, -23.4445880000)

Analysis of symmetry for initial positions (statically):
 Subroutine PRICEL returns:
 Original cell was already a primitive cell.

 Routine SETGRP: Setting up the symmetry group for a
 hexagonal supercell.

 Subroutine GETGRP returns: Found  3 space group operations
 (whereof  3 operations were pure point group operations)
 out of a pool of 24 trial point group operations.

The static configuration has the point symmetry C_3 .

Analysis of symmetry for dynamics (positions and initial velocities):
 Subroutine PRICEL returns:
 Original cell was already a primitive cell.

[...]

The dynamic configuration has the point symmetry C_3 .

Analysis of constrained symmetry for selective dynamics:
 Subroutine PRICEL returns:
 Original cell was already a primitive cell.

[...]

The constrained configuration has the point symmetry C_3 .

Analysis of structural, dynamic, and magnetic symmetry:
 Subroutine PRICEL returns:
 Original cell was already a primitive cell.

 Routine SETGRP: Setting up the symmetry group for a
 hexagonal supercell.

 Subroutine GETGRP returns: Found  3 space group operations
 (whereof  3 operations were pure point group operations)
 out of a pool of 24 trial point group operations.

The magnetic configuration has the point symmetry C_3 .

 Subroutine INISYM returns: Found  3 space group operations
 (whereof  3 operations are pure point group operations),
 and found     1 'primitive' translations

 KPOINTS: Kpoints from vasprun.xml

Automatic generation of k-mesh.
Space group operators:
 irot       det(A)        alpha          n_x          n_y          n_z        tau_x        tau_y        tau_z
    1     1.000000     0.000000     1.000000     0.000000     0.000000     0.000000     0.000000     0.000000
    2     1.000000   120.000000     0.000000     0.000000     1.000000     0.000000     0.000000     0.000000
    3     1.000000   120.000000     0.000000     0.000000    -1.000000     0.000000     0.000000     0.000000

 Subroutine IBZKPT returns following result:

 Found      5 irreducible k-points:

 Following reciprocal coordinates:
            Coordinates               Weight
  0.000000  0.000000  0.000000      1.000000
  0.200000  0.000000  0.000000      6.000000
  0.400000  0.000000  0.000000      6.000000
  0.400000  0.200000  0.000000      6.000000
 -0.400000  0.200000  0.000000      6.000000

 Following cartesian coordinates:
            Coordinates               Weight
  0.000000  0.000000  0.000000      1.000000
  0.028953 -0.016716  0.000000      6.000000
  0.057906 -0.033432  0.000000      6.000000
  0.057906  0.000000  0.000000      6.000000
 -0.057906  0.066864  0.000000      6.000000

 TETIRR: Found     15 inequivalent tetrahedra from      150

 SYSTEM =  unknown system
 POSCAR =  Ni2 Ge Si Te6

 Startparameter for this run:
   NWRITE =      2    write-flag & timer
   PREC   = accura    normal or accurate (medium, high low for compatibility)
   ISTART =      0    job   : 0-new  1-cont  2-samecut
   ICHARG =      2    charge: 1-file 2-atom 10-const
   ISPIN  =      2    spin polarized calculation?
   LNONCOLLINEAR =      F non collinear calculations
   LSORBIT =      F    spin-orbit coupling
   INIWAV =      1    electr: 0-lowe 1-rand  2-diag
   LASPH  =      F    aspherical Exc in radial PAW
   METAGGA=      F    non-selfconsistent MetaGGA calc.

 Electronic Relaxation 1
   ENCUT  =  520.0 eV  38.22 Ry    6.18 a.u.  12.84 12.84 43.59*2*pi/ulx,y,z
   ENINI  =  520.0     initial cutoff
   ENAUG  =  544.6 eV  augmentation charge cutoff
   NELM   =    400;   NELMIN=  2; NELMDL=  0     # of ELM steps
   EDIFF  = 0.1E-03   stopping-criterion for ELM
   LREAL  =      T    real-space projection
   NLSPLINE    = F    spline interpolate recip. space projectors
   LCOMPAT=      F    compatible to vasp.4.4
   GGA_COMPAT  = T    GGA compatible to vasp.4.4-vasp.4.6
   LMAXPAW     = -100 max onsite density
   LMAXMIX     =    2 max onsite mixed and CHGCAR
   VOSKOWN=      0    Vosko Wilk Nusair interpolation
   ROPT   =   -0.00025  -0.00025  -0.00025  -0.00025
 Ionic relaxation
   EDIFFG = 0.1E-02   stopping-criterion for IOM
   NSW    =     99    number of steps for IOM
   NBLOCK =      1;   KBLOCK =     99    inner block; outer block
   IBRION =      2    ionic relax: 0-MD 1-quasi-New 2-CG
   NFREE  =      1    steps in history (QN), initial steepest desc. (CG)
   ISIF   =      3    stress and relaxation
   IWAVPR =     11    prediction:  0-non 1-charg 2-wave 3-comb
   ISYM   =      2    0-nonsym 1-usesym 2-fastsym
   LCORR  =      T    Harris-Foulkes like correction to forces

   POTIM  = 0.5000    time-step for ionic-motion
   TEIN   =    0.0    initial temperature
   TEBEG  =    0.0;   TEEND  =   0.0 temperature during run
   SMASS  =  -3.00    Nose mass-parameter (am)
   estimated Nose-frequenzy (Omega)   =  0.10E-29 period in steps =****** mass=  -0.109E-26a.u.
   SCALEE = 1.0000    scale energy and forces
   NPACO  =    256;   APACO  = 16.0  distance and # of slots for P.C.
   PSTRESS=    0.0 pullay stress

  Mass of Ions in am
   POMASS =  58.69 72.61 28.09127.60
  Ionic Valenz
   ZVAL   =  10.00  4.00  4.00  6.00
  Atomic Wigner-Seitz radii
  virtual crystal weights
   VCA    =   1.00  1.00  1.00  1.00
   NELECT =      64.0000    total number of electrons
   NUPDOWN=      -1.0000    fix difference up-down

 DOS related values:
   EMIN   =  10.00;   EMAX   =-10.00  energy-range for DOS
   EFERMI =   0.00
   ISMEAR =    -5;   SIGMA  =   0.05  broadening in eV -4-tet -1-fermi 0-gaus

 Electronic relaxation 2 (details)
   IALGO  =     38    algorithm
   LDIAG  =      T    sub-space diagonalisation (order eigenvalues)
   LSUBROT=      F    optimize rotation matrix (better conditioning)
   TURBO    =      0    0=normal 1=particle mesh
   IRESTART =      0    0=no restart 2=restart with 2 vectors
   NREBOOT  =      0    no. of reboots
   NMIN     =      0    reboot dimension
   EREF     =   0.00    reference energy to select bands
   IMIX   =      4    mixing-type and parameters
     AMIX     =   0.40;   BMIX     =  1.00
     AMIX_MAG =   1.60;   BMIX_MAG =  1.00
     AMIN     =   0.01
     WC   =   100.;   INIMIX=   1;  MIXPRE=   1;  MAXMIX= -45

 Intra band minimization:
   WEIMIN = 0.0010     energy-eigenvalue tresh-hold
   EBREAK =  0.52E-06  absolut break condition
[...]
    6        1.398   1.917   0.033   3.348
    7        1.402   1.880   0.033   3.316
    8        1.407   1.872   0.033   3.312
    9        1.400   1.917   0.033   3.350
   10        1.405   1.882   0.033   3.320
tot         11.088  13.913  16.941  41.942

 magnetization (x)

[...]

  FORCE on cell =-STRESS in cart. coord.  units (eV):
  Direction    XX          YY          ZZ          XY          YZ          ZX
  Alpha Z    18.74780    18.74780    18.74780
  Ewald   10003.16019 10003.15816-11941.28445    -0.00208    -0.00052    -0.00095
  Hartree 10765.07496 10765.07606-10094.49636    -0.00045     0.00009     0.00014
  E(xc)    -278.99282  -278.99297  -278.58438     0.00016     0.00005    -0.00000
  Local  -21611.24164-21611.24155 21167.23885     0.00234     0.00034     0.00065
  n-local   646.11763   645.66345   654.18845    -0.43830     0.36765     0.22777
  augment   -59.59722   -59.59708   -65.99511     0.00002    -0.00008     0.00009
  Kinetic   514.19753   505.48343   533.81560    -4.76815    -1.05317    -1.32376
  Fock        0.00000     0.00000     0.00000     0.00000     0.00000     0.00000
  Total      -7.11814    -7.11814    -6.36960     0.00000    -0.00000    -0.00000
  in kB     -11.77138   -11.77138   -10.53351     0.00000    -0.00000    -0.00000

 VOLUME and BASIS-vectors are now :
  energy-cutoff  :      520.00
  volume of cell :      968.84
      direct lattice vectors                 reciprocal lattice vectors
     6.907777000 -0.000000000  0.000000000     0.144764372 -0.083579742  0.000000000
     3.453888000  5.982310000  0.000000000     0.000000000  0.167159509 -0.000000000
     0.000000000  0.000000000 23.444588000    -0.000000000  0.000000000  0.042653767

[...]

 FORCES acting on ions
    electron-ion (+dipol)            ewald-force                    non-local-force                 convergence-correction
   0.271E-03 0.126E-03 0.110E+01   0.643E-03 0.389E-03 -.118E+01   0.139E-16 0.000E+00 0.688E-01   -.480E-05 -.277E-05 -.142E-02
   -.260E-03 -.134E-03 -.125E+01   -.643E-03 -.389E-03 0.118E+01   0.000E+00 0.000E+00 0.385E-01   0.481E-05 0.278E-05 -.908E-03
   -.119E-04 -.376E-04 0.188E+03   -.141E-03 -.779E-04 -.186E+03   0.000E+00 0.000E+00 -.155E+01   0.317E-06 0.151E-06 -.162E-01
   -.751E-05 0.744E-04 -.189E+03   0.141E-03 0.779E-04 0.186E+03   0.139E-16 0.000E+00 0.303E+01   -.319E-06 -.155E-06 0.170E-01
   -.268E+02 0.158E+00 -.421E+03   0.233E+02 -.155E+00 0.425E+03   0.367E+01 -.101E-01 -.474E+01   0.513E-02 0.112E-03 0.375E-01
   0.135E+02 0.231E+02 -.421E+03   -.118E+02 -.201E+02 0.425E+03   -.184E+01 -.317E+01 -.474E+01   -.247E-02 -.450E-02 0.375E-01
   0.132E+02 -.232E+02 -.421E+03   -.115E+02 0.202E+02 0.425E+03   -.183E+01 0.319E+01 -.474E+01   -.266E-02 0.439E-02 0.375E-01
   0.268E+02 -.158E+00 0.421E+03   -.233E+02 0.155E+00 -.425E+03   -.306E+01 0.881E-02 0.465E+01   -.419E-02 0.174E-03 -.373E-01
   -.135E+02 -.231E+02 0.421E+03   0.118E+02 0.201E+02 -.425E+03   0.154E+01 0.265E+01 0.465E+01   0.224E-02 0.354E-02 -.373E-01
   -.133E+02 0.233E+02 0.421E+03   0.115E+02 -.202E+02 -.425E+03   0.152E+01 -.266E+01 0.465E+01   0.194E-02 -.371E-02 -.373E-01
   -.109E-03 0.114E-03 -.133E+01   0.355E-14 0.000E+00 -.171E-12   0.000E+00 0.888E-15 0.133E+01   0.174E-07 0.426E-08 -.899E-03

 POSITION                                       TOTAL-FORCE (eV/Angst)
      3.45388      1.99410     11.72054        -0.000000     -0.000000     -0.019656
      6.90778      3.98821     11.72405        -0.000000     -0.000000     -0.026059
      0.00000      0.00000     10.50824        -0.000000      0.000000      0.266489
      0.00000      0.00000     12.93635        -0.000000     -0.000000      0.085598
      4.32819      0.00251     13.45138         0.193505     -0.006923     -0.657996
      1.29198      2.23274     13.45138        -0.102747     -0.164119     -0.657996
      4.74152      3.74706     13.45138        -0.090757      0.171041     -0.657996
      6.03348      5.97980      9.99321         0.439567      0.005944      0.555872
      9.06969      3.74957      9.99321        -0.214636     -0.383648      0.555872
      5.62015      2.23525      9.99321        -0.224931      0.377704      0.555872
    total drift:                               -0.000109      0.000114     -0.000020

  FREE ENERGIE OF THE ION-ELECTRON SYSTEM (eV)
  free  energy   TOTEN  =       -32.46753868 eV

  energy  without entropy=      -32.46753868  energy(sigma->0) =      -32.46753868

[...]

 d Force = 0.9741687E-03[ 0.156E-02, 0.392E-03]  d Energy = 0.3020301E+00-0.301E+00
 d Force = 0.7737371E+00[ 0.802E+00, 0.746E+00]  d Ewald  =-0.3322357E+03 0.333E+03

 Steepest descent step on ions:
 trial-energy change:   -0.302030  1 .order   -0.241296   -0.685005    0.202414
  (g-gl).g = 0.685E+00      g.g   = 0.685E+00  gl.gl    = 0.000E+00
 g(Force)  = 0.405E-03   g(Stress)= 0.685E+00 ortho     = 0.000E+00
 gamma     =   0.00000
 trial     =   1.00000
 opt step  =   0.82988  (harmonic =   0.77191) maximal distance =0.00342697
 next E    =   -32.786487   (d E  =  -0.31895)

[...]

 d Force =-0.2559190E-03[-0.237E-03,-0.275E-03]  d Energy = 0.1515589E-01-0.154E-01
 d Force =-0.1405996E+00[-0.140E+00,-0.141E+00]  d Ewald  = 0.5840127E+02-0.585E+02

[...]

 d Force = 0.5305184E-02[ 0.552E-02, 0.509E-02]  d Energy = 0.2357096E-01-0.183E-01
 d Force = 0.3069353E+01[ 0.308E+01, 0.306E+01]  d Ewald  = 0.1599770E+03-0.157E+03

 Conjugate gradient step on ions:
 trial-energy change:   -0.023571  1 .order   -0.020802   -0.022262   -0.019343
  (g-gl).g = 0.640E-01      g.g   = 0.265E-01  gl.gl    = 0.685E+00
 g(Force)  = 0.519E-02   g(Stress)= 0.214E-01 ortho     =-0.375E-01
 gamma     =   0.09345
 trial     =   0.96598
 opt step  =   3.86390  (harmonic =   7.36682) maximal distance =0.06248236
 next E    =   -32.869612   (d E  =  -0.08489)

[...]

 d Force = 0.1317430E-01[ 0.147E-01, 0.116E-01]  d Energy =-0.1211776E-01 0.253E-01
 d Force = 0.4420151E+01[ 0.443E+01, 0.441E+01]  d Ewald  = 0.2202236E+03-0.216E+03

[...]

 d Force = 0.6065921E-02[ 0.306E-02, 0.907E-02]  d Energy = 0.2968496E-02 0.310E-02
 d Force = 0.5680808E+01[ 0.571E+01, 0.565E+01]  d Ewald  = 0.5514435E+02-0.495E+02

[...]

 d Force =-0.5986200E-04[-0.387E-04,-0.810E-04]  d Energy = 0.3656462E-02-0.372E-02
 d Force =-0.1588975E+00[-0.159E+00,-0.159E+00]  d Ewald  =-0.8018692E+02 0.800E+02

 Conjugate gradient step on ions:
 trial-energy change:   -0.003656  1 .order   -0.003491   -0.004473   -0.002510
  (g-gl).g =-0.390E-02      g.g   = 0.531E-02  gl.gl    = 0.325E-01
 g(Force)  = 0.601E-03   g(Stress)= 0.471E-02 ortho     = 0.466E-03
 gamma     =  -0.12009
 trial     =   0.85182
 opt step  =   1.94074  (harmonic =   1.94074) maximal distance =0.00000000
 next E    =   -32.850983   (d E  =  -0.00510)

[...]

 d Force =-0.9308044E-05[ 0.310E-04,-0.496E-04]  d Energy = 0.9277777E-02-0.929E-02
 d Force =-0.2042679E+00[-0.205E+00,-0.204E+00]  d Ewald  =-0.1033864E+03 0.103E+03

[...]

 d Force = 0.1338199E-03[ 0.199E-03, 0.684E-04]  d Energy = 0.1131790E-02-0.998E-03
 d Force =-0.4553818E+00[-0.455E+00,-0.456E+00]  d Ewald  =-0.4364517E+02 0.432E+02

 Conjugate gradient step on ions:
 trial-energy change:   -0.001132  1 .order   -0.000852   -0.002387    0.000683
  (g-gl).g = 0.309E-02      g.g   = 0.249E-02  gl.gl    = 0.531E-02
 g(Force)  = 0.472E-04   g(Stress)= 0.244E-02 ortho     =-0.446E-03
 gamma     =   0.58193
 trial     =   1.06961
 opt step  =   0.83156  (harmonic =   0.83156) maximal distance =0.00000000
 next E    =   -32.859750   (d E  =  -0.00093)

[...]

 eigenvalue-minimisations  :  1056
 total energy-change (2. order) : 0.7433067E-03  (-0.9386669E-04)
 number of electron      64.0000009 magnetization       0.3289460
 augmentation part        4.3953400 magnetization       0.1307825

[...]

 Broyden mixing:
  rms(total) = 0.22752E-02    rms(broyden)= 0.22745E-02
  rms(prec ) = 0.35522E-02
  weight for this iteration     100.00

 eigenvalues of (default mixing * dielectric matrix)
  average eigenvalue GAMMA=   0.8252
  2.1845  0.7972  0.7972  0.2473  0.0998

[...]

--------------------------------------- Iteration     12(   7)  ---------------------------------------

[...]

 eigenvalue-minimisations  :   752
 total energy-change (2. order) :-0.1670657E-04  (-0.2878730E-05)
 number of electron      64.0000009 magnetization       0.3292895
 augmentation part        4.4001103 magnetization       0.1307052

 Free energy of the ion-electron system (eV)
  alpha Z        PSCENC =        20.83122314
  Ewald energy   TEWEN  =      7570.76376109
  -Hartree energ DENC   =    -10949.28208673
  -exchange      EXHF   =         0.00000000
  -V(xc)+E(xc)   XCENC  =      -130.83925213
  PAW double counting   =      2555.21302632    -2416.66260595
  entropy T*S    EENTRO =         0.00000000
  eigenvalues    EBANDS =      -402.73047245
  atomic energy  EATOM  =      3719.84694474
  Solvation  Ediel_sol  =         0.00000000
  free energy    TOTEN  =       -32.85946197 eV

  energy without entropy =      -32.85946197  energy(sigma->0) =      -32.85946197

 average (electrostatic) potential at core
  the test charge radii are     0.9791  1.1631  0.9892  1.1897
  (the norm of the test charge is              1.0000)
       1 -48.9923       2 -48.9940       3 -38.7355       4 -91.8888       5 -96.5022
       6 -96.5021       7 -96.5021       8 -96.5119       9 -96.5119      10 -96.5119

 E-fermi :  -1.6692     XC(G=0):  -3.8897     alpha+bet : -3.2763

[...]

 spin component 2

[...]

 k-point     5 :      -0.4000    0.2000    0.0000
  band No.  band energies     occupation
      1     -14.1189      1.00000
      2     -13.7510      1.00000
      3     -13.3622      1.00000
      4     -13.2277      1.00000
      5     -12.9970      1.00000
      6     -12.8336      1.00000
      7      -9.9945      1.00000
      8      -8.4552      1.00000
      9      -6.7498      1.00000
     10      -6.2813      1.00000
     11      -6.1517      1.00000
     12      -5.6903      1.00000
     13      -5.3698      1.00000
     14      -5.1820      1.00000
     15      -4.9867      1.00000
     16      -4.6594      1.00000
     17      -4.6235      1.00000
     18      -4.5879      1.00000
     19      -4.5593      1.00000
     20      -4.3429      1.00000
     21      -4.2131      1.00000
     22      -3.8141      1.00000
     23      -3.6163      1.00000
     24      -3.4985      1.00000
     25      -3.4294      1.00000
     26      -3.2825      1.00000
     27      -3.2142      1.00000
     28      -3.0131      1.00000
     29      -3.0037      1.00000
     30      -2.9041      1.00000
     31      -2.8420      1.00000
     32      -1.7284      1.00000
     33      -1.6455      0.00000
     34      -1.4817      0.00000
     35      -1.0054      0.00000
     36      -0.5523      0.00000
     37      -0.0475      0.00000
     38       0.5934      0.00000
     39       0.9402      0.00000
     40       1.5247      0.00000
     41       1.7440      0.00000
     42       1.8893      0.00000
     43       2.6495      0.00000
     44       2.8801      0.00000
     45       2.9003      0.00000
     46       3.0458      0.00000
     47       3.1123      0.00000
     48       3.6775      0.00000

[...]

 soft charge-density along one line, spin component           2
         0         1         2         3         4         5         6         7         8         9
 total charge-density along one line

------------------------ aborting loop because EDIFF is reached ----------------------------------------

[...]

  FORCE on cell =-STRESS in cart. coord.  units (eV):
  Direction    XX          YY          ZZ          XY          YZ          ZX
  Alpha Z    20.83122    20.83122    20.83122
  Ewald    9570.31496  9570.31266-11569.86766    -0.00227    -0.00057    -0.00104
  Hartree 10298.08392 10298.08509 -9643.50776    -0.00046     0.00009     0.00015
  E(xc)    -280.94916  -280.94942  -280.53366     0.00026     0.00002     0.00001
  Local  -20716.01637-20716.01616 20335.61681     0.00248     0.00037     0.00070
  n-local   652.86909   652.94677   659.18845     0.19012     0.62298     0.81843
  augment   -59.82530   -59.82458   -65.85238    -0.00044    -0.00028     0.00024
  Kinetic   519.70415   510.10691   544.11508    -5.29854    -1.18337    -1.30575
  Fock        0.00000     0.00000     0.00000     0.00000     0.00000     0.00000
  Total       0.25251     0.25251    -0.00990    -0.00001    -0.00000     0.00000
  in kB       0.46398     0.46398    -0.01819    -0.00001    -0.00000     0.00000

 VOLUME and BASIS-vectors are now :
  energy-cutoff  :      520.00
  volume of cell :      871.94
      direct lattice vectors                 reciprocal lattice vectors
     6.784642862  0.000000055 -0.000000000     0.147391694 -0.085096626  0.000000000
     3.392320912  5.875672757 -0.000000000    -0.000000001  0.170193278  0.000000000
    -0.000000000 -0.000000000 21.872616468     0.000000000  0.000000000  0.045719267

  length of vectors
     6.784642862  6.784642328 21.872616468     0.170193264  0.170193278  0.045719267

 FORCES acting on ions
    electron-ion (+dipol)            ewald-force                    non-local-force                 convergence-correction
   0.299E-04 0.952E-05 0.552E+01   0.698E-03 0.422E-03 -.573E+01   -.141E-16 0.136E-16 0.216E+00   0.166E-06 0.141E-06 -.407E-03
   -.400E-04 0.641E-05 0.289E+01   -.705E-03 -.426E-03 -.305E+01   -.159E-18 0.137E-16 0.166E+00   -.883E-07 -.401E-07 -.407E-03
   -.280E-04 -.581E-05 0.191E+03   -.145E-03 -.804E-04 -.189E+03   -.878E-17 0.189E-17 -.170E+01   0.139E-07 0.697E-08 -.181E-01
   0.407E-04 0.187E-04 -.211E+03   0.157E-03 0.870E-04 0.209E+03   0.116E-16 -.267E-17 0.240E+01   0.956E-08 0.614E-08 0.203E-01
   -.295E+02 0.134E+00 -.427E+03   0.259E+02 -.146E+00 0.431E+03   0.339E+01 -.828E-02 -.401E+01   -.120E-03 0.130E-01 0.396E-01
   0.149E+02 0.255E+02 -.427E+03   -.131E+02 -.224E+02 0.431E+03   -.170E+01 -.293E+01 -.401E+01   0.113E-01 -.639E-02 0.396E-01
   0.146E+02 -.256E+02 -.427E+03   -.128E+02 0.225E+02 0.431E+03   -.169E+01 0.294E+01 -.401E+01   -.112E-01 -.660E-02 0.396E-01
   0.322E+02 -.169E+00 0.431E+03   -.287E+02 0.151E+00 -.435E+03   -.276E+01 0.136E-01 0.413E+01   0.208E-04 0.131E-01 -.400E-01
   -.162E+02 -.278E+02 0.431E+03   0.145E+02 0.248E+02 -.435E+03   0.139E+01 0.239E+01 0.413E+01   0.114E-01 -.659E-02 -.400E-01
   -.159E+02 0.280E+02 0.431E+03   0.142E+02 -.249E+02 -.435E+03   0.137E+01 -.240E+01 0.413E+01   -.114E-01 -.655E-02 -.400E-01
   -.528E-04 0.145E-03 -.140E+01   0.142E-13 0.711E-14 0.227E-12   0.222E-15 0.000E+00 0.142E+01   0.147E-06 0.144E-06 0.158E-03

 POSITION                                       TOTAL-FORCE (eV/Angst)
      3.39232      1.95856     10.92695         0.000000     -0.000000      0.004322
      6.78465      3.91712     10.93074         0.000000     -0.000000      0.001897
     -0.00000     -0.00000      9.80366        -0.000000     -0.000000      0.157422
     -0.00000     -0.00000     12.21790         0.000000      0.000000     -0.075624
      4.25103      0.00247     12.54946        -0.215769     -0.006690      0.002237
      1.26895      2.19294     12.54946         0.102091      0.190206      0.002237
      4.65700      3.68027     12.54946         0.113678     -0.183517      0.002237
      5.92593      5.87320      9.32316         0.700736      0.007885     -0.031576
      8.90802      3.68273      9.32316        -0.343540     -0.610798     -0.031576
      5.51997      2.19540      9.32316        -0.357197      0.602913     -0.031576
    total drift:                               -0.000053      0.000145      0.022328

  FREE ENERGIE OF THE ION-ELECTRON SYSTEM (eV)
  free  energy   TOTEN  =       -32.85946197 eV

  energy  without entropy=      -32.85946197  energy(sigma->0) =      -32.85946197

 d Force =-0.4022993E-04[-0.364E-04,-0.441E-04]  d Energy =-0.4920147E-03 0.452E-03
 d Force = 0.1007060E+00[ 0.101E+00, 0.101E+00]  d Ewald  = 0.9703759E+01-0.960E+01

 reached required accuracy - stopping structural energy minimisation

 total charge

[...]

 magnetization (x)

# of ion       s       p       d       tot
    1        0.000   0.000   0.082   0.082
    2        0.000   0.000   0.087   0.087
    3        0.000   0.003   0.001   0.004
    4        0.000   0.002   0.000   0.002
    5        0.002   0.013   0.000   0.015
    6        0.000   0.001   0.001   0.002
    7        0.002   0.012   0.000   0.014
    8        0.002   0.017   0.000   0.019
    9        0.000   0.002   0.001   0.003
   10        0.002   0.015   0.000   0.018
tot          0.009   0.065   0.173   0.247

 BZINTS: Fermi energy: -1.669217; 64.000000 electrons
         Band energy:-402.730472;  BLOECHL correction: -0.034170