 vasp.5.4.4.18Apr17-6-g9f103f2a35 (build May  1 2020 15:48:39) complex
 executed on             LinuxGNU date 2020.06.25  21:48:57

 INCAR:
 POTCAR:   PAW_PBE Co 06Sep2000
 POTCAR:   PAW_PBE Si 05Jan2001
 POTCAR:   PAW_PBE Te 08Apr2002

 POTCAR:   PAW_PBE Co 06Sep2000
   VRHFIN =Co: d8 s1

   TITEL  = PAW_PBE Co 06Sep2000
   POMASS =   58.933; ZVAL   =    9.000    mass and valenz
   ENMAX  =  267.969; ENMIN  =  200.977 eV
   QCUT   =   -4.438; QGAM   =    8.876    optimization parameters

   Description
     l     E      TYP  RCUT    TYP  RCUT
     2   .000     23  2.300
     2   .000     23  2.300
     0   .000     23  2.300
     0   .000     23  2.300
     1  -.200     23  2.300
     1   .000     23  2.300
     3   .000      7   .000

 POTCAR:   PAW_PBE Si 05Jan2001
   VRHFIN =Si: s2p2

   TITEL  = PAW_PBE Si 05Jan2001
   POMASS =   28.085; ZVAL   =    4.000    mass and valenz
   ENMAX  =  245.345; ENMIN  =  184.009 eV
   QCUT   =   -4.246; QGAM   =    8.493    optimization parameters

[...]

 POTCAR:   PAW_PBE Te 08Apr2002
   VRHFIN =Te: s2p4

   TITEL  = PAW_PBE Te 08Apr2002
   POMASS =  127.600; ZVAL   =    6.000    mass and valenz
   ENMAX  =  174.982; ENMIN  =  131.236 eV
   QCUT   =   -3.586; QGAM   =    7.172    optimization parameters

   Description
     l     E      TYP  RCUT    TYP  RCUT
     0   .000     23  2.300
     0   .000     23  2.300
     1   .000     23  2.300
     1   .000     23  2.300
     2   .000     23  2.300
     3  -.100     23  2.300

 Optimization of the real space projectors (new method)

 maximal supplied QI-value         = 16.25
 optimisation between [QCUT,QGAM] = [ 11.54, 23.24] = [ 37.28,151.24] Ry
 Optimized for a Real-space Cutoff    1.53 Angstroem

   l    n(q)    QCUT    max X(q) W(low)/X(q) W(high)/X(q)  e(spline)
   2     10    11.539     4.599    0.83E-05    0.15E-04    0.45E-07
   2     10    11.539    18.158    0.10E-03    0.14E-03    0.24E-06
   0     11    11.539    15.740    0.19E-04    0.12E-05    0.17E-07
   0     11    11.539    47.662    0.48E-04    0.15E-04    0.31E-06
   1     10    11.539     5.777    0.11E-04    0.46E-05    0.25E-07
   1     10    11.539     8.007    0.46E-04    0.29E-04    0.11E-06
 Optimization of the real space projectors (new method)

[...]

   l    n(q)    QCUT    max X(q) W(low)/X(q) W(high)/X(q)  e(spline)
   0      8    11.508     8.708    0.18E-04    0.44E-05    0.47E-08
   0      8    11.508   106.241    0.70E-04    0.15E-03    0.51E-07
   1      8    11.508     5.901    0.63E-05    0.23E-04    0.21E-07
   1      8    11.508    73.241    0.15E-03    0.36E-04    0.79E-07
 Optimization of the real space projectors (new method)

 maximal supplied QI-value         = 16.25
 optimisation between [QCUT,QGAM] = [ 11.54, 23.24] = [ 37.28,151.24] Ry
 Optimized for a Real-space Cutoff    1.36 Angstroem

   l    n(q)    QCUT    max X(q) W(low)/X(q) W(high)/X(q)  e(spline)
   0      9    11.539     7.090    0.13E-04    0.25E-05    0.51E-08
   0      9    11.539   101.654    0.53E-04    0.69E-04    0.12E-06
   1      9    11.539     5.276    0.20E-04    0.98E-05    0.24E-07
   1      9    11.539    81.891    0.24E-03    0.13E-04    0.15E-06
   2      9    11.539     5.599    0.30E-04    0.97E-04    0.54E-07

 PAW_PBE Co 06Sep2000                   :
 PAW_PBE Si 05Jan2001                   :
 PAW_PBE Te 08Apr2002                   :

 POSCAR: Co2 Si2 Te6
  positions in direct lattice
  velocities in cartesian coordinates
 exchange correlation table for  LEXCH =       42
   RHO(1)=    0.500       N(1)  =     2000
   RHO(2)=  100.500       N(2)  =     4000

 ion  position               nearest neighbor table
   1  0.333  0.333  0.500-   6 2.78   5 2.78   7 2.78   8 2.78  10 2.78   9 2.78
   2  0.667  0.667  0.500-   9 2.78   8 2.78  10 2.78   5 2.78   7 2.78   6 2.78
   3  0.000  0.000  0.448-   4 2.43   8 2.63  10 2.63   9 2.63
   4  0.000  0.000  0.552-   3 2.43   5 2.63   7 2.63   6 2.63
   5  0.626  0.000  0.574-   4 2.63   1 2.78   2 2.78
   6  0.000  0.373  0.574-   4 2.63   1 2.78   2 2.78
   7  0.373  0.626  0.574-   4 2.63   1 2.78   2 2.78
   8  0.374  1.000  0.426-   3 2.63   2 2.78   1 2.78
   9  1.000  0.627  0.426-   3 2.63   2 2.78   1 2.78
  10  0.627  0.374  0.426-   3 2.63   2 2.78   1 2.78

  LATTYP: Found a hexagonal cell.
 ALAT       =     6.9077769333
 C/A-ratio  =     3.3939410937

  Lattice vectors:

 A1 = (   3.4538890000,  -5.9823100000,   0.0000000000)
 A2 = (  -6.9077770000,   0.0000000000,   0.0000000000)
 A3 = (   0.0000000000,   0.0000000000, -23.4445880000)

Analysis of symmetry for initial positions (statically):
 Subroutine PRICEL returns:
 Original cell was already a primitive cell.

 Routine SETGRP: Setting up the symmetry group for a
 hexagonal supercell.

 Subroutine GETGRP returns: Found  6 space group operations
 (whereof  6 operations were pure point group operations)
 out of a pool of 24 trial point group operations.

The static configuration has the point symmetry S_6 .

Analysis of symmetry for dynamics (positions and initial velocities):
 Subroutine PRICEL returns:
 Original cell was already a primitive cell.

[...]

The dynamic configuration has the point symmetry S_6 .

Analysis of constrained symmetry for selective dynamics:
 Subroutine PRICEL returns:
 Original cell was already a primitive cell.

[...]

The constrained configuration has the point symmetry S_6 .

Analysis of structural, dynamic, and magnetic symmetry:
 Subroutine PRICEL returns:
 Original cell was already a primitive cell.

 Routine SETGRP: Setting up the symmetry group for a
 hexagonal supercell.

 Subroutine GETGRP returns: Found  6 space group operations
 (whereof  6 operations were pure point group operations)
 out of a pool of 24 trial point group operations.

The magnetic configuration has the point symmetry S_6 .

 Subroutine INISYM returns: Found  6 space group operations
 (whereof  6 operations are pure point group operations),
 and found     1 'primitive' translations

 KPOINTS: Kpoints from vasprun.xml

Automatic generation of k-mesh.
Space group operators:
 irot       det(A)        alpha          n_x          n_y          n_z        tau_x        tau_y        tau_z
    1     1.000000     0.000000     1.000000     0.000000     0.000000     0.000000     0.000000     0.000000
    2    -1.000000     0.000000     1.000000     0.000000     0.000000     0.000000     0.000000     0.000000
    3     1.000000   120.000000     0.000000     0.000000     1.000000     0.000000     0.000000     0.000000
    4    -1.000000   120.000000     0.000000     0.000000     1.000000     0.000000     0.000000     0.000000
    5     1.000000   120.000000     0.000000     0.000000    -1.000000     0.000000     0.000000     0.000000
    6    -1.000000   120.000000     0.000000     0.000000    -1.000000     0.000000     0.000000     0.000000

 Subroutine IBZKPT returns following result:

 Found      5 irreducible k-points:

 Following reciprocal coordinates:
            Coordinates               Weight
  0.000000  0.000000  0.000000      1.000000
  0.200000  0.000000  0.000000      6.000000
  0.400000  0.000000  0.000000      6.000000
  0.400000  0.200000  0.000000      6.000000
 -0.400000  0.200000  0.000000      6.000000

 Following cartesian coordinates:
            Coordinates               Weight
  0.000000  0.000000  0.000000      1.000000
  0.028953 -0.016716  0.000000      6.000000
  0.057906 -0.033432  0.000000      6.000000
  0.057906  0.000000  0.000000      6.000000
 -0.057906  0.066864  0.000000      6.000000

 TETIRR: Found     15 inequivalent tetrahedra from      150

 SYSTEM =  unknown system
 POSCAR =  Co2 Si2 Te6

 Startparameter for this run:
   NWRITE =      2    write-flag & timer
   PREC   = accura    normal or accurate (medium, high low for compatibility)
   ISTART =      0    job   : 0-new  1-cont  2-samecut
   ICHARG =      2    charge: 1-file 2-atom 10-const
   ISPIN  =      2    spin polarized calculation?
   LNONCOLLINEAR =      F non collinear calculations
   LSORBIT =      F    spin-orbit coupling
   INIWAV =      1    electr: 0-lowe 1-rand  2-diag
   LASPH  =      F    aspherical Exc in radial PAW
   METAGGA=      F    non-selfconsistent MetaGGA calc.

 Electronic Relaxation 1
   ENCUT  =  520.0 eV  38.22 Ry    6.18 a.u.  12.84 12.84 43.59*2*pi/ulx,y,z
   ENINI  =  520.0     initial cutoff
   ENAUG  =  477.8 eV  augmentation charge cutoff
   NELM   =    400;   NELMIN=  2; NELMDL=  0     # of ELM steps
   EDIFF  = 0.1E-03   stopping-criterion for ELM
   LREAL  =      T    real-space projection
   NLSPLINE    = F    spline interpolate recip. space projectors
   LCOMPAT=      F    compatible to vasp.4.4
   GGA_COMPAT  = T    GGA compatible to vasp.4.4-vasp.4.6
   LMAXPAW     = -100 max onsite density
   LMAXMIX     =    2 max onsite mixed and CHGCAR
   VOSKOWN=      0    Vosko Wilk Nusair interpolation
   ROPT   =   -0.00025  -0.00025  -0.00025
 Ionic relaxation
   EDIFFG = 0.1E-02   stopping-criterion for IOM
   NSW    =     99    number of steps for IOM
   NBLOCK =      1;   KBLOCK =     99    inner block; outer block
   IBRION =      2    ionic relax: 0-MD 1-quasi-New 2-CG
   NFREE  =      1    steps in history (QN), initial steepest desc. (CG)
   ISIF   =      3    stress and relaxation
   IWAVPR =     11    prediction:  0-non 1-charg 2-wave 3-comb
   ISYM   =      2    0-nonsym 1-usesym 2-fastsym
   LCORR  =      T    Harris-Foulkes like correction to forces

   POTIM  = 0.5000    time-step for ionic-motion
   TEIN   =    0.0    initial temperature
   TEBEG  =    0.0;   TEEND  =   0.0 temperature during run
   SMASS  =  -3.00    Nose mass-parameter (am)
   estimated Nose-frequenzy (Omega)   =  0.10E-29 period in steps =****** mass=  -0.109E-26a.u.
   SCALEE = 1.0000    scale energy and forces
   NPACO  =    256;   APACO  = 16.0  distance and # of slots for P.C.
   PSTRESS=    0.0 pullay stress

  Mass of Ions in am
   POMASS =  58.93 28.09127.60
  Ionic Valenz
   ZVAL   =   9.00  4.00  6.00
  Atomic Wigner-Seitz radii
  virtual crystal weights
   VCA    =   1.00  1.00  1.00
   NELECT =      62.0000    total number of electrons
   NUPDOWN=      -1.0000    fix difference up-down

 DOS related values:
   EMIN   =  10.00;   EMAX   =-10.00  energy-range for DOS
   EFERMI =   0.00
   ISMEAR =    -5;   SIGMA  =   0.05  broadening in eV -4-tet -1-fermi 0-gaus

 Electronic relaxation 2 (details)
   IALGO  =     38    algorithm
   LDIAG  =      T    sub-space diagonalisation (order eigenvalues)
   LSUBROT=      F    optimize rotation matrix (better conditioning)
   TURBO    =      0    0=normal 1=particle mesh
   IRESTART =      0    0=no restart 2=restart with 2 vectors
   NREBOOT  =      0    no. of reboots
   NMIN     =      0    reboot dimension
   EREF     =   0.00    reference energy to select bands
   IMIX   =      4    mixing-type and parameters
     AMIX     =   0.40;   BMIX     =  1.00
     AMIX_MAG =   1.60;   BMIX_MAG =  1.00
     AMIN     =   0.01
     WC   =   100.;   INIMIX=   1;  MIXPRE=   1;  MAXMIX= -45

 Intra band minimization:
   WEIMIN = 0.0010     energy-eigenvalue tresh-hold
   EBREAK =  0.52E-06  absolut break condition
   DEPER  =   0.30     relativ break condition

[...]

[...]

------------------------ aborting loop because EDIFF is reached ----------------------------------------

 total charge

# of ion       s       p       d       tot
    1        0.317   0.302   7.328   7.947
    2        0.317   0.302   7.328   7.947
    3        0.787   0.788   0.000   1.574
    4        0.787   0.788   0.000   1.574
    5        1.398   1.886   0.034   3.317
    6        1.392   1.912   0.034   3.337
    7        1.397   1.890   0.034   3.321
    8        1.398   1.886   0.034   3.317
    9        1.392   1.912   0.034   3.337
   10        1.397   1.890   0.034   3.321
tot         10.580  13.554  14.857  38.992

 magnetization (x)

[...]

  FORCE on cell =-STRESS in cart. coord.  units (eV):
  Direction    XX          YY          ZZ          XY          YZ          ZX
  Alpha Z    15.47636    15.47636    15.47636
  Ewald    9323.94493  9323.94287-11117.97373    -0.00179    -0.00048    -0.00089
  Hartree  9931.75394  9931.75482 -9468.59817    -0.00030     0.00008     0.00012
  E(xc)    -258.77426  -258.77432  -258.29248     0.00009     0.00002     0.00001
  Local  -20117.50619-20117.50580 19698.95346     0.00188     0.00033     0.00063
  n-local   664.72980   664.14911   673.67396    -0.52449     1.17987     1.23347
  augment   -74.80512   -74.80475   -81.88297    -0.00015     0.00014    -0.00003
  Kinetic   506.27063   500.92704   525.52315    -3.48953     0.71475     0.99408
  Fock        0.00000     0.00000     0.00000     0.00000     0.00000     0.00000
  Total     -11.87229   -11.87229   -13.12042     0.00000     0.00000    -0.00000
  in kB     -19.63339   -19.63339   -21.69744     0.00001     0.00000    -0.00000

 VOLUME and BASIS-vectors are now :
  energy-cutoff  :      520.00
  volume of cell :      968.84
      direct lattice vectors                 reciprocal lattice vectors
     6.907777000 -0.000000000  0.000000000     0.144764372 -0.083579742  0.000000000
     3.453888000  5.982310000  0.000000000     0.000000000  0.167159509 -0.000000000
     0.000000000  0.000000000 23.444588000    -0.000000000  0.000000000  0.042653767

[...]

 FORCES acting on ions
    electron-ion (+dipol)            ewald-force                    non-local-force                 convergence-correction
   0.179E-03 0.103E-03 0.103E+01   0.549E-03 0.331E-03 -.104E+01   0.000E+00 0.278E-16 0.120E-01   0.173E-05 0.992E-06 -.570E-03
   -.179E-03 -.103E-03 -.103E+01   -.549E-03 -.331E-03 0.104E+01   -.694E-17 0.000E+00 -.120E-01   -.173E-05 -.992E-06 0.570E-03
   -.296E-04 0.498E-05 0.183E+03   -.141E-03 -.779E-04 -.179E+03   -.694E-17 0.694E-17 -.303E+01   -.155E-06 -.772E-07 -.829E-02
   0.295E-04 -.491E-05 -.183E+03   0.141E-03 0.779E-04 0.179E+03   -.312E-16 -.694E-17 0.303E+01   0.155E-06 0.772E-07 0.829E-02
   -.224E+02 0.160E+00 -.400E+03   0.186E+02 -.155E+00 0.405E+03   0.380E+01 -.130E-01 -.570E+01   -.222E-01 -.204E-03 0.448E-02
   0.113E+02 0.193E+02 -.400E+03   -.941E+01 -.160E+02 0.405E+03   -.191E+01 -.328E+01 -.570E+01   0.109E-01 0.193E-01 0.448E-02
   0.111E+02 -.195E+02 -.400E+03   -.915E+01 0.162E+02 0.405E+03   -.189E+01 0.330E+01 -.570E+01   0.113E-01 -.191E-01 0.448E-02
   0.224E+02 -.160E+00 0.400E+03   -.186E+02 0.155E+00 -.405E+03   -.380E+01 0.130E-01 0.570E+01   0.222E-01 0.204E-03 -.448E-02
   -.113E+02 -.193E+02 0.400E+03   0.941E+01 0.160E+02 -.405E+03   0.191E+01 0.328E+01 0.570E+01   -.109E-01 -.193E-01 -.448E-02
   -.111E+02 0.195E+02 0.400E+03   0.915E+01 -.162E+02 -.405E+03   0.189E+01 -.330E+01 0.570E+01   -.113E-01 0.191E-01 -.448E-02
   -.614E-06 0.256E-06 0.328E-06   0.711E-14 0.711E-14 0.171E-12   -.888E-15 0.444E-15 -.444E-14   0.308E-13 -.187E-15 -.310E-11

 POSITION                                       TOTAL-FORCE (eV/Angst)
      3.45388      1.99410     11.72054        -0.000000      0.000000      0.005307
      6.90778      3.98821     11.72405        -0.000000     -0.000000     -0.005307
      0.00000      0.00000     10.50824        -0.000000     -0.000000      0.832604
      0.00000      0.00000     12.93635        -0.000000      0.000000     -0.832604
      4.32819      0.00251     13.45138        -0.066826     -0.007520     -1.037262
      1.29198      2.23274     13.45138         0.026900      0.061633     -1.037262
      4.74152      3.74706     13.45138         0.039925     -0.054113     -1.037262
      6.03348      5.97980      9.99321         0.066826      0.007520      1.037262
      9.06969      3.74957      9.99321        -0.026900     -0.061633      1.037262
      5.62015      2.23525      9.99321        -0.039925      0.054113      1.037262
    total drift:                               -0.000001      0.000000      0.000000

  FREE ENERGIE OF THE ION-ELECTRON SYSTEM (eV)
  free  energy   TOTEN  =       -36.85698150 eV

  energy  without entropy=      -36.85698150  energy(sigma->0) =      -36.85698150

[...]

 d Force =-0.5842261E-03[-0.638E-01, 0.627E-01]  d Energy = 0.7757511E+00-0.776E+00
 d Force =-0.1425230E+02[-0.150E+02,-0.135E+02]  d Ewald  =-0.3972340E+03 0.383E+03

 Steepest descent step on ions:
 trial-energy change:   -0.775751  1 .order   -0.889885   -2.257338    0.477568
  (g-gl).g = 0.226E+01      g.g   = 0.226E+01  gl.gl    = 0.000E+00
 g(Force)  = 0.669E-01   g(Stress)= 0.219E+01 ortho     = 0.000E+00
 gamma     =   0.00000
 trial     =   1.00000
 opt step  =   0.78281  (harmonic =   0.82538) maximal distance =0.03144310
 next E    =   -37.685764   (d E  =  -0.82878)

[...]

 d Force = 0.1038676E-01[ 0.576E-02, 0.150E-01]  d Energy = 0.1167412E+00-0.106E+00
 d Force = 0.3490902E+01[ 0.345E+01, 0.353E+01]  d Ewald  = 0.8975318E+02-0.863E+02

[...]

 Conjugate gradient step on ions:
 trial-energy change:   -0.060864  1 .order   -0.061150   -0.078018   -0.044282
  (g-gl).g = 0.337E-01      g.g   = 0.815E-01  gl.gl    = 0.226E+01
 g(Force)  = 0.572E-02   g(Stress)= 0.758E-01 ortho     = 0.478E-01
 gamma     =   0.01493
 trial     =   0.94902
 opt step  =   2.19476  (harmonic =   2.19476) maximal distance =0.02445685
 next E    =   -37.841410   (d E  =  -0.09021)

[...]

 d Force = 0.1619032E-01[ 0.202E-01, 0.122E-01]  d Energy = 0.2691329E-01-0.107E-01
 d Force = 0.5229727E+01[ 0.522E+01, 0.524E+01]  d Ewald  = 0.3845744E+03-0.379E+03

[...]

 d Force = 0.2608053E-01[-0.110E-01, 0.631E-01]  d Energy = 0.2070552E-01 0.538E-02
 d Force = 0.1640124E+02[ 0.165E+02, 0.163E+02]  d Ewald  = 0.1431793E+03-0.127E+03

 Conjugate gradient step on ions:
 trial-energy change:   -0.020706  1 .order   -0.022617   -0.055775    0.010541
  (g-gl).g = 0.615E-01      g.g   = 0.595E-01  gl.gl    = 0.815E-01
 g(Force)  = 0.534E-01   g(Stress)= 0.610E-02 ortho     =-0.244E-02
 gamma     =   0.75459
 trial     =   0.96768
 opt step  =   0.78863  (harmonic =   0.81387) maximal distance =0.03492920
 next E    =   -37.860666   (d E  =  -0.02169)

[...]

 d Force = 0.8853286E-03[-0.283E-03, 0.205E-02]  d Energy = 0.1013356E-02-0.128E-03
 d Force =-0.3084191E+01[-0.308E+01,-0.309E+01]  d Ewald  =-0.2647846E+02 0.234E+02

[...]

 eigenvalue-minimisations  :  1024
 total energy-change (2. order) : 0.5471315E-03  (-0.1256012E-03)
 number of electron      62.0000001 magnetization       0.0000000
 augmentation part        2.8418908 magnetization       0.0000088

[...]

 eigenvalues of (default mixing * dielectric matrix)
  average eigenvalue GAMMA=   1.1754
  2.1510  1.1591  0.2159

[...]

 d Force =-0.1409658E-04[ 0.816E-05,-0.364E-04]  d Energy = 0.5017282E-03-0.516E-03
 d Force =-0.4083720E+00[-0.409E+00,-0.408E+00]  d Ewald  =-0.3691019E+02 0.365E+02

 Conjugate gradient step on ions:
 trial-energy change:   -0.000502  1 .order   -0.000511   -0.000875   -0.000148
  (g-gl).g =-0.267E-02      g.g   = 0.869E-03  gl.gl    = 0.595E-01
 g(Force)  = 0.318E-04   g(Stress)= 0.837E-03 ortho     =-0.156E-02
 gamma     =  -0.04485
 trial     =   0.93187
 opt step  =   1.12197  (harmonic =   1.12197) maximal distance =0.00126604
 next E    =   -37.861219   (d E  =  -0.00053)

[...]

 Broyden mixing:
  rms(total) = 0.37805E-02    rms(broyden)= 0.37796E-02
  rms(prec ) = 0.45318E-02
  weight for this iteration     100.00

[...]

--------------------------------------- Iteration     10(   2)  ---------------------------------------

[...]

 eigenvalue-minimisations  :   640
 total energy-change (2. order) :-0.4301723E-05  (-0.1188944E-04)
 number of electron      62.0000001 magnetization       0.0000000
 augmentation part        2.8412164 magnetization       0.0000243

 Free energy of the ion-electron system (eV)
  alpha Z        PSCENC =        18.12291226
  Ewald energy   TEWEN  =      7065.98029711
  -Hartree energ DENC   =     -9947.64299405
  -exchange      EXHF   =         0.00000000
  -V(xc)+E(xc)   XCENC  =      -161.56164868
  PAW double counting   =      2089.39555386    -1916.49684309
  entropy T*S    EENTRO =         0.00000000
  eigenvalues    EBANDS =      -372.69823531
  atomic energy  EATOM  =      3187.03958702
  Solvation  Ediel_sol  =         0.00000000
  free energy    TOTEN  =       -37.86137089 eV

  energy without entropy =      -37.86137089  energy(sigma->0) =      -37.86137089

 average (electrostatic) potential at core
  the test charge radii are     1.0452  0.9892  1.1897
  (the norm of the test charge is              1.0000)
       1 -47.6617       2 -47.6617       3 -91.4909       4 -91.4909       5 -96.1934
       6 -96.1934       7 -96.1934       8 -96.1934       9 -96.1934      10 -96.1934

 E-fermi :  -1.7606     XC(G=0):  -3.9568     alpha+bet : -3.5178

[...]

 spin component 2

[...]

 k-point     5 :      -0.4000    0.2000    0.0000
  band No.  band energies     occupation
      1     -13.9008      1.00000
      2     -13.6128      1.00000
      3     -13.1735      1.00000
      4     -12.9596      1.00000
      5     -12.7625      1.00000
      6     -12.5937      1.00000
      7      -9.5654      1.00000
      8      -7.9688      1.00000
      9      -6.5777      1.00000
     10      -6.0716      1.00000
     11      -5.9757      1.00000
     12      -5.4966      1.00000
     13      -5.1926      1.00000
     14      -4.9580      1.00000
     15      -4.6859      1.00000
     16      -4.3402      1.00000
     17      -4.3377      1.00000
     18      -4.1552      1.00000
     19      -4.1536      1.00000
     20      -3.8395      1.00000
     21      -3.8339      1.00000
     22      -3.2457      1.00000
     23      -3.0285      1.00000
     24      -2.8852      1.00000
     25      -2.7391      1.00000
     26      -2.5761      1.00000
     27      -2.4534      1.00000
     28      -2.2966      1.00000
     29      -2.2778      1.00000
     30      -2.2440      1.00000
     31      -2.2396      1.00000
     32      -0.9631      0.00000
     33      -0.8814      0.00000
     34      -0.6825      0.00000
     35      -0.2343      0.00000
     36       0.0752      0.00000
     37       0.5720      0.00000
     38       0.9175      0.00000
     39       1.3504      0.00000
     40       1.8198      0.00000
     41       2.0691      0.00000
     42       2.3596      0.00000
     43       3.0741      0.00000
     44       3.1367      0.00000
     45       3.2295      0.00000
     46       3.2945      0.00000
     47       3.4395      0.00000
     48       3.9139      0.00000

[...]

 soft charge-density along one line, spin component           2
         0         1         2         3         4         5         6         7         8         9
 total charge-density along one line

------------------------ aborting loop because EDIFF is reached ----------------------------------------

[...]

  FORCE on cell =-STRESS in cart. coord.  units (eV):
  Direction    XX          YY          ZZ          XY          YZ          ZX
  Alpha Z    18.12291    18.12291    18.12291
  Ewald    8947.62769  8947.62531-10829.27671    -0.00200    -0.00056    -0.00102
  Hartree  9509.90322  9509.90415 -9068.48348    -0.00031     0.00008     0.00013
  E(xc)    -262.36704  -262.36703  -261.86665     0.00004     0.00002     0.00002
  Local  -19326.78956-19326.78901 18998.35988     0.00201     0.00037     0.00069
  n-local   676.04917   675.40519   683.46208    -0.42646     1.29992     1.50581
  augment   -74.86516   -74.86509   -81.30058     0.00017    -0.00004     0.00009
  Kinetic   516.19774   510.06070   541.69360    -3.93407     0.99446     1.22603
  Fock        0.00000     0.00000     0.00000     0.00000     0.00000     0.00000
  Total       0.48806     0.48806     0.71104     0.00000    -0.00000     0.00000
  in kB       0.94513     0.94513     1.37694     0.00000    -0.00000     0.00000

 VOLUME and BASIS-vectors are now :
  energy-cutoff  :      520.00
  volume of cell :      827.35
      direct lattice vectors                 reciprocal lattice vectors
     6.691358085 -0.000000155 -0.000000000     0.149446491 -0.086282970  0.000000000
     3.345678726  5.794885680  0.000000000     0.000000004  0.172565956 -0.000000000
    -0.000000000  0.000000000 21.336903504     0.000000000 -0.000000000  0.046867157

  length of vectors
     6.691358085  6.691357574 21.336903504     0.172565943  0.172565956  0.046867157

 FORCES acting on ions
    electron-ion (+dipol)            ewald-force                    non-local-force                 convergence-correction
   0.101E-03 0.445E-04 0.119E+01   0.627E-03 0.377E-03 -.121E+01   -.192E-19 0.718E-20 0.259E-01   0.193E-07 -.109E-06 -.990E-04
   -.101E-03 -.445E-04 -.119E+01   -.627E-03 -.377E-03 0.121E+01   -.277E-16 -.139E-16 -.259E-01   -.193E-07 0.109E-06 0.990E-04
   -.308E-04 -.250E-04 0.199E+03   -.152E-03 -.842E-04 -.194E+03   0.281E-16 -.143E-17 -.517E+01   0.288E-08 -.110E-07 -.345E-01
   0.308E-04 0.250E-04 -.199E+03   0.152E-03 0.842E-04 0.194E+03   -.351E-16 0.143E-17 0.517E+01   -.288E-08 0.110E-07 0.345E-01
   -.277E+02 0.163E+00 -.419E+03   0.234E+02 -.157E+00 0.424E+03   0.381E+01 -.163E-01 -.519E+01   0.157E-01 0.832E-04 0.100E+00
   0.140E+02 0.239E+02 -.419E+03   -.118E+02 -.202E+02 0.424E+03   -.192E+01 -.330E+01 -.519E+01   -.780E-02 -.137E-01 0.100E+00
   0.137E+02 -.241E+02 -.419E+03   -.116E+02 0.204E+02 0.424E+03   -.189E+01 0.331E+01 -.519E+01   -.795E-02 0.136E-01 0.100E+00
   0.277E+02 -.163E+00 0.419E+03   -.234E+02 0.157E+00 -.424E+03   -.381E+01 0.163E-01 0.519E+01   -.157E-01 -.832E-04 -.100E+00
   -.140E+02 -.239E+02 0.419E+03   0.118E+02 0.202E+02 -.424E+03   0.192E+01 0.330E+01 0.519E+01   0.780E-02 0.137E-01 -.100E+00
   -.137E+02 0.241E+02 0.419E+03   0.116E+02 -.204E+02 -.424E+03   0.189E+01 -.331E+01 0.519E+01   0.795E-02 -.136E-01 -.100E+00
   0.202E-09 0.184E-09 0.256E-09   0.000E+00 -.711E-14 0.227E-12   -.222E-15 0.000E+00 -.888E-15   0.574E-13 0.657E-13 0.288E-10

 POSITION                                       TOTAL-FORCE (eV/Angst)
      3.34568      1.93163     10.66662        -0.000000      0.000000      0.001037
      6.69136      3.86326     10.67028        -0.000000      0.000000     -0.001037
     -0.00000      0.00000      9.53322        -0.000000      0.000000      0.007680
     -0.00000      0.00000     11.80369         0.000000     -0.000000     -0.007680
      4.19258      0.00243     12.24209        -0.454041     -0.010105     -0.003767
      1.25150      2.16279     12.24209         0.218269      0.398264     -0.003767
      4.59296      3.62967     12.24209         0.235772     -0.388158     -0.003767
      5.84445      5.79245      9.09481         0.454041      0.010105      0.003767
      8.78554      3.63210      9.09481        -0.218269     -0.398264      0.003767
      5.44407      2.16522      9.09481        -0.235772      0.388158      0.003767
    total drift:                                0.000000      0.000000      0.000000

  FREE ENERGIE OF THE ION-ELECTRON SYSTEM (eV)
  free  energy   TOTEN  =       -37.86137089 eV

  energy  without entropy=      -37.86137089  energy(sigma->0) =      -37.86137089

 d Force = 0.2446659E-05[ 0.323E-05, 0.166E-05]  d Energy = 0.1768036E-03-0.174E-03
 d Force =-0.8327966E-01[-0.833E-01,-0.833E-01]  d Ewald  =-0.7546436E+01 0.746E+01

 reached required accuracy - stopping structural energy minimisation

 total charge

[...]

 magnetization (x)

# of ion       s       p       d       tot
    1       -0.000  -0.000  -0.000  -0.000
    2       -0.000  -0.000  -0.000  -0.000
    3        0.000   0.000   0.000   0.000
    4        0.000   0.000   0.000   0.000
    5        0.000   0.000  -0.000   0.000
    6       -0.000   0.000  -0.000   0.000
    7        0.000   0.000  -0.000   0.000
    8        0.000   0.000  -0.000   0.000
    9       -0.000   0.000  -0.000   0.000
   10        0.000   0.000  -0.000   0.000
tot         -0.000   0.000  -0.000  -0.000

 BZINTS: Fermi energy: -1.760647; 62.000000 electrons
         Band energy:-372.698235;  BLOECHL correction:  0.000000