 vasp.5.4.4.18Apr17-6-g9f103f2a35 (build May  1 2020 15:48:39) complex
 executed on             LinuxGNU date 2020.06.30  22:59:24

 INCAR:
 POTCAR:   PAW_PBE Cr 06Sep2000
 POTCAR:   PAW_PBE Si 05Jan2001
 POTCAR:    PAW_PBE P 17Jan2003
 POTCAR:   PAW_PBE Te 08Apr2002

 POTCAR:   PAW_PBE Cr 06Sep2000
   VRHFIN =Cr : d5 s1

   TITEL  = PAW_PBE Cr 06Sep2000
   POMASS =   51.996; ZVAL   =    6.000    mass and valenz
   ENMAX  =  227.082; ENMIN  =  170.311 eV
   QCUT   =   -4.085; QGAM   =    8.171    optimization parameters

   Description
     l     E      TYP  RCUT    TYP  RCUT
     2   .000     23  2.500
     2   .000     23  2.500
     0   .000     23  2.500
     0   .000     23  2.500
     1  -.400     23  2.500
     1  2.000     23  2.500
     3   .000      7   .000

 POTCAR:   PAW_PBE Si 05Jan2001
   VRHFIN =Si: s2p2

   TITEL  = PAW_PBE Si 05Jan2001
   POMASS =   28.085; ZVAL   =    4.000    mass and valenz
   ENMAX  =  245.345; ENMIN  =  184.009 eV
   QCUT   =   -4.246; QGAM   =    8.493    optimization parameters

[...]

 POTCAR:    PAW_PBE P 17Jan2003
   VRHFIN =P : s2p3

   TITEL  = PAW_PBE P 17Jan2003
   POMASS =   30.974; ZVAL   =    5.000    mass and valenz
   ENMAX  =  270.000; ENMIN  =  191.280 eV
   QCUT   =   -4.330; QGAM   =    8.659    optimization parameters

[...]

 POTCAR:   PAW_PBE Te 08Apr2002
   VRHFIN =Te: s2p4

   TITEL  = PAW_PBE Te 08Apr2002
   POMASS =  127.600; ZVAL   =    6.000    mass and valenz
   ENMAX  =  174.982; ENMIN  =  131.236 eV
   QCUT   =   -3.586; QGAM   =    7.172    optimization parameters

   Description
     l     E      TYP  RCUT    TYP  RCUT
     0   .000     23  2.300
     0   .000     23  2.300
     1   .000     23  2.300
     1   .000     23  2.300
     2   .000     23  2.300
     3  -.100     23  2.300

 Optimization of the real space projectors (new method)

 maximal supplied QI-value         = 15.12
 optimisation between [QCUT,QGAM] = [ 11.64, 23.28] = [ 37.95,151.78] Ry
 Optimized for a Real-space Cutoff    1.49 Angstroem

   l    n(q)    QCUT    max X(q) W(low)/X(q) W(high)/X(q)  e(spline)
   2      9    11.641     4.777    0.25E-04    0.21E-05    0.63E-07
   2      9    11.641    31.132    0.13E-03    0.22E-03    0.64E-06
   0     10    11.641    20.416    0.11E-04    0.74E-05    0.19E-07
   0     10    11.641    45.408    0.10E-03    0.85E-04    0.30E-06
   1     10    11.641     7.848    0.22E-04    0.23E-04    0.56E-07
   1     10    11.641     9.895    0.85E-04    0.54E-04    0.16E-06
 Optimization of the real space projectors (new method)

[...]

   l    n(q)    QCUT    max X(q) W(low)/X(q) W(high)/X(q)  e(spline)
   0      8    11.508     6.651    0.19E-04    0.31E-05    0.49E-08
   0      8    11.508    90.285    0.95E-04    0.17E-03    0.51E-07
   1      8    11.508     4.328    0.14E-04    0.32E-04    0.22E-07
   1      8    11.508    54.583    0.16E-03    0.71E-04    0.89E-07
 Optimization of the real space projectors (new method)

 maximal supplied QI-value         = 16.25
 optimisation between [QCUT,QGAM] = [ 11.54, 23.24] = [ 37.28,151.24] Ry
 Optimized for a Real-space Cutoff    1.36 Angstroem

   l    n(q)    QCUT    max X(q) W(low)/X(q) W(high)/X(q)  e(spline)
   0      9    11.539     7.090    0.13E-04    0.25E-05    0.51E-08
   0      9    11.539   101.654    0.53E-04    0.69E-04    0.12E-06
   1      9    11.539     5.276    0.20E-04    0.98E-05    0.24E-07
   1      9    11.539    81.891    0.24E-03    0.13E-04    0.15E-06
   2      9    11.539     5.599    0.30E-04    0.97E-04    0.54E-07

 PAW_PBE Cr 06Sep2000                   :
 PAW_PBE Si 05Jan2001                   :
  PAW_PBE P 17Jan2003                   :
 PAW_PBE Te 08Apr2002                   :

 POSCAR: Cr2 Si P Te6
  positions in direct lattice
  velocities in cartesian coordinates
 exchange correlation table for  LEXCH =       42
   RHO(1)=    0.500       N(1)  =     2000
   RHO(2)=  100.500       N(2)  =     4000

 ion  position               nearest neighbor table
   1  0.333  0.333  0.500-   6 2.78   5 2.78   7 2.78   8 2.78  10 2.78   9 2.78
   2  0.667  0.667  0.500-   9 2.78   8 2.78  10 2.78   5 2.78   7 2.78   6 2.78
   3  0.000  0.000  0.448-   4 2.43   8 2.63  10 2.63   9 2.63
   4  0.000  0.000  0.552-   3 2.43   5 2.63   7 2.63   6 2.63
   5  0.626  0.000  0.574-   4 2.63   1 2.78   2 2.78
   6  0.000  0.373  0.574-   4 2.63   1 2.78   2 2.78
   7  0.373  0.626  0.574-   4 2.63   1 2.78   2 2.78
   8  0.374  1.000  0.426-   3 2.63   2 2.78   1 2.78
   9  1.000  0.627  0.426-   3 2.63   2 2.78   1 2.78
  10  0.627  0.374  0.426-   3 2.63   2 2.78   1 2.78

  LATTYP: Found a hexagonal cell.
 ALAT       =     6.9077769333
 C/A-ratio  =     3.3939410937

  Lattice vectors:

 A1 = (   3.4538890000,  -5.9823100000,   0.0000000000)
 A2 = (  -6.9077770000,   0.0000000000,   0.0000000000)
 A3 = (   0.0000000000,   0.0000000000, -23.4445880000)

Analysis of symmetry for initial positions (statically):
 Subroutine PRICEL returns:
 Original cell was already a primitive cell.

 Routine SETGRP: Setting up the symmetry group for a
 hexagonal supercell.

 Subroutine GETGRP returns: Found  3 space group operations
 (whereof  3 operations were pure point group operations)
 out of a pool of 24 trial point group operations.

The static configuration has the point symmetry C_3 .

Analysis of symmetry for dynamics (positions and initial velocities):
 Subroutine PRICEL returns:
 Original cell was already a primitive cell.

[...]

The dynamic configuration has the point symmetry C_3 .

Analysis of structural, dynamic, and magnetic symmetry:
 Subroutine PRICEL returns:
 Original cell was already a primitive cell.

 Routine SETGRP: Setting up the symmetry group for a
 hexagonal supercell.

 Subroutine GETGRP returns: Found  3 space group operations
 (whereof  3 operations were pure point group operations)
 out of a pool of 24 trial point group operations.

The magnetic configuration has the point symmetry C_3 .

 Subroutine INISYM returns: Found  3 space group operations
 (whereof  3 operations are pure point group operations),
 and found     1 'primitive' translations

 KPOINTS: Kpoints from vasprun.xml

Automatic generation of k-mesh.
Space group operators:
 irot       det(A)        alpha          n_x          n_y          n_z        tau_x        tau_y        tau_z
    1     1.000000     0.000000     1.000000     0.000000     0.000000     0.000000     0.000000     0.000000
    2     1.000000   120.000000     0.000000     0.000000     1.000000     0.000000     0.000000     0.000000
    3     1.000000   120.000000     0.000000     0.000000    -1.000000     0.000000     0.000000     0.000000

 Subroutine IBZKPT returns following result:

 Found      5 irreducible k-points:

 Following reciprocal coordinates:
            Coordinates               Weight
  0.000000  0.000000  0.000000      1.000000
  0.200000  0.000000  0.000000      6.000000
  0.400000  0.000000  0.000000      6.000000
  0.400000  0.200000  0.000000      6.000000
 -0.400000  0.200000  0.000000      6.000000

 Following cartesian coordinates:
            Coordinates               Weight
  0.000000  0.000000  0.000000      1.000000
  0.028953 -0.016716  0.000000      6.000000
  0.057906 -0.033432  0.000000      6.000000
  0.057906  0.000000  0.000000      6.000000
 -0.057906  0.066864  0.000000      6.000000

 TETIRR: Found     15 inequivalent tetrahedra from      150

 SYSTEM =  unknown system
 POSCAR =  Cr2 Si P Te6

 Startparameter for this run:
   NWRITE =      2    write-flag & timer
   PREC   = accura    normal or accurate (medium, high low for compatibility)
   ISTART =      0    job   : 0-new  1-cont  2-samecut
   ICHARG =      2    charge: 1-file 2-atom 10-const
   ISPIN  =      2    spin polarized calculation?
   LNONCOLLINEAR =      F non collinear calculations
   LSORBIT =      F    spin-orbit coupling
   INIWAV =      1    electr: 0-lowe 1-rand  2-diag
   LASPH  =      F    aspherical Exc in radial PAW
   METAGGA=      F    non-selfconsistent MetaGGA calc.

 Electronic Relaxation 1
   ENCUT  =  520.0 eV  38.22 Ry    6.18 a.u.  12.84 12.84 43.59*2*pi/ulx,y,z
   ENINI  =  520.0     initial cutoff
   ENAUG  =  402.1 eV  augmentation charge cutoff
   NELM   =    400;   NELMIN=  2; NELMDL=  0     # of ELM steps
   EDIFF  = 0.1E-03   stopping-criterion for ELM
   LREAL  =      T    real-space projection
   NLSPLINE    = F    spline interpolate recip. space projectors
   LCOMPAT=      F    compatible to vasp.4.4
   GGA_COMPAT  = T    GGA compatible to vasp.4.4-vasp.4.6
   LMAXPAW     = -100 max onsite density
   LMAXMIX     =    2 max onsite mixed and CHGCAR
   VOSKOWN=      0    Vosko Wilk Nusair interpolation
   ROPT   =   -0.00025  -0.00025  -0.00025  -0.00025
 Ionic relaxation
   EDIFFG = 0.1E-02   stopping-criterion for IOM
   NSW    =     99    number of steps for IOM
   NBLOCK =      1;   KBLOCK =     99    inner block; outer block
   IBRION =      2    ionic relax: 0-MD 1-quasi-New 2-CG
   NFREE  =      1    steps in history (QN), initial steepest desc. (CG)
   ISIF   =      3    stress and relaxation
   IWAVPR =     11    prediction:  0-non 1-charg 2-wave 3-comb
   ISYM   =      2    0-nonsym 1-usesym 2-fastsym
   LCORR  =      T    Harris-Foulkes like correction to forces

   POTIM  = 0.5000    time-step for ionic-motion
   TEIN   =    0.0    initial temperature
   TEBEG  =    0.0;   TEEND  =   0.0 temperature during run
   SMASS  =  -3.00    Nose mass-parameter (am)
   estimated Nose-frequenzy (Omega)   =  0.10E-29 period in steps =****** mass=  -0.109E-26a.u.
   SCALEE = 1.0000    scale energy and forces
   NPACO  =    256;   APACO  = 16.0  distance and # of slots for P.C.
   PSTRESS=    0.0 pullay stress

  Mass of Ions in am
   POMASS =  52.00 28.09 30.97127.60
  Ionic Valenz
   ZVAL   =   6.00  4.00  5.00  6.00
  Atomic Wigner-Seitz radii
  virtual crystal weights
   VCA    =   1.00  1.00  1.00  1.00
   NELECT =      57.0000    total number of electrons
   NUPDOWN=      -1.0000    fix difference up-down

 DOS related values:
   EMIN   =  10.00;   EMAX   =-10.00  energy-range for DOS
   EFERMI =   0.00
   ISMEAR =    -5;   SIGMA  =   0.05  broadening in eV -4-tet -1-fermi 0-gaus

 Electronic relaxation 2 (details)
   IALGO  =     38    algorithm
   LDIAG  =      T    sub-space diagonalisation (order eigenvalues)
   LSUBROT=      F    optimize rotation matrix (better conditioning)
   TURBO    =      0    0=normal 1=particle mesh
   IRESTART =      0    0=no restart 2=restart with 2 vectors
   NREBOOT  =      0    no. of reboots
   NMIN     =      0    reboot dimension
   EREF     =   0.00    reference energy to select bands
   IMIX   =      4    mixing-type and parameters
     AMIX     =   0.40;   BMIX     =  1.00
     AMIX_MAG =   1.60;   BMIX_MAG =  1.00
     AMIN     =   0.01
     WC   =   100.;   INIMIX=   1;  MIXPRE=   1;  MAXMIX= -45

 Intra band minimization:
   WEIMIN = 0.0010     energy-eigenvalue tresh-hold
   EBREAK =  0.63E-06  absolut break condition
   DEPER  =   0.30     relativ break condition

   TIME   =   0.40     timestep for ELM

  volume/ion in A,a.u.               =      96.88       653.80
[...]

 VOLUME and BASIS-vectors are now :
  energy-cutoff  :      520.00
  volume of cell :      968.84
      direct lattice vectors                 reciprocal lattice vectors
     6.907777000 -0.000000000  0.000000000     0.144764372 -0.083579742  0.000000000
     3.453888000  5.982310000  0.000000000     0.000000000  0.167159509 -0.000000000
     0.000000000  0.000000000 23.444588000    -0.000000000  0.000000000  0.042653767

[...]

 FORCES acting on ions
    electron-ion (+dipol)            ewald-force                    non-local-force                 convergence-correction
   -.325E-04 -.197E-04 0.606E+01   0.314E-03 0.187E-03 -.600E+01   0.694E-17 0.000E+00 0.911E-01   0.203E-05 0.117E-05 0.188E-02
   0.275E-04 0.233E-04 0.477E+01   -.314E-03 -.187E-03 -.471E+01   0.139E-16 0.000E+00 0.939E-01   -.204E-05 -.118E-05 0.192E-02
   -.306E-04 -.219E-04 0.171E+03   -.141E-03 -.779E-04 -.170E+03   0.486E-16 0.278E-16 0.355E+00   -.342E-06 -.177E-06 -.117E-01
   0.363E-04 0.249E-04 -.196E+03   0.176E-03 0.973E-04 0.197E+03   -.347E-17 -.121E-16 -.162E+01   0.483E-06 0.258E-06 0.201E-01
   0.264E+00 0.150E+00 -.342E+03   -.353E+01 -.143E+00 0.346E+03   0.333E+01 -.125E-01 -.466E+01   0.203E-02 -.258E-02 0.305E-01
   -.282E-02 -.306E+00 -.342E+03   0.164E+01 0.313E+01 0.346E+03   -.167E+01 -.287E+01 -.466E+01   -.325E-02 -.462E-03 0.305E-01
   -.264E+00 0.154E+00 -.342E+03   0.189E+01 -.298E+01 0.346E+03   -.165E+01 0.289E+01 -.466E+01   0.123E-02 0.305E-02 0.305E-01
   0.664E+01 -.154E+00 0.347E+03   -.308E+01 0.150E+00 -.352E+03   -.404E+01 0.154E-01 0.462E+01   -.123E-02 -.256E-02 -.264E-01
   -.345E+01 -.567E+01 0.347E+03   0.167E+01 0.259E+01 -.352E+03   0.203E+01 0.349E+01 0.462E+01   -.160E-02 0.234E-02 -.264E-01
   -.318E+01 0.583E+01 0.347E+03   0.141E+01 -.274E+01 -.352E+03   0.201E+01 -.350E+01 0.462E+01   0.283E-02 0.218E-03 -.264E-01
   0.101E-04 -.737E-05 0.120E+01   0.142E-13 0.533E-14 0.568E-13   0.444E-15 0.000E+00 -.122E+01   0.125E-06 0.614E-07 0.245E-01

 POSITION                                       TOTAL-FORCE (eV/Angst)
      3.45388      1.99410     11.72054         0.000000      0.000000      0.155147
      6.90778      3.98821     11.72405         0.000000      0.000000      0.160331
      0.00000      0.00000     10.50824         0.000000      0.000000      0.997350
      0.00000      0.00000     12.93635         0.000000      0.000000     -0.706945
      4.32819      0.00251     13.45138         0.065925     -0.007153     -0.331715
      1.29198      2.23274     13.45138        -0.039157     -0.053517     -0.331715
      4.74152      3.74706     13.45138        -0.026768      0.060669     -0.331715
      6.03348      5.97980      9.99321        -0.484016      0.008261      0.129754
      9.06969      3.74957      9.99321         0.249162      0.415040      0.129754
      5.62015      2.23525      9.99321         0.234854     -0.423301      0.129754
    total drift:                                0.000010     -0.000007     -0.000625

  FREE ENERGIE OF THE ION-ELECTRON SYSTEM (eV)
  free  energy   TOTEN  =       -43.55989937 eV

  energy  without entropy=      -43.55989937  energy(sigma->0) =      -43.55989937

[...]

 d Force = 0.7602691E-01[ 0.273E-01, 0.125E+00]  d Energy = 0.1607194E+00-0.847E-01
 d Force =-0.3807349E+02[-0.389E+02,-0.372E+02]  d Ewald  =-0.1660001E+03 0.128E+03

 Steepest descent step on ions:
 trial-energy change:   -0.160719  1 .order   -0.152748   -0.395744    0.090248
  (g-gl).g = 0.396E+00      g.g   = 0.396E+00  gl.gl    = 0.000E+00
 g(Force)  = 0.127E+00   g(Stress)= 0.268E+00 ortho     = 0.000E+00
 gamma     =   0.00000
 trial     =   1.00000
 opt step  =   0.82830  (harmonic =   0.81430) maximal distance =0.03985342
 next E    =   -43.728326   (d E  =  -0.16843)

[...]

 d Force =-0.6649516E-02[-0.849E-02,-0.481E-02]  d Energy = 0.8349846E-02-0.150E-01
 d Force = 0.6824146E+01[ 0.680E+01, 0.685E+01]  d Ewald  = 0.2913398E+02-0.223E+02

[...]

 d Force = 0.2767568E-01[ 0.161E-01, 0.392E-01]  d Energy = 0.3075280E-01-0.308E-02
 d Force = 0.5186737E+00[ 0.525E+00, 0.513E+00]  d Ewald  = 0.4449341E+02-0.440E+02

 Conjugate gradient step on ions:
 trial-energy change:   -0.030753  1 .order   -0.031209   -0.044149   -0.018269
  (g-gl).g = 0.493E-01      g.g   = 0.461E-01  gl.gl    = 0.396E+00
 g(Force)  = 0.345E-01   g(Stress)= 0.117E-01 ortho     =-0.320E-02
 gamma     =   0.12463
 trial     =   0.96566
 opt step  =   1.81686  (harmonic =   1.64734) maximal distance =0.05589169
 next E    =   -43.767461   (d E  =  -0.03849)

[...]

 d Force = 0.4392286E-02[-0.543E-02, 0.142E-01]  d Energy = 0.4709331E-02-0.317E-03
 d Force = 0.4648691E+00[ 0.467E+00, 0.463E+00]  d Ewald  = 0.3892868E+02-0.385E+02

[...]

 d Force = 0.6884510E-03[-0.276E-03, 0.165E-02]  d Energy = 0.1020076E-02-0.332E-03
 d Force =-0.1412995E+00[-0.141E+00,-0.141E+00]  d Ewald  =-0.1175093E+02 0.116E+02

[...]

 d Force = 0.1748150E-01[ 0.108E-01, 0.242E-01]  d Energy = 0.1908692E-01-0.161E-02
 d Force = 0.8535656E+01[ 0.853E+01, 0.854E+01]  d Ewald  =-0.1771256E+02 0.262E+02

[...]

 d Force = 0.9102815E-02[ 0.826E-02, 0.995E-02]  d Energy = 0.2806004E-02 0.630E-02
 d Force = 0.6156155E+00[ 0.694E+00, 0.537E+00]  d Ewald  = 0.3138806E+02-0.308E+02

 Conjugate gradient step on ions:
 trial-energy change:   -0.002806  1 .order   -0.007704   -0.019990    0.004582
  (g-gl).g = 0.121E-01      g.g   = 0.143E-01  gl.gl    = 0.241E-01
 g(Force)  = 0.664E-02   g(Stress)= 0.769E-02 ortho     = 0.409E-02
 gamma     =   0.50264
 trial     =   1.22016
 opt step  =   0.62812  (harmonic =   0.99264) maximal distance =0.01046347
 next E    =   -43.793614   (d E  =  -0.00448)

[...]

 d Force =-0.4139830E-02[-0.430E-02,-0.398E-02]  d Energy = 0.7760021E-03-0.492E-02
 d Force =-0.3163536E+00[-0.298E+00,-0.335E+00]  d Ewald  =-0.1521068E+02 0.149E+02

[...]

 d Force = 0.1200876E-01[ 0.109E-01, 0.131E-01]  d Energy = 0.1197586E-01 0.329E-04
 d Force =-0.8222067E+01[-0.811E+01,-0.833E+01]  d Ewald  = 0.3306632E+02-0.413E+02

[...]

 d Force = 0.2129773E-01[ 0.101E-01, 0.325E-01]  d Energy = 0.1159106E-01 0.971E-02
 d Force =-0.2323279E+02[-0.222E+02,-0.242E+02]  d Ewald  = 0.9957037E+02-0.123E+03

[...]

 Conjugate gradient step on ions:
 trial-energy change:   -0.007532  1 .order   -0.007416   -0.009137   -0.005695
  (g-gl).g = 0.246E-01      g.g   = 0.276E-01  gl.gl    = 0.123E-01
 g(Force)  = 0.118E-01   g(Stress)= 0.158E-01 ortho     =-0.578E-03
 gamma     =   1.99633
 trial     =   0.34569
 opt step  =   0.91763  (harmonic =   0.91763) maximal distance =0.04666309
 next E    =   -43.828413   (d E  =  -0.01213)

[...]

 d Force = 0.4265741E-02[ 0.356E-02, 0.497E-02]  d Energy = 0.6178198E-02-0.191E-02
 d Force = 0.4422803E+01[ 0.443E+01, 0.441E+01]  d Ewald  =-0.1246461E+02 0.169E+02

 Conjugate gradient step on ions:
 trial-energy change:   -0.006178  1 .order   -0.005638   -0.006295   -0.004982
  (g-gl).g = 0.585E-02      g.g   = 0.130E-01  gl.gl    = 0.276E-01
 g(Force)  = 0.932E-02   g(Stress)= 0.363E-02 ortho     = 0.345E-02
 gamma     =   0.21208
 trial     =   0.46007
 opt step  =   1.84030  (harmonic =   2.20564) maximal distance =0.03604599
 next E    =   -43.844110   (d E  =  -0.01509)

[...]

 d Force = 0.4146154E-02[-0.243E-02, 0.107E-01]  d Energy = 0.4928425E-02-0.782E-03
 d Force = 0.1340339E+02[ 0.135E+02, 0.133E+02]  d Ewald  =-0.3727281E+02 0.507E+02

[...]

 Steepest descent step on ions:
 trial-energy change:   -0.002798  1 .order   -0.002954   -0.004650   -0.001258
  (g-gl).g = 0.953E-02      g.g   = 0.632E-02  gl.gl    = 0.130E-01
 g(Force)  = 0.550E-02   g(Stress)= 0.821E-03 ortho     =-0.255E-02
 gamma     =   0.00000
 trial     =   0.73612
 opt step  =   1.00911  (harmonic =   1.00911) maximal distance =0.01161881
 next E    =   -43.843314   (d E  =  -0.00319)

[...]

 eigenvalue-minimisations  :   832
 total energy-change (2. order) : 0.1221126E-03  (-0.3427915E-04)
 number of electron      56.9999996 magnetization       5.4260495
 augmentation part       -2.6473510 magnetization       4.1188459

 Broyden mixing:
  rms(total) = 0.40666E-02    rms(broyden)= 0.40666E-02
  rms(prec ) = 0.44359E-02
  weight for this iteration     100.00

 eigenvalues of (default mixing * dielectric matrix)
  average eigenvalue GAMMA=   0.6038
  0.8709  0.3368

[...]

--------------------------------------- Iteration     18(   4)  ---------------------------------------

[...]

 eigenvalue-minimisations  :   584
 total energy-change (2. order) :-0.4464843E-04  (-0.8916946E-05)
 number of electron      56.9999996 magnetization       5.4260495
 augmentation part       -2.6473510 magnetization       4.1188459

 Free energy of the ion-electron system (eV)
  alpha Z        PSCENC =        11.73015119
  Ewald energy   TEWEN  =      6249.67090734
  -Hartree energ DENC   =     -8196.28276500
  -exchange      EXHF   =         0.00000000
  -V(xc)+E(xc)   XCENC  =      -217.96099425
  PAW double counting   =      1236.62332976     -929.08783669
  entropy T*S    EENTRO =         0.00000000
  eigenvalues    EBANDS =      -381.40352564
  atomic energy  EATOM  =      2182.86754148
  Solvation  Ediel_sol  =         0.00000000
  free energy    TOTEN  =       -43.84319182 eV

  energy without entropy =      -43.84319182  energy(sigma->0) =      -43.84319182

 average (electrostatic) potential at core
  the test charge radii are     1.1394  0.9892  0.9587  1.1897
  (the norm of the test charge is              1.0000)
       1 -50.4604       2 -50.4575       3 -92.2386       4 -91.4477       5 -96.4817
       6 -96.4817       7 -96.4817       8 -96.2271       9 -96.2271      10 -96.2270

 E-fermi :  -1.6029     XC(G=0):  -3.4942     alpha+bet : -3.2028

[...]

 spin component 2

[...]

 k-point     5 :      -0.4000    0.2000    0.0000
  band No.  band energies     occupation
      1     -14.6798      1.00000
      2     -13.6308      1.00000
      3     -13.4042      1.00000
      4     -13.2959      1.00000
      5     -12.9760      1.00000
      6     -12.8389      1.00000
      7     -11.1984      1.00000
      8      -8.7507      1.00000
      9      -6.7554      1.00000
     10      -6.3130      1.00000
     11      -6.2169      1.00000
     12      -5.7050      1.00000
     13      -5.5478      1.00000
     14      -5.0939      1.00000
     15      -4.8083      1.00000
     16      -4.6501      1.00000
     17      -4.5205      1.00000
     18      -4.1325      1.00000
     19      -4.0399      1.00000
     20      -3.9509      1.00000
     21      -3.6301      1.00000
     22      -3.4641      1.00000
     23      -3.1950      1.00000
     24      -3.0587      1.00000
     25      -3.0177      1.00000
     26      -2.3797      1.00000
     27      -1.0852      0.00000
     28      -0.9419      0.00000
     29      -0.8680      0.00000
     30      -0.3431      0.00000
     31      -0.3092      0.00000
     32      -0.2800      0.00000
     33       0.0587      0.00000
     34       0.0712      0.00000
     35       0.3057      0.00000
     36       0.5720      0.00000
     37       0.5963      0.00000
     38       0.9626      0.00000
     39       1.0173      0.00000
     40       1.4767      0.00000

[...]

 soft charge-density along one line, spin component           2
         0         1         2         3         4         5         6         7         8         9
 total charge-density along one line

------------------------ aborting loop because EDIFF is reached ----------------------------------------

[...]

  FORCE on cell =-STRESS in cart. coord.  units (eV):
  Direction    XX          YY          ZZ          XY          YZ          ZX
  Alpha Z    11.73015    11.73015    11.73015
  Ewald    7751.22281  7751.22051 -9252.77452    -0.00103    -0.00042    -0.00077
  Hartree  8058.52725  8058.52764 -7921.18395     0.00001     0.00006     0.00009
  E(xc)    -226.76964  -226.76962  -226.77827     0.00001     0.00002     0.00002
  Local  -16693.91647-16693.91544 16254.67413     0.00076     0.00027     0.00049
  n-local   737.91749   737.83218   754.69936    -0.09238     0.49144     0.53542
  augment  -115.68969  -115.68960  -123.18257     0.00001     0.00002     0.00002
  Kinetic   480.74889   473.16584   502.88360    -4.91337     0.06244    -0.09532
  Fock        0.00000     0.00000     0.00000     0.00000     0.00000     0.00000
  Total      -0.06378    -0.06378     0.06794     0.00000     0.00000     0.00000
  in kB      -0.10946    -0.10946     0.11658     0.00000     0.00000     0.00000

 VOLUME and BASIS-vectors are now :
  energy-cutoff  :      520.00
  volume of cell :      933.66
      direct lattice vectors                 reciprocal lattice vectors
     6.841571303 -0.000000163  0.000000000     0.146165251 -0.084388545 -0.000000000
     3.420785308  5.924974115  0.000000000     0.000000004  0.168777106 -0.000000000
     0.000000000  0.000000000 23.032825114    -0.000000000 -0.000000000  0.043416298

  length of vectors
     6.841571303  6.841570754 23.032825114     0.168777093  0.168777106  0.043416298

 FORCES acting on ions
    electron-ion (+dipol)            ewald-force                    non-local-force                 convergence-correction
   -.663E-04 -.404E-04 0.211E+02   0.322E-03 0.191E-03 -.212E+02   -.690E-17 0.139E-16 0.133E+00   0.172E-06 -.276E-07 -.354E-02
   0.584E-04 0.383E-04 0.215E+02   -.346E-03 -.204E-03 -.217E+02   0.381E-19 0.308E-19 0.139E+00   0.969E-07 -.443E-07 -.322E-02
   -.224E-04 -.133E-04 0.144E+03   -.119E-03 -.653E-04 -.143E+03   0.657E-17 -.298E-18 -.134E+01   -.871E-07 -.611E-07 0.130E-02
   0.478E-04 0.177E-04 -.235E+03   0.196E-03 0.108E-03 0.236E+03   0.991E-17 -.735E-17 -.183E+01   -.220E-06 -.120E-06 -.197E-02
   0.110E+01 0.113E-01 -.342E+03   -.453E+01 -.470E-02 0.347E+03   0.339E+01 0.344E-02 -.422E+01   -.145E-02 -.997E-02 -.134E-01
   -.540E+00 -.958E+00 -.342E+03   0.226E+01 0.393E+01 0.347E+03   -.169E+01 -.294E+01 -.422E+01   -.791E-02 0.624E-02 -.134E-01
   -.561E+00 0.945E+00 -.342E+03   0.227E+01 -.392E+01 0.347E+03   -.170E+01 0.294E+01 -.422E+01   0.936E-02 0.373E-02 -.134E-01
   0.398E+01 0.285E-01 0.359E+03   -.829E+00 -.159E-01 -.364E+03   -.316E+01 -.378E-02 0.486E+01   0.194E-02 -.931E-02 0.141E-01
   -.196E+01 -.346E+01 0.359E+03   0.401E+00 0.726E+00 -.364E+03   0.158E+01 0.274E+01 0.486E+01   -.903E-02 0.297E-02 0.141E-01
   -.201E+01 0.343E+01 0.359E+03   0.428E+00 -.710E+00 -.364E+03   0.158E+01 -.273E+01 0.486E+01   0.709E-02 0.633E-02 0.141E-01
   0.553E-05 0.543E-04 0.983E+00   -.114E-13 0.844E-14 -.568E-13   0.444E-15 0.000E+00 -.966E+00   0.414E-07 -.194E-06 -.538E-02

 POSITION                                       TOTAL-FORCE (eV/Angst)
      3.42078      1.97499     11.45598        -0.000000     -0.000000     -0.028959
      6.84157      3.94998     11.45414         0.000000     -0.000000     -0.024029
      0.00000      0.00000     10.57307        -0.000000      0.000000     -0.005079
      0.00000      0.00000     12.84464         0.000000      0.000000      0.039624
      4.23478     -0.00051     13.15391        -0.040617      0.000645      0.021893
      1.30295      2.25781     13.15391         0.020867      0.034853      0.021893
      4.72463      3.66768     13.15391         0.019750     -0.035497      0.021893
      2.42494      0.00074      9.79153        -0.009802     -0.001057     -0.015745
      2.20895      3.82454      9.79153         0.003986      0.009017     -0.015745
      5.62845      2.09969      9.79153         0.005816     -0.007961     -0.015745
    total drift:                                0.000006      0.000054      0.011668

  FREE ENERGIE OF THE ION-ELECTRON SYSTEM (eV)
  free  energy   TOTEN  =       -43.84319182 eV

  energy  without entropy=      -43.84319182  energy(sigma->0) =      -43.84319182

 d Force = 0.2248314E-03[ 0.384E-05, 0.446E-03]  d Energy = 0.2669656E-03-0.421E-04
 d Force =-0.9138580E+00[-0.914E+00,-0.914E+00]  d Ewald  =-0.1900225E+01 0.986E+00

 reached required accuracy - stopping structural energy minimisation

 total charge

[...]

 magnetization (x)

# of ion       s       p       d       tot
    1        0.041   0.045   2.899   2.985
    2        0.041   0.045   2.900   2.986
    3        0.004   0.021   0.000   0.025
    4       -0.023   0.006   0.000  -0.017
    5       -0.003  -0.120   0.004  -0.119
    6       -0.003  -0.116   0.004  -0.115
    7       -0.004  -0.127   0.004  -0.127
    8       -0.001  -0.094   0.005  -0.091
    9       -0.002  -0.077   0.005  -0.074
   10       -0.002  -0.090   0.005  -0.087
tot          0.048  -0.506   5.825   5.367

 BZINTS: Fermi energy: -1.602925; 57.000000 electrons
         Band energy:-381.403526;  BLOECHL correction: -0.026806