 vasp.5.4.4.18Apr17-6-g9f103f2a35 (build May  1 2020 15:48:39) complex
 executed on             LinuxGNU date 2020.07.06  10:32:31

 INCAR:
 POTCAR:   PAW_PBE Fe 06Sep2000
 POTCAR:   PAW_PBE Si 05Jan2001
 POTCAR:    PAW_PBE P 17Jan2003
 POTCAR:   PAW_PBE Se 06Sep2000

 POTCAR:   PAW_PBE Fe 06Sep2000
   VRHFIN =Fe:  d7 s1

   TITEL  = PAW_PBE Fe 06Sep2000
   POMASS =   55.847; ZVAL   =    8.000    mass and valenz
   ENMAX  =  267.883; ENMIN  =  200.912 eV
   QCUT   =   -4.437; QGAM   =    8.874    optimization parameters

   Description
     l     E      TYP  RCUT    TYP  RCUT
     2   .000     23  2.300
     2   .000     23  2.300
     0   .000     23  2.300
     0   .000     23  2.300
     1  -.200     23  2.300
     1   .000     23  2.300
     3   .000      7   .000

 POTCAR:   PAW_PBE Si 05Jan2001
   VRHFIN =Si: s2p2

   TITEL  = PAW_PBE Si 05Jan2001
   POMASS =   28.085; ZVAL   =    4.000    mass and valenz
   ENMAX  =  245.345; ENMIN  =  184.009 eV
   QCUT   =   -4.246; QGAM   =    8.493    optimization parameters

[...]

 POTCAR:    PAW_PBE P 17Jan2003
   VRHFIN =P : s2p3

   TITEL  = PAW_PBE P 17Jan2003
   POMASS =   30.974; ZVAL   =    5.000    mass and valenz
   ENMAX  =  270.000; ENMIN  =  191.280 eV
   QCUT   =   -4.330; QGAM   =    8.659    optimization parameters

[...]

 POTCAR:   PAW_PBE Se 06Sep2000
   VRHFIN =Se: s2p4

   TITEL  = PAW_PBE Se 06Sep2000
   POMASS =   78.960; ZVAL   =    6.000    mass and valenz
   ENMAX  =  211.534; ENMIN  =  158.651 eV
   QCUT   =   -3.943; QGAM   =    7.886    optimization parameters

   Description
     l     E      TYP  RCUT    TYP  RCUT
     0   .000     23  2.100
     0   .000     23  2.100
     1   .000     23  2.100
     1   .000     23  2.100
     2   .000     23  2.100
     3  -.100      7  2.100

 Optimization of the real space projectors (new method)

 maximal supplied QI-value         = 16.25
 optimisation between [QCUT,QGAM] = [ 11.54, 23.24] = [ 37.28,151.24] Ry
 Optimized for a Real-space Cutoff    1.53 Angstroem

   l    n(q)    QCUT    max X(q) W(low)/X(q) W(high)/X(q)  e(spline)
   2     10    11.539     4.378    0.86E-05    0.15E-04    0.46E-07
   2     10    11.539    23.237    0.11E-03    0.14E-03    0.22E-06
   0     11    11.539    17.641    0.19E-04    0.14E-05    0.18E-07
   0     11    11.539    50.908    0.43E-04    0.16E-04    0.30E-06
   1     10    11.539     6.148    0.11E-04    0.38E-05    0.26E-07
   1     10    11.539     8.345    0.44E-04    0.25E-04    0.11E-06
 Optimization of the real space projectors (new method)

[...]

   l    n(q)    QCUT    max X(q) W(low)/X(q) W(high)/X(q)  e(spline)
   0      8    11.508     6.651    0.19E-04    0.31E-05    0.49E-08
   0      8    11.508    90.285    0.95E-04    0.17E-03    0.51E-07
   1      8    11.508     4.328    0.14E-04    0.32E-04    0.22E-07
   1      8    11.508    54.583    0.16E-03    0.71E-04    0.89E-07
 Optimization of the real space projectors (new method)

 maximal supplied QI-value         = 17.95
 optimisation between [QCUT,QGAM] = [ 11.67, 23.34] = [ 38.13,152.52] Ry
 Optimized for a Real-space Cutoff    1.25 Angstroem

   l    n(q)    QCUT    max X(q) W(low)/X(q) W(high)/X(q)  e(spline)
   0      9    11.669     6.499    0.13E-04    0.81E-05    0.11E-07
   0      9    11.669    52.623    0.18E-03    0.46E-04    0.72E-07
   1      8    11.669     4.229    0.40E-04    0.45E-04    0.31E-07
   1      8    11.669    29.991    0.22E-03    0.36E-03    0.10E-06
   2      8    11.669     3.719    0.19E-03    0.46E-04    0.50E-07

 PAW_PBE Fe 06Sep2000                   :
 PAW_PBE Si 05Jan2001                   :
  PAW_PBE P 17Jan2003                   :
 PAW_PBE Se 06Sep2000                   :

 POSCAR: Fe2 Si P Se6
  positions in direct lattice
  velocities in cartesian coordinates
 exchange correlation table for  LEXCH =       42
   RHO(1)=    0.500       N(1)  =     2000
   RHO(2)=  100.500       N(2)  =     4000

 ion  position               nearest neighbor table
   1  0.333  0.333  0.500-   6 2.78   5 2.78   7 2.78   8 2.78  10 2.78   9 2.78
   2  0.667  0.667  0.500-   9 2.78   8 2.78  10 2.78   5 2.78   7 2.78   6 2.78
   3  0.000  0.000  0.448-   4 2.43   8 2.63  10 2.63   9 2.63
   4  0.000  0.000  0.552-   3 2.43   5 2.63   7 2.63   6 2.63
   5  0.626  0.000  0.574-   4 2.63   1 2.78   2 2.78
   6  0.000  0.373  0.574-   4 2.63   1 2.78   2 2.78
   7  0.373  0.626  0.574-   4 2.63   1 2.78   2 2.78
   8  0.374  1.000  0.426-   3 2.63   2 2.78   1 2.78
   9  1.000  0.627  0.426-   3 2.63   2 2.78   1 2.78
  10  0.627  0.374  0.426-   3 2.63   2 2.78   1 2.78

  LATTYP: Found a hexagonal cell.
 ALAT       =     6.9077769333
 C/A-ratio  =     3.3939410937

  Lattice vectors:

 A1 = (   3.4538890000,  -5.9823100000,   0.0000000000)
 A2 = (  -6.9077770000,   0.0000000000,   0.0000000000)
 A3 = (   0.0000000000,   0.0000000000, -23.4445880000)

Analysis of symmetry for initial positions (statically):
 Subroutine PRICEL returns:
 Original cell was already a primitive cell.

 Routine SETGRP: Setting up the symmetry group for a
 hexagonal supercell.

 Subroutine GETGRP returns: Found  3 space group operations
 (whereof  3 operations were pure point group operations)
 out of a pool of 24 trial point group operations.

The static configuration has the point symmetry C_3 .

Analysis of symmetry for dynamics (positions and initial velocities):
 Subroutine PRICEL returns:
 Original cell was already a primitive cell.

[...]

The dynamic configuration has the point symmetry C_3 .

Analysis of constrained symmetry for selective dynamics:
 Subroutine PRICEL returns:
 Original cell was already a primitive cell.

[...]

The constrained configuration has the point symmetry C_3 .

Analysis of structural, dynamic, and magnetic symmetry:
 Subroutine PRICEL returns:
 Original cell was already a primitive cell.

 Routine SETGRP: Setting up the symmetry group for a
 hexagonal supercell.

 Subroutine GETGRP returns: Found  3 space group operations
 (whereof  3 operations were pure point group operations)
 out of a pool of 24 trial point group operations.

The magnetic configuration has the point symmetry C_3 .

 Subroutine INISYM returns: Found  3 space group operations
 (whereof  3 operations are pure point group operations),
 and found     1 'primitive' translations

 KPOINTS: Kpoints from vasprun.xml

Automatic generation of k-mesh.
Space group operators:
 irot       det(A)        alpha          n_x          n_y          n_z        tau_x        tau_y        tau_z
    1     1.000000     0.000000     1.000000     0.000000     0.000000     0.000000     0.000000     0.000000
    2     1.000000   120.000000     0.000000     0.000000     1.000000     0.000000     0.000000     0.000000
    3     1.000000   120.000000     0.000000     0.000000    -1.000000     0.000000     0.000000     0.000000

 Subroutine IBZKPT returns following result:

 Found      5 irreducible k-points:

 Following reciprocal coordinates:
            Coordinates               Weight
  0.000000  0.000000  0.000000      1.000000
  0.200000  0.000000  0.000000      6.000000
  0.400000  0.000000  0.000000      6.000000
  0.400000  0.200000  0.000000      6.000000
 -0.400000  0.200000  0.000000      6.000000

 Following cartesian coordinates:
            Coordinates               Weight
  0.000000  0.000000  0.000000      1.000000
  0.028953 -0.016716  0.000000      6.000000
  0.057906 -0.033432  0.000000      6.000000
  0.057906  0.000000  0.000000      6.000000
 -0.057906  0.066864  0.000000      6.000000

 TETIRR: Found     15 inequivalent tetrahedra from      150

 SYSTEM =  unknown system
 POSCAR =  Fe2 Si P Se6

 Startparameter for this run:
   NWRITE =      2    write-flag & timer
   PREC   = accura    normal or accurate (medium, high low for compatibility)
   ISTART =      0    job   : 0-new  1-cont  2-samecut
   ICHARG =      2    charge: 1-file 2-atom 10-const
   ISPIN  =      2    spin polarized calculation?
   LNONCOLLINEAR =      F non collinear calculations
   LSORBIT =      F    spin-orbit coupling
   INIWAV =      1    electr: 0-lowe 1-rand  2-diag
   LASPH  =      F    aspherical Exc in radial PAW
   METAGGA=      F    non-selfconsistent MetaGGA calc.

 Electronic Relaxation 1
   ENCUT  =  520.0 eV  38.22 Ry    6.18 a.u.  12.84 12.84 43.59*2*pi/ulx,y,z
   ENINI  =  520.0     initial cutoff
   ENAUG  =  511.4 eV  augmentation charge cutoff
   NELM   =    400;   NELMIN=  2; NELMDL=  0     # of ELM steps
   EDIFF  = 0.1E-03   stopping-criterion for ELM
   LREAL  =      T    real-space projection
   NLSPLINE    = F    spline interpolate recip. space projectors
   LCOMPAT=      F    compatible to vasp.4.4
   GGA_COMPAT  = T    GGA compatible to vasp.4.4-vasp.4.6
   LMAXPAW     = -100 max onsite density
   LMAXMIX     =    2 max onsite mixed and CHGCAR
   VOSKOWN=      0    Vosko Wilk Nusair interpolation
   ROPT   =   -0.00025  -0.00025  -0.00025  -0.00025
 Ionic relaxation
   EDIFFG = 0.1E-02   stopping-criterion for IOM
   NSW    =     99    number of steps for IOM
   NBLOCK =      1;   KBLOCK =     99    inner block; outer block
   IBRION =      2    ionic relax: 0-MD 1-quasi-New 2-CG
   NFREE  =      1    steps in history (QN), initial steepest desc. (CG)
   ISIF   =      3    stress and relaxation
   IWAVPR =     11    prediction:  0-non 1-charg 2-wave 3-comb
   ISYM   =      2    0-nonsym 1-usesym 2-fastsym
   LCORR  =      T    Harris-Foulkes like correction to forces

   POTIM  = 0.5000    time-step for ionic-motion
   TEIN   =    0.0    initial temperature
   TEBEG  =    0.0;   TEEND  =   0.0 temperature during run
   SMASS  =  -3.00    Nose mass-parameter (am)
   estimated Nose-frequenzy (Omega)   =  0.10E-29 period in steps =****** mass=  -0.109E-26a.u.
   SCALEE = 1.0000    scale energy and forces
   NPACO  =    256;   APACO  = 16.0  distance and # of slots for P.C.
   PSTRESS=    0.0 pullay stress

  Mass of Ions in am
   POMASS =  55.85 28.09 30.97 78.96
  Ionic Valenz
   ZVAL   =   8.00  4.00  5.00  6.00
  Atomic Wigner-Seitz radii
  virtual crystal weights
   VCA    =   1.00  1.00  1.00  1.00
   NELECT =      61.0000    total number of electrons
   NUPDOWN=      -1.0000    fix difference up-down

 DOS related values:
   EMIN   =  10.00;   EMAX   =-10.00  energy-range for DOS
   EFERMI =   0.00
   ISMEAR =    -5;   SIGMA  =   0.05  broadening in eV -4-tet -1-fermi 0-gaus

 Electronic relaxation 2 (details)
   IALGO  =     38    algorithm
   LDIAG  =      T    sub-space diagonalisation (order eigenvalues)
   LSUBROT=      F    optimize rotation matrix (better conditioning)
   TURBO    =      0    0=normal 1=particle mesh
   IRESTART =      0    0=no restart 2=restart with 2 vectors
   NREBOOT  =      0    no. of reboots
   NMIN     =      0    reboot dimension
   EREF     =   0.00    reference energy to select bands
   IMIX   =      4    mixing-type and parameters
     AMIX     =   0.40;   BMIX     =  1.00
     AMIX_MAG =   1.60;   BMIX_MAG =  1.00
     AMIN     =   0.01
     WC   =   100.;   INIMIX=   1;  MIXPRE=   1;  MAXMIX= -45

 Intra band minimization:
   WEIMIN = 0.0010     energy-eigenvalue tresh-hold
   EBREAK =  0.52E-06  absolut break condition
[...]
   -.338E-04 -.290E-04 0.186E+03   -.141E-03 -.779E-04 -.184E+03   0.278E-16 0.000E+00 -.108E+01   -.611E-06 -.328E-06 0.722E-02
   0.359E-04 0.238E-04 -.216E+03   0.176E-03 0.974E-04 0.215E+03   -.173E-17 0.000E+00 0.697E+00   0.615E-06 0.363E-06 0.928E-02
   -.679E+01 0.282E+00 -.386E+03   0.589E+01 -.145E+00 0.388E+03   0.186E+01 -.729E-02 -.237E+01   0.108E-01 -.132E+00 0.129E-01
   0.364E+01 0.574E+01 -.386E+03   -.307E+01 -.503E+01 0.388E+03   -.935E+00 -.160E+01 -.237E+01   -.119E+00 0.565E-01 0.129E-01
   0.315E+01 -.602E+01 -.386E+03   -.282E+01 0.517E+01 0.388E+03   -.922E+00 0.161E+01 -.237E+01   0.109E+00 0.752E-01 0.128E-01
   0.136E+02 -.193E-01 0.392E+03   -.125E+02 0.152E+00 -.393E+03   -.239E+01 0.839E-02 0.251E+01   -.140E-01 -.131E+00 0.120E-02
   -.683E+01 -.118E+02 0.392E+03   0.638E+01 0.107E+02 -.393E+03   0.120E+01 0.207E+01 0.251E+01   -.106E+00 0.777E-01 0.120E-02
   -.679E+01 0.118E+02 0.392E+03   0.612E+01 -.109E+02 -.393E+03   0.119E+01 -.208E+01 0.251E+01   0.120E+00 0.533E-01 0.120E-02
   0.228E-04 0.326E-04 -.379E+00   0.799E-14 -.355E-14 -.568E-13   0.444E-15 0.000E+00 0.272E+00   -.184E-05 -.106E-05 0.108E+00

 POSITION                                       TOTAL-FORCE (eV/Angst)
      3.45388      1.99410     11.72054         0.000000      0.000000      0.069574
      6.90778      3.98821     11.72405        -0.000000      0.000000      0.064289
      0.00000      0.00000     10.50824        -0.000000      0.000000      0.296307
      0.00000      0.00000     12.93635        -0.000000      0.000000     -0.141453
      4.32819      0.00251     13.45138         0.963079     -0.000446     -1.060494
      1.29198      2.23274     13.45138        -0.481926     -0.833828     -1.060494
      4.74152      3.74706     13.45138        -0.481153      0.834274     -1.060494
      6.03348      5.97980      9.99321        -1.280809      0.009405      0.964255
      9.06969      3.74957      9.99321         0.648550      1.104510      0.964255
      5.62015      2.23525      9.99321         0.632259     -1.113916      0.964255
    total drift:                                0.000021      0.000032      0.001572

  FREE ENERGIE OF THE ION-ELECTRON SYSTEM (eV)
  free  energy   TOTEN  =       -41.08293261 eV

  energy  without entropy=      -41.08293261  energy(sigma->0) =      -41.08293261

[...]

 d Force = 0.3738278E+00[ 0.127E+00, 0.620E+00]  d Energy = 0.3592467E+01-0.322E+01
 d Force =-0.1242182E+03[-0.139E+03,-0.109E+03]  d Ewald  =-0.1634644E+04 0.151E+04

 Steepest descent step on ions:
 trial-energy change:   -3.592467  1 .order   -3.145190   -5.650990   -0.639390
  (g-gl).g = 0.565E+01      g.g   = 0.565E+01  gl.gl    = 0.000E+00
 g(Force)  = 0.675E+00   g(Stress)= 0.498E+01 ortho     = 0.000E+00
 gamma     =   0.00000
 trial     =   1.00000
 opt step  =   1.08081  (harmonic =   1.12758) maximal distance =0.05759051
 next E    =   -44.701471   (d E  =  -3.61854)

[...]

 d Force = 0.6354771E-02[ 0.157E-02, 0.111E-01]  d Energy = 0.2376907E-01-0.174E-01
 d Force =-0.1192529E+02[-0.120E+02,-0.118E+02]  d Ewald  =-0.1569069E+03 0.145E+03

[...]

 d Force =-0.3919919E-03[-0.512E-03,-0.272E-03]  d Energy = 0.3232074E-02-0.362E-02
 d Force = 0.2086560E+01[ 0.208E+01, 0.209E+01]  d Ewald  = 0.2738952E+02-0.253E+02

[...]

 d Force = 0.3094667E-01[ 0.241E-01, 0.378E-01]  d Energy = 0.4635629E-01-0.154E-01
 d Force =-0.2673788E+02[-0.268E+02,-0.267E+02]  d Ewald  = 0.1276343E+03-0.154E+03

 Conjugate gradient step on ions:
 trial-energy change:   -0.046356  1 .order   -0.050921   -0.053959   -0.047883
  (g-gl).g = 0.221E+00      g.g   = 0.595E-01  gl.gl    = 0.565E+01
 g(Force)  = 0.359E-01   g(Stress)= 0.236E-01 ortho     =-0.161E+00
 gamma     =   0.03905
 trial     =   1.01337
 opt step  =   4.05349  (harmonic =   9.00024) maximal distance =0.05321407
 next E    =   -44.942017   (d E  =  -0.23962)

[...]

 d Force =-0.3362584E-01[-0.140E+00, 0.726E-01]  d Energy = 0.9088310E-01-0.125E+00
 d Force =-0.7951411E+02[-0.800E+02,-0.790E+02]  d Ewald  = 0.3782643E+03-0.458E+03

[...]

 d Force = 0.3808453E-01[ 0.261E-01, 0.501E-01]  d Energy = 0.5357646E-01-0.155E-01
 d Force = 0.2924102E+02[ 0.292E+02, 0.293E+02]  d Ewald  =-0.1326528E+03 0.162E+03

[...]

 d Force =-0.2326238E-02[-0.446E-02,-0.190E-03]  d Energy = 0.4125362E-02-0.645E-02
 d Force =-0.1106042E+02[-0.111E+02,-0.111E+02]  d Ewald  = 0.5157955E+02-0.626E+02

[...]

 Conjugate gradient step on ions:
 trial-energy change:   -0.017516  1 .order   -0.020179   -0.024622   -0.015737
  (g-gl).g = 0.121E+00      g.g   = 0.117E+00  gl.gl    = 0.595E-01
 g(Force)  = 0.951E-01   g(Stress)= 0.218E-01 ortho     = 0.286E-02
 gamma     =   2.03158
 trial     =   0.20075
 opt step  =   0.55631  (harmonic =   0.55631) maximal distance =0.01684714
 next E    =   -44.932464   (d E  =  -0.03412)

[...]

 d Force = 0.1683298E-01[ 0.149E-01, 0.188E-01]  d Energy = 0.1714427E-01-0.311E-03
 d Force = 0.1722090E+01[ 0.169E+01, 0.175E+01]  d Ewald  = 0.1890713E+02-0.172E+02

[...]

 d Force = 0.2623837E-02[ 0.211E-02, 0.314E-02]  d Energy = 0.2660547E-02-0.367E-04
 d Force = 0.5288470E+00[ 0.548E+00, 0.509E+00]  d Ewald  =-0.7010107E+01 0.754E+01

 Conjugate gradient step on ions:
 trial-energy change:   -0.002661  1 .order   -0.002709   -0.003216   -0.002203
  (g-gl).g = 0.321E-02      g.g   = 0.346E-02  gl.gl    = 0.469E-02
 g(Force)  = 0.295E-02   g(Stress)= 0.512E-03 ortho     = 0.282E-03
 gamma     =   0.68331
 trial     =   0.88006
 opt step  =   2.79612  (harmonic =   2.79612) maximal distance =0.03684931
 next E    =   -45.054955   (d E  =  -0.00511)

[...]

 d Force = 0.1826335E-02[-0.936E-03, 0.459E-02]  d Energy = 0.1660748E-02 0.166E-03
 d Force = 0.1286442E+01[ 0.138E+01, 0.119E+01]  d Ewald  =-0.1515298E+02 0.164E+02

[...]

 d Force = 0.3056894E-02[-0.783E-03, 0.690E-02]  d Energy = 0.2945498E-02 0.111E-03
 d Force =-0.1351733E+01[-0.133E+01,-0.138E+01]  d Ewald  = 0.1493314E+02-0.163E+02

 Steepest descent step on ions:
 trial-energy change:   -0.002945  1 .order   -0.003055   -0.007429    0.001319
  (g-gl).g = 0.673E-02      g.g   = 0.588E-02  gl.gl    = 0.346E-02
 g(Force)  = 0.546E-02   g(Stress)= 0.426E-03 ortho     =-0.631E-03
 gamma     =   0.00000
 trial     =   1.26327
 opt step  =   1.07274  (harmonic =   1.07274) maximal distance =0.01307234
 next E    =   -45.057323   (d E  =  -0.00315)

[...]

 d Force = 0.3555715E-04[-0.469E-04, 0.118E-03]  d Energy = 0.2243950E-03-0.189E-03
 d Force = 0.2006696E+00[ 0.201E+00, 0.200E+00]  d Ewald  =-0.2252214E+01 0.245E+01

[...]

 d Force = 0.1438584E-02[ 0.331E-03, 0.255E-02]  d Energy = 0.1543533E-02-0.105E-03
 d Force =-0.8846554E+01[-0.883E+01,-0.886E+01]  d Ewald  = 0.3255785E+02-0.414E+02

[...]

 d Force =-0.1969122E-04[-0.159E-03, 0.120E-03]  d Energy =-0.6556004E-04 0.459E-04
 d Force =-0.3204396E+01[-0.320E+01,-0.321E+01]  d Ewald  = 0.1179836E+02-0.150E+02

[...]

 d Force =-0.1175565E-03[-0.127E-03,-0.108E-03]  d Energy = 0.2685492E-03-0.386E-03
 d Force =-0.7745894E-01[-0.772E-01,-0.777E-01]  d Ewald  =-0.8306030E+01 0.823E+01

[...]

 Conjugate gradient step on ions:
 trial-energy change:   -0.000663  1 .order   -0.000884   -0.001106   -0.000663
  (g-gl).g = 0.417E-02      g.g   = 0.379E-02  gl.gl    = 0.240E-02
 g(Force)  = 0.175E-02   g(Stress)= 0.204E-02 ortho     =-0.383E-03
 gamma     =   1.73352
 trial     =   0.35352
 opt step  =   0.88233  (harmonic =   0.88233) maximal distance =0.01190222
 next E    =   -45.061430   (d E  =  -0.00138)

[...]

 eigenvalue-minimisations  :  1168
 total energy-change (2. order) :-0.8712696E-02  (-0.5822317E-02)
 number of electron      61.0000007 magnetization       0.9999961
 augmentation part        0.9952477 magnetization       0.8077173

[...]

 Broyden mixing:
  rms(total) = 0.51003E-02    rms(broyden)= 0.51002E-02
  rms(prec ) = 0.63726E-02
  weight for this iteration     100.00

 eigenvalues of (default mixing * dielectric matrix)
  average eigenvalue GAMMA=   0.7532
  1.8470  0.8284  0.2343  0.1031

[...]

--------------------------------------- Iteration     29(   6)  ---------------------------------------

[...]

 eigenvalue-minimisations  :   688
 total energy-change (2. order) : 0.5326840E-04  (-0.1164338E-04)
 number of electron      61.0000007 magnetization       0.9999359
 augmentation part        0.8483357 magnetization       0.8035353

 Free energy of the ion-electron system (eV)
  alpha Z        PSCENC =        47.78186484
  Ewald energy   TEWEN  =      8372.45536697
  -Hartree energ DENC   =    -11118.94149930
  -exchange      EXHF   =         0.00000000
  -V(xc)+E(xc)   XCENC  =        -5.96812720
  PAW double counting   =      1832.50427170    -1734.16544052
  entropy T*S    EENTRO =         0.00000000
  eigenvalues    EBANDS =      -462.89532659
  atomic energy  EATOM  =      3024.16793347
  Solvation  Ediel_sol  =         0.00000000
  free energy    TOTEN  =       -45.06095663 eV

  energy without entropy =      -45.06095663  energy(sigma->0) =      -45.06095663

 average (electrostatic) potential at core
  the test charge radii are     1.0103  0.9892  0.9587  1.0808
  (the norm of the test charge is              1.0000)
       1 -51.5318       2 -50.9883       3 -92.6881       4 -92.1686       5 -61.3152
       6 -61.3152       7 -61.3152       8 -60.8547       9 -60.8547      10 -60.8547

 E-fermi :  -2.3395     XC(G=0):  -3.4198     alpha+bet : -2.9371

[...]

 spin component 2

[...]

 k-point     5 :      -0.4000    0.2000    0.0000
  band No.  band energies     occupation
      1     -16.8249      1.00000
      2     -16.3039      1.00000
      3     -15.9292      1.00000
      4     -15.6782      1.00000
      5     -15.4317      1.00000
      6     -15.2812      1.00000
      7     -12.4927      1.00000
      8      -9.7168      1.00000
      9      -8.0994      1.00000
     10      -7.5668      1.00000
     11      -7.3599      1.00000
     12      -6.7627      1.00000
     13      -6.7074      1.00000
     14      -6.1752      1.00000
     15      -6.0588      1.00000
     16      -5.8503      1.00000
     17      -5.6543      1.00000
     18      -5.3208      1.00000
     19      -5.2468      1.00000
     20      -5.0071      1.00000
     21      -4.9679      1.00000
     22      -4.3261      1.00000
     23      -4.0363      1.00000
     24      -3.9698      1.00000
     25      -3.7309      1.00000
     26      -3.4252      1.00000
     27      -2.8508      1.00000
     28      -2.7800      1.00000
     29      -2.5634      1.00000
     30      -2.4332      1.00000
     31      -2.2146      0.00000
     32      -1.7631      0.00000
     33      -1.1942      0.00000
     34      -1.0005      0.00000
     35      -0.7360      0.00000
     36      -0.5316      0.00000
     37       0.0502      0.00000
     38       0.3824      0.00000
     39       0.5168      0.00000
     40       1.4532      0.00000
     41       1.7442      0.00000
     42       1.8101      0.00000
     43       3.0115      0.00000
     44       3.1561      0.00000
     45       3.2299      0.00000
     46       3.3882      0.00000
     47       3.5705      0.00000
     48       4.0871      0.00000

[...]

 soft charge-density along one line, spin component           2
         0         1         2         3         4         5         6         7         8         9
 total charge-density along one line

------------------------ aborting loop because EDIFF is reached ----------------------------------------

[...]

  FORCE on cell =-STRESS in cart. coord.  units (eV):
  Direction    XX          YY          ZZ          XY          YZ          ZX
  Alpha Z    47.78186    47.78186    47.78186
  Ewald   10313.21530 10313.21259-12253.97515    -0.00182    -0.00056    -0.00102
  Hartree 10798.46995 10798.47070-10481.99532    -0.00020     0.00007     0.00011
  E(xc)    -245.71622  -245.71620  -245.24743     0.00000     0.00000     0.00001
  Local  -21877.36488-21877.36427 21936.06613     0.00158     0.00030     0.00055
  n-local   285.45645   285.45463   293.86435    -0.07368     0.12981     0.13812
  augment    36.38034    36.38046    29.24269    -0.00117     0.00003     0.00004
  Kinetic   644.15457   639.39566   674.66568    -2.73944     1.12839     1.43890
  Fock        0.00000     0.00000     0.00000     0.00000     0.00000     0.00000
  Total      -0.00360    -0.00360     0.40281     0.00000     0.00000     0.00000
  in kB      -0.00821    -0.00821     0.91962     0.00000     0.00000     0.00000

 VOLUME and BASIS-vectors are now :
  energy-cutoff  :      520.00
  volume of cell :      701.79
      direct lattice vectors                 reciprocal lattice vectors
     6.198706210 -0.000000331 -0.000000000     0.161323982 -0.093140450  0.000000000
     3.099353053  5.368236634 -0.000000000     0.000000010  0.186280903 -0.000000000
    -0.000000000  0.000000000 21.089867711     0.000000000 -0.000000000  0.047416134

  length of vectors
     6.198706210  6.198705825 21.089867711     0.186280892  0.186280903  0.047416134

 FORCES acting on ions
    electron-ion (+dipol)            ewald-force                    non-local-force                 convergence-correction
   -.797E-04 -.787E-04 0.177E+02   0.642E-03 0.381E-03 -.182E+02   0.311E-17 0.753E-17 0.533E+00   0.572E-06 0.652E-07 0.570E-02
   0.730E-04 0.363E-04 0.164E+02   -.608E-03 -.362E-03 -.168E+02   -.142E-16 0.283E-16 0.454E+00   0.573E-06 -.837E-06 -.434E-03
   -.454E-04 -.291E-04 0.223E+03   -.172E-03 -.963E-04 -.220E+03   -.115E-16 -.179E-16 -.363E+01   -.185E-06 -.108E-06 0.303E-01
   0.387E-04 0.353E-04 -.309E+03   0.238E-03 0.133E-03 0.307E+03   0.185E-17 0.271E-17 0.243E+01   -.265E-06 -.150E-06 -.408E-01
   -.161E+02 -.531E+01 -.472E+03   0.136E+02 0.521E+01 0.474E+03   0.246E+01 0.116E+00 -.226E+01   -.104E-01 0.938E-02 -.656E-01
   0.345E+01 0.166E+02 -.472E+03   -.231E+01 -.144E+02 0.474E+03   -.113E+01 -.219E+01 -.226E+01   0.133E-01 0.432E-02 -.656E-01
   0.127E+02 -.113E+02 -.472E+03   -.113E+02 0.921E+01 0.474E+03   -.133E+01 0.207E+01 -.226E+01   -.292E-02 -.137E-01 -.656E-01
   0.186E+02 -.234E+01 0.489E+03   -.166E+02 0.230E+01 -.491E+03   -.204E+01 0.648E-01 0.250E+01   0.657E-02 0.788E-02 0.758E-01
   -.113E+02 -.149E+02 0.489E+03   0.103E+02 0.132E+02 -.491E+03   0.107E+01 0.173E+01 0.250E+01   0.354E-02 -.963E-02 0.758E-01
   -.726E+01 0.173E+02 0.489E+03   0.632E+01 -.155E+02 -.491E+03   0.962E+00 -.180E+01 0.250E+01   -.101E-01 0.175E-02 0.758E-01
   0.140E-03 0.657E-04 -.533E+00   -.151E-13 0.533E-14 0.114E-12   0.666E-15 0.666E-15 0.508E+00   0.885E-06 -.896E-06 0.252E-01

 POSITION                                       TOTAL-FORCE (eV/Angst)
      3.09935      1.78941     10.54553         0.000000      0.000000     -0.003050
      6.19871      3.57883     10.55926         0.000000      0.000000      0.003988
     -0.00000      0.00000      9.52772         0.000000     -0.000000     -0.120195
     -0.00000      0.00000     11.74308        -0.000000      0.000000      0.203653
      3.83204     -0.02023     11.97550        -0.014404      0.024469      0.023833
      1.16582      2.05972     11.97550         0.028393      0.000239      0.023833
      4.30022      3.32876     11.97550        -0.013989     -0.024708      0.023833
      5.36913      5.35311      9.04908        -0.063573      0.029951     -0.051964
      8.15007      3.41011      9.04908         0.057725      0.040080     -0.051964
      5.07691      1.97325      9.04908         0.005848     -0.070031     -0.051964
    total drift:                                0.000141      0.000065      0.000469

  FREE ENERGIE OF THE ION-ELECTRON SYSTEM (eV)
  free  energy   TOTEN  =       -45.06095663 eV

  energy  without entropy=      -45.06095663  energy(sigma->0) =      -45.06095663

 d Force = 0.1375288E-02[ 0.128E-02, 0.147E-02]  d Energy = 0.2433905E-03 0.113E-02
 d Force = 0.3524803E+01[ 0.354E+01, 0.351E+01]  d Ewald  = 0.2669280E+02-0.232E+02

 reached required accuracy - stopping structural energy minimisation

 total charge

[...]

 magnetization (x)

# of ion       s       p       d       tot
    1        0.009   0.009   1.203   1.221
    2        0.001   0.005  -0.161  -0.156
    3        0.000   0.003   0.000   0.003
    4       -0.000   0.005   0.000   0.005
    5        0.000  -0.021   0.000  -0.020
    6       -0.000  -0.011   0.000  -0.010
    7        0.000  -0.015   0.000  -0.015
    8        0.001  -0.014  -0.000  -0.013
    9       -0.000  -0.007  -0.000  -0.007
   10        0.000  -0.014   0.000  -0.013
tot          0.012  -0.061   1.042   0.994

 BZINTS: Fermi energy: -2.339456; 61.000000 electrons
         Band energy:-462.895327;  BLOECHL correction:  0.000000