 vasp.5.4.4.18Apr17-6-g9f103f2a35 (build May  1 2020 15:48:39) complex
 executed on             LinuxGNU date 2020.06.30  20:36:19

 INCAR:
 POTCAR:   PAW_PBE Cr 06Sep2000
 POTCAR:   PAW_PBE Ge 05Jan2001
 POTCAR:    PAW_PBE P 17Jan2003
 POTCAR:   PAW_PBE Te 08Apr2002

 POTCAR:   PAW_PBE Cr 06Sep2000
   VRHFIN =Cr : d5 s1

   TITEL  = PAW_PBE Cr 06Sep2000
   POMASS =   51.996; ZVAL   =    6.000    mass and valenz
   ENMAX  =  227.082; ENMIN  =  170.311 eV
   QCUT   =   -4.085; QGAM   =    8.171    optimization parameters

   Description
     l     E      TYP  RCUT    TYP  RCUT
     2   .000     23  2.500
     2   .000     23  2.500
     0   .000     23  2.500
     0   .000     23  2.500
     1  -.400     23  2.500
     1  2.000     23  2.500
     3   .000      7   .000

 POTCAR:   PAW_PBE Ge 05Jan2001
   VRHFIN =Ge: s2p2

   TITEL  = PAW_PBE Ge 05Jan2001
   POMASS =   72.610; ZVAL   =    4.000    mass and valenz
   ENMAX  =  173.807; ENMIN  =  130.355 eV
   QCUT   =   -3.574; QGAM   =    7.148    optimization parameters

[...]

 POTCAR:    PAW_PBE P 17Jan2003
   VRHFIN =P : s2p3

   TITEL  = PAW_PBE P 17Jan2003
   POMASS =   30.974; ZVAL   =    5.000    mass and valenz
   ENMAX  =  270.000; ENMIN  =  191.280 eV
   QCUT   =   -4.330; QGAM   =    8.659    optimization parameters

[...]

 POTCAR:   PAW_PBE Te 08Apr2002
   VRHFIN =Te: s2p4

   TITEL  = PAW_PBE Te 08Apr2002
   POMASS =  127.600; ZVAL   =    6.000    mass and valenz
   ENMAX  =  174.982; ENMIN  =  131.236 eV
   QCUT   =   -3.586; QGAM   =    7.172    optimization parameters

   Description
     l     E      TYP  RCUT    TYP  RCUT
     0   .000     23  2.300
     0   .000     23  2.300
     1   .000     23  2.300
     1   .000     23  2.300
     2   .000     23  2.300
     3  -.100     23  2.300

 Optimization of the real space projectors (new method)

 maximal supplied QI-value         = 15.12
 optimisation between [QCUT,QGAM] = [ 11.64, 23.28] = [ 37.95,151.78] Ry
 Optimized for a Real-space Cutoff    1.49 Angstroem

   l    n(q)    QCUT    max X(q) W(low)/X(q) W(high)/X(q)  e(spline)
   2      9    11.641     4.777    0.25E-04    0.21E-05    0.63E-07
   2      9    11.641    31.132    0.13E-03    0.22E-03    0.64E-06
   0     10    11.641    20.416    0.11E-04    0.74E-05    0.19E-07
   0     10    11.641    45.408    0.10E-03    0.85E-04    0.30E-06
   1     10    11.641     7.848    0.22E-04    0.23E-04    0.56E-07
   1     10    11.641     9.895    0.85E-04    0.54E-04    0.16E-06
 Optimization of the real space projectors (new method)

[...]

   l    n(q)    QCUT    max X(q) W(low)/X(q) W(high)/X(q)  e(spline)
   0      8    11.508     6.651    0.19E-04    0.31E-05    0.49E-08
   0      8    11.508    90.285    0.95E-04    0.17E-03    0.51E-07
   1      8    11.508     4.328    0.14E-04    0.32E-04    0.22E-07
   1      8    11.508    54.583    0.16E-03    0.71E-04    0.89E-07
 Optimization of the real space projectors (new method)

 maximal supplied QI-value         = 16.25
 optimisation between [QCUT,QGAM] = [ 11.54, 23.24] = [ 37.28,151.24] Ry
 Optimized for a Real-space Cutoff    1.36 Angstroem

   l    n(q)    QCUT    max X(q) W(low)/X(q) W(high)/X(q)  e(spline)
   0      9    11.539     7.090    0.13E-04    0.25E-05    0.51E-08
   0      9    11.539   101.654    0.53E-04    0.69E-04    0.12E-06
   1      9    11.539     5.276    0.20E-04    0.98E-05    0.24E-07
   1      9    11.539    81.891    0.24E-03    0.13E-04    0.15E-06
   2      9    11.539     5.599    0.30E-04    0.97E-04    0.54E-07

 PAW_PBE Cr 06Sep2000                   :
 PAW_PBE Ge 05Jan2001                   :
  PAW_PBE P 17Jan2003                   :
 PAW_PBE Te 08Apr2002                   :

 POSCAR: Cr2 Ge P Te6
  positions in direct lattice
  velocities in cartesian coordinates
 exchange correlation table for  LEXCH =       42
   RHO(1)=    0.500       N(1)  =     2000
   RHO(2)=  100.500       N(2)  =     4000

 ion  position               nearest neighbor table
   1  0.333  0.333  0.500-   6 2.78   5 2.78   7 2.78   8 2.78  10 2.78   9 2.78
   2  0.667  0.667  0.500-   9 2.78   8 2.78  10 2.78   5 2.78   7 2.78   6 2.78
   3  0.000  0.000  0.448-   4 2.43   8 2.63  10 2.63   9 2.63
   4  0.000  0.000  0.552-   3 2.43   5 2.63   7 2.63   6 2.63
   5  0.626  0.000  0.574-   4 2.63   1 2.78   2 2.78
   6  0.000  0.373  0.574-   4 2.63   1 2.78   2 2.78
   7  0.373  0.626  0.574-   4 2.63   1 2.78   2 2.78
   8  0.374  1.000  0.426-   3 2.63   2 2.78   1 2.78
   9  1.000  0.627  0.426-   3 2.63   2 2.78   1 2.78
  10  0.627  0.374  0.426-   3 2.63   2 2.78   1 2.78

  LATTYP: Found a hexagonal cell.
 ALAT       =     6.9077769333
 C/A-ratio  =     3.3939410937

  Lattice vectors:

 A1 = (   3.4538890000,  -5.9823100000,   0.0000000000)
 A2 = (  -6.9077770000,   0.0000000000,   0.0000000000)
 A3 = (   0.0000000000,   0.0000000000, -23.4445880000)

Analysis of symmetry for initial positions (statically):
 Subroutine PRICEL returns:
 Original cell was already a primitive cell.

 Routine SETGRP: Setting up the symmetry group for a
 hexagonal supercell.

 Subroutine GETGRP returns: Found  3 space group operations
 (whereof  3 operations were pure point group operations)
 out of a pool of 24 trial point group operations.

The static configuration has the point symmetry C_3 .

Analysis of symmetry for dynamics (positions and initial velocities):
 Subroutine PRICEL returns:
 Original cell was already a primitive cell.

[...]

The dynamic configuration has the point symmetry C_3 .

Analysis of constrained symmetry for selective dynamics:
 Subroutine PRICEL returns:
 Original cell was already a primitive cell.

[...]

The constrained configuration has the point symmetry C_3 .

Analysis of structural, dynamic, and magnetic symmetry:
 Subroutine PRICEL returns:
 Original cell was already a primitive cell.

 Routine SETGRP: Setting up the symmetry group for a
 hexagonal supercell.

 Subroutine GETGRP returns: Found  3 space group operations
 (whereof  3 operations were pure point group operations)
 out of a pool of 24 trial point group operations.

The magnetic configuration has the point symmetry C_3 .

 Subroutine INISYM returns: Found  3 space group operations
 (whereof  3 operations are pure point group operations),
 and found     1 'primitive' translations

 KPOINTS: Kpoints from vasprun.xml

Automatic generation of k-mesh.
Space group operators:
 irot       det(A)        alpha          n_x          n_y          n_z        tau_x        tau_y        tau_z
    1     1.000000     0.000000     1.000000     0.000000     0.000000     0.000000     0.000000     0.000000
    2     1.000000   120.000000     0.000000     0.000000     1.000000     0.000000     0.000000     0.000000
    3     1.000000   120.000000     0.000000     0.000000    -1.000000     0.000000     0.000000     0.000000

 Subroutine IBZKPT returns following result:

 Found      5 irreducible k-points:

 Following reciprocal coordinates:
            Coordinates               Weight
  0.000000  0.000000  0.000000      1.000000
  0.200000  0.000000  0.000000      6.000000
  0.400000  0.000000  0.000000      6.000000
  0.400000  0.200000  0.000000      6.000000
 -0.400000  0.200000  0.000000      6.000000

 Following cartesian coordinates:
            Coordinates               Weight
  0.000000  0.000000  0.000000      1.000000
  0.028953 -0.016716  0.000000      6.000000
  0.057906 -0.033432  0.000000      6.000000
  0.057906  0.000000  0.000000      6.000000
 -0.057906  0.066864  0.000000      6.000000

 TETIRR: Found     15 inequivalent tetrahedra from      150

 SYSTEM =  unknown system
 POSCAR =  Cr2 Ge P Te6

 Startparameter for this run:
   NWRITE =      2    write-flag & timer
   PREC   = accura    normal or accurate (medium, high low for compatibility)
   ISTART =      0    job   : 0-new  1-cont  2-samecut
   ICHARG =      2    charge: 1-file 2-atom 10-const
   ISPIN  =      2    spin polarized calculation?
   LNONCOLLINEAR =      F non collinear calculations
   LSORBIT =      F    spin-orbit coupling
   INIWAV =      1    electr: 0-lowe 1-rand  2-diag
   LASPH  =      F    aspherical Exc in radial PAW
   METAGGA=      F    non-selfconsistent MetaGGA calc.

 Electronic Relaxation 1
   ENCUT  =  520.0 eV  38.22 Ry    6.18 a.u.  12.84 12.84 43.59*2*pi/ulx,y,z
   ENINI  =  520.0     initial cutoff
   ENAUG  =  402.1 eV  augmentation charge cutoff
   NELM   =    400;   NELMIN=  2; NELMDL=  0     # of ELM steps
   EDIFF  = 0.1E-03   stopping-criterion for ELM
   LREAL  =      T    real-space projection
   NLSPLINE    = F    spline interpolate recip. space projectors
   LCOMPAT=      F    compatible to vasp.4.4
   GGA_COMPAT  = T    GGA compatible to vasp.4.4-vasp.4.6
   LMAXPAW     = -100 max onsite density
   LMAXMIX     =    2 max onsite mixed and CHGCAR
   VOSKOWN=      0    Vosko Wilk Nusair interpolation
   ROPT   =   -0.00025  -0.00025  -0.00025  -0.00025
 Ionic relaxation
   EDIFFG = 0.1E-02   stopping-criterion for IOM
   NSW    =     99    number of steps for IOM
   NBLOCK =      1;   KBLOCK =     99    inner block; outer block
   IBRION =      2    ionic relax: 0-MD 1-quasi-New 2-CG
   NFREE  =      1    steps in history (QN), initial steepest desc. (CG)
   ISIF   =      3    stress and relaxation
   IWAVPR =     11    prediction:  0-non 1-charg 2-wave 3-comb
   ISYM   =      2    0-nonsym 1-usesym 2-fastsym
   LCORR  =      T    Harris-Foulkes like correction to forces

   POTIM  = 0.5000    time-step for ionic-motion
   TEIN   =    0.0    initial temperature
   TEBEG  =    0.0;   TEEND  =   0.0 temperature during run
   SMASS  =  -3.00    Nose mass-parameter (am)
   estimated Nose-frequenzy (Omega)   =  0.10E-29 period in steps =****** mass=  -0.109E-26a.u.
   SCALEE = 1.0000    scale energy and forces
   NPACO  =    256;   APACO  = 16.0  distance and # of slots for P.C.
   PSTRESS=    0.0 pullay stress

  Mass of Ions in am
   POMASS =  52.00 72.61 30.97127.60
  Ionic Valenz
   ZVAL   =   6.00  4.00  5.00  6.00
  Atomic Wigner-Seitz radii
  virtual crystal weights
   VCA    =   1.00  1.00  1.00  1.00
   NELECT =      57.0000    total number of electrons
   NUPDOWN=      -1.0000    fix difference up-down

 DOS related values:
   EMIN   =  10.00;   EMAX   =-10.00  energy-range for DOS
   EFERMI =   0.00
   ISMEAR =    -5;   SIGMA  =   0.05  broadening in eV -4-tet -1-fermi 0-gaus

 Electronic relaxation 2 (details)
   IALGO  =     38    algorithm
   LDIAG  =      T    sub-space diagonalisation (order eigenvalues)
   LSUBROT=      F    optimize rotation matrix (better conditioning)
   TURBO    =      0    0=normal 1=particle mesh
   IRESTART =      0    0=no restart 2=restart with 2 vectors
   NREBOOT  =      0    no. of reboots
   NMIN     =      0    reboot dimension
   EREF     =   0.00    reference energy to select bands
   IMIX   =      4    mixing-type and parameters
     AMIX     =   0.40;   BMIX     =  1.00
     AMIX_MAG =   1.60;   BMIX_MAG =  1.00
     AMIN     =   0.01
     WC   =   100.;   INIMIX=   1;  MIXPRE=   1;  MAXMIX= -45

 Intra band minimization:
   WEIMIN = 0.0010     energy-eigenvalue tresh-hold
   EBREAK =  0.52E-06  absolut break condition
[...]
     38       0.1207      0.00000
     39       0.1208      0.00000
     40       1.4123      0.00000
     41       1.6880      0.00000
     42       1.7350      0.00000
     43       1.7843      0.00000
     44       1.7844      0.00000
     45       2.2496      0.00000
     46       2.5596      0.00000
     47       3.0569      0.00000
     48       3.0569      0.00000

[...]

 soft charge-density along one line, spin component           1
         0         1         2         3         4         5         6         7         8         9
 total charge-density along one line

[...]

------------------------ aborting loop because EDIFF is reached ----------------------------------------

 total charge

# of ion       s       p       d       tot
    1        0.329   0.399   4.255   4.983
    2        0.329   0.399   4.256   4.985
    3        1.175   1.096   0.077   2.348
    4        1.100   1.316   0.000   2.416
    5        1.403   1.934   0.036   3.373
    6        1.392   1.907   0.037   3.336
    7        1.400   1.924   0.036   3.361
    8        1.395   1.977   0.033   3.405
    9        1.387   1.957   0.033   3.377
   10        1.392   1.966   0.034   3.392
tot         11.303  14.876   8.797  34.976

 magnetization (x)

[...]

  FORCE on cell =-STRESS in cart. coord.  units (eV):
  Direction    XX          YY          ZZ          XY          YZ          ZX
  Alpha Z    13.62041    13.62041    13.62041
  Ewald    7704.79684  7704.79469 -9187.98168    -0.00106    -0.00039    -0.00072
  Hartree  8022.35780  8022.35819 -7879.35311    -0.00001     0.00005     0.00009
  E(xc)    -226.90249  -226.90247  -227.04518     0.00002     0.00002     0.00001
  Local  -16598.55093-16598.55001 16159.36478     0.00081     0.00025     0.00047
  n-local   714.92352   715.88106   732.24417     0.26314     0.50268     0.46214
  augment  -108.33869  -108.33863  -116.15862     0.00003     0.00003     0.00002
  Kinetic   479.13274   472.15644   502.85242    -4.68540    -0.11448    -0.35098
  Fock        0.00000     0.00000     0.00000     0.00000     0.00000     0.00000
  Total      -1.97056    -1.97056    -2.45681     0.00000     0.00000     0.00000
  in kB      -3.25875    -3.25875    -4.06286     0.00000     0.00000     0.00000

 VOLUME and BASIS-vectors are now :
  energy-cutoff  :      520.00
  volume of cell :      968.84
      direct lattice vectors                 reciprocal lattice vectors
     6.907777000 -0.000000000  0.000000000     0.144764372 -0.083579742  0.000000000
     3.453888000  5.982310000  0.000000000     0.000000000  0.167159509 -0.000000000
     0.000000000  0.000000000 23.444588000    -0.000000000  0.000000000  0.042653767

[...]

 FORCES acting on ions
    electron-ion (+dipol)            ewald-force                    non-local-force                 convergence-correction
   -.389E-04 -.223E-04 0.596E+01   0.314E-03 0.187E-03 -.600E+01   0.694E-17 0.000E+00 0.126E+00   0.427E-06 0.251E-06 -.101E-02
   0.402E-04 0.333E-04 0.467E+01   -.314E-03 -.187E-03 -.471E+01   -.139E-16 0.139E-16 0.129E+00   -.368E-06 -.213E-06 -.941E-03
   -.244E-04 -.272E-04 0.171E+03   -.141E-03 -.779E-04 -.170E+03   -.104E-16 -.694E-17 0.376E-01   -.616E-07 -.335E-07 -.145E-01
   0.367E-04 0.263E-04 -.196E+03   0.176E-03 0.973E-04 0.197E+03   0.178E-16 0.304E-16 -.921E+00   0.109E-06 0.487E-07 0.125E-01
   0.234E+00 0.141E+00 -.342E+03   -.353E+01 -.143E+00 0.346E+03   0.337E+01 -.127E-01 -.464E+01   0.531E-02 0.700E-02 0.334E-01
   0.392E-02 -.275E+00 -.342E+03   0.164E+01 0.313E+01 0.346E+03   -.170E+01 -.291E+01 -.464E+01   0.341E-02 -.810E-02 0.334E-01
   -.241E+00 0.132E+00 -.342E+03   0.189E+01 -.298E+01 0.346E+03   -.167E+01 0.292E+01 -.464E+01   -.871E-02 0.110E-02 0.334E-01
   0.665E+01 -.163E+00 0.347E+03   -.308E+01 0.150E+00 -.352E+03   -.339E+01 0.139E-01 0.455E+01   -.811E-02 0.697E-02 -.346E-01
   -.347E+01 -.567E+01 0.347E+03   0.167E+01 0.259E+01 -.352E+03   0.171E+01 0.293E+01 0.455E+01   0.101E-01 0.354E-02 -.346E-01
   -.318E+01 0.584E+01 0.347E+03   0.141E+01 -.274E+01 -.352E+03   0.168E+01 -.294E+01 0.455E+01   -.198E-02 -.105E-01 -.346E-01
   0.455E-04 0.166E-04 0.909E+00   0.142E-13 0.533E-14 0.568E-13   0.444E-15 0.444E-15 -.901E+00   0.103E-06 0.559E-07 -.752E-02

 POSITION                                       TOTAL-FORCE (eV/Angst)
      3.45388      1.99410     11.72054         0.000000      0.000000      0.089510
      6.90778      3.98821     11.72405         0.000000     -0.000000      0.094473
      0.00000      0.00000     10.50824         0.000000      0.000000      0.568798
      0.00000      0.00000     12.93635         0.000000     -0.000000     -0.005032
      4.32819      0.00251     13.45138         0.080692     -0.007464     -0.306523
      1.29198      2.23274     13.45138        -0.046810     -0.066150     -0.306523
      4.74152      3.74706     13.45138        -0.033882      0.073614     -0.306523
      6.03348      5.97980      9.99321         0.168444      0.007112      0.057274
      9.06969      3.74957      9.99321        -0.078063     -0.149433      0.057274
      5.62015      2.23525      9.99321        -0.090382      0.142321      0.057274
    total drift:                                0.000046      0.000017      0.000753

  FREE ENERGIE OF THE ION-ELECTRON SYSTEM (eV)
  free  energy   TOTEN  =       -42.53151582 eV

  energy  without entropy=      -42.53151582  energy(sigma->0) =      -42.53151582

[...]

 d Force =-0.1340139E-04[-0.280E-04, 0.121E-05]  d Energy = 0.2923520E-01-0.292E-01
 d Force =-0.4780262E-01[-0.483E-01,-0.473E-01]  d Ewald  =-0.3779166E+02 0.377E+02

 Steepest descent step on ions:
 trial-energy change:   -0.029235  1 .order   -0.027903   -0.066586    0.010781
  (g-gl).g = 0.666E-01      g.g   = 0.666E-01  gl.gl    = 0.000E+00
 g(Force)  = 0.122E-05   g(Stress)= 0.666E-01 ortho     = 0.000E+00
 gamma     =   0.00000
 trial     =   1.00000
 opt step  =   0.87217  (harmonic =   0.86065) maximal distance =0.00000000
 next E    =   -42.561437   (d E  =  -0.02992)

[...]

 d Force = 0.3354018E-05[ 0.308E-05, 0.363E-05]  d Energy = 0.7861959E-03-0.783E-03
 d Force = 0.6246162E-02[ 0.624E-02, 0.625E-02]  d Ewald  = 0.4847579E+01-0.484E+01

[...]

 Conjugate gradient step on ions:
 trial-energy change:   -0.003288  1 .order   -0.004143   -0.004435   -0.003850
  (g-gl).g = 0.679E-02      g.g   = 0.476E-02  gl.gl    = 0.666E-01
 g(Force)  = 0.474E-03   g(Stress)= 0.429E-02 ortho     =-0.203E-02
 gamma     =   0.10196
 trial     =   0.97443
 opt step  =   3.89774  (harmonic =   7.38325) maximal distance =0.01853280
 next E    =   -42.578340   (d E  =  -0.01680)

[...]

 d Force = 0.2680306E-02[ 0.347E-02, 0.189E-02]  d Energy = 0.1114590E-02 0.157E-02
 d Force = 0.2760895E+01[ 0.276E+01, 0.276E+01]  d Ewald  = 0.1798649E+03-0.177E+03

[...]

 d Force =-0.1010931E-02[-0.932E-03,-0.109E-02]  d Energy = 0.7572637E-03-0.177E-02
 d Force =-0.8671729E+00[-0.867E+00,-0.867E+00]  d Ewald  =-0.5525844E+02 0.544E+02

[...]

 eigenvalue-minimisations  :  1104
 total energy-change (2. order) :-0.2029403E-03  (-0.2020579E-02)
 number of electron      56.9999993 magnetization       5.4908390
 augmentation part       -3.1216239 magnetization       4.0687483

[...]

 eigenvalues of (default mixing * dielectric matrix)
  average eigenvalue GAMMA=   0.9683
  1.8941  0.6836  0.3271

[...]

 d Force = 0.1666531E-02[ 0.211E-03, 0.312E-02]  d Energy = 0.2147666E-02-0.481E-03
 d Force = 0.2913132E+01[ 0.292E+01, 0.290E+01]  d Ewald  =-0.3019217E+02 0.331E+02

 Steepest descent step on ions:
 trial-energy change:   -0.002148  1 .order   -0.002337   -0.004780    0.000107
  (g-gl).g = 0.409E-02      g.g   = 0.347E-02  gl.gl    = 0.476E-02
 g(Force)  = 0.226E-02   g(Stress)= 0.121E-02 ortho     =-0.117E-02
 gamma     =   0.00000
 trial     =   1.37860
 opt step  =   1.34842  (harmonic =   1.34842) maximal distance =0.01407088
 next E    =   -42.569035   (d E  =  -0.00234)

[...]

 Broyden mixing:
  rms(total) = 0.19215E-02    rms(broyden)= 0.19214E-02
  rms(prec ) = 0.29658E-02
  weight for this iteration     100.00

[...]

--------------------------------------- Iteration      8(   2)  ---------------------------------------

[...]

 eigenvalue-minimisations  :   736
 total energy-change (2. order) : 0.3548652E-04  (-0.5294856E-05)
 number of electron      56.9999993 magnetization       5.4956552
 augmentation part       -3.0683795 magnetization       4.0848928

 Free energy of the ion-electron system (eV)
  alpha Z        PSCENC =        14.01319046
  Ewald energy   TEWEN  =      6098.94035190
  -Hartree energ DENC   =     -8043.83635588
  -exchange      EXHF   =         0.00000000
  -V(xc)+E(xc)   XCENC  =      -216.25372148
  PAW double counting   =      1247.87890186     -943.99207006
  entropy T*S    EENTRO =         0.00000000
  eigenvalues    EBANDS =      -384.68061953
  atomic energy  EATOM  =      2185.36163785
  Solvation  Ediel_sol  =         0.00000000
  free energy    TOTEN  =       -42.56868487 eV

  energy without entropy =      -42.56868487  energy(sigma->0) =      -42.56868487

 average (electrostatic) potential at core
  the test charge radii are     1.1394  1.1631  0.9587  1.1897
  (the norm of the test charge is              1.0000)
       1 -50.5057       2 -50.5016       3 -39.1813       4 -91.5774       5 -96.5406
       6 -96.5406       7 -96.5405       8 -96.3758       9 -96.3758      10 -96.3757

 E-fermi :  -1.6216     XC(G=0):  -3.5398     alpha+bet : -3.1410

[...]

 spin component 2

[...]

 k-point     5 :      -0.4000    0.2000    0.0000
  band No.  band energies     occupation
      1     -14.6849      1.00000
      2     -13.6563      1.00000
      3     -13.5073      1.00000
      4     -13.3259      1.00000
      5     -13.0784      1.00000
      6     -12.9273      1.00000
      7     -11.1514      1.00000
      8      -9.4007      1.00000
      9      -6.7196      1.00000
     10      -6.2824      1.00000
     11      -6.1958      1.00000
     12      -5.7009      1.00000
     13      -5.5852      1.00000
     14      -5.1251      1.00000
     15      -4.7682      1.00000
     16      -4.6827      1.00000
     17      -4.5176      1.00000
     18      -4.3100      1.00000
     19      -4.1136      1.00000
     20      -4.0018      1.00000
     21      -3.6971      1.00000
     22      -3.4580      1.00000
     23      -3.2596      1.00000
     24      -3.1269      1.00000
     25      -3.1012      1.00000
     26      -2.2666      1.00000
     27      -1.4559      0.00000
     28      -1.0755      0.00000
     29      -0.9758      0.00000
     30      -0.3919      0.00000
     31      -0.3537      0.00000
     32      -0.3522      0.00000
     33      -0.0292      0.00000
     34       0.0241      0.00000
     35       0.3146      0.00000
     36       0.4719      0.00000
     37       0.5210      0.00000
     38       0.6331      0.00000
     39       0.9896      0.00000
     40       1.4421      0.00000
     41       1.6346      0.00000
     42       1.7071      0.00000
     43       2.7717      0.00000
     44       2.8720      0.00000
     45       2.8790      0.00000
     46       2.9647      0.00000
     47       3.0504      0.00000
     48       3.4657      0.00000

[...]

 soft charge-density along one line, spin component           2
         0         1         2         3         4         5         6         7         8         9
 total charge-density along one line

------------------------ aborting loop because EDIFF is reached ----------------------------------------

[...]

  FORCE on cell =-STRESS in cart. coord.  units (eV):
  Direction    XX          YY          ZZ          XY          YZ          ZX
  Alpha Z    14.01319    14.01319    14.01319
  Ewald    7594.01999  7594.01778 -9089.09988    -0.00109    -0.00040    -0.00073
  Hartree  7905.09844  7905.09884 -7764.45197    -0.00001     0.00005     0.00009
  E(xc)    -227.45890  -227.45885  -227.60664    -0.00001     0.00002     0.00002
  Local  -16371.75721-16371.75628 15943.21925     0.00083     0.00026     0.00047
  n-local   716.94983   717.77855   734.05754     0.25678     0.49290     0.49528
  augment  -108.42380  -108.42373  -116.30157     0.00006     0.00002     0.00002
  Kinetic   480.61577   473.53439   506.10479    -4.71527    -0.08697    -0.29664
  Fock        0.00000     0.00000     0.00000     0.00000     0.00000     0.00000
  Total      -0.06940    -0.06940    -0.06527     0.00000    -0.00000    -0.00000
  in kB      -0.11808    -0.11808    -0.11105     0.00000    -0.00000    -0.00000

 VOLUME and BASIS-vectors are now :
  energy-cutoff  :      520.00
  volume of cell :      941.68
      direct lattice vectors                 reciprocal lattice vectors
     6.878463027 -0.000000069  0.000000000     0.145381314 -0.083935936  0.000000000
     3.439231080  5.956923325  0.000000000     0.000000002  0.167871893 -0.000000000
     0.000000000  0.000000000 22.982089610    -0.000000000 -0.000000000  0.043512144

  length of vectors
     6.878463027  6.878462468 22.982089610     0.167871879  0.167871893  0.043512144

 FORCES acting on ions
    electron-ion (+dipol)            ewald-force                    non-local-force                 convergence-correction
   -.202E-04 -.208E-04 0.640E+01   0.323E-03 0.192E-03 -.646E+01   -.139E-16 0.243E-19 0.157E+00   -.125E-06 -.735E-07 -.995E-04
   0.253E-04 0.138E-04 0.508E+01   -.323E-03 -.192E-03 -.514E+01   0.633E-28 0.250E-19 0.162E+00   0.275E-08 0.131E-08 0.212E-04
   -.325E-04 -.196E-04 0.172E+03   -.142E-03 -.784E-04 -.171E+03   -.104E-16 0.692E-17 -.951E-01   -.225E-07 -.849E-08 -.277E-01
   0.342E-04 0.345E-04 -.202E+03   0.180E-03 0.997E-04 0.202E+03   0.234E-16 -.140E-18 -.909E+00   -.515E-08 0.197E-08 0.370E-01
   -.601E-01 0.167E+00 -.343E+03   -.336E+01 -.146E+00 0.347E+03   0.347E+01 -.125E-01 -.450E+01   0.517E-02 -.163E-01 0.576E-01
   0.174E+00 -.335E-01 -.343E+03   0.156E+01 0.299E+01 0.347E+03   -.174E+01 -.300E+01 -.450E+01   -.167E-01 0.366E-02 0.576E-01
   -.117E+00 -.135E+00 -.343E+03   0.181E+01 -.284E+01 0.347E+03   -.172E+01 0.301E+01 -.450E+01   0.115E-01 0.126E-01 0.576E-01
   0.743E+01 -.143E+00 0.349E+03   -.377E+01 0.153E+00 -.354E+03   -.346E+01 0.153E-01 0.443E+01   -.471E-02 -.163E-01 -.596E-01
   -.384E+01 -.636E+01 0.349E+03   0.202E+01 0.319E+01 -.354E+03   0.174E+01 0.299E+01 0.443E+01   -.118E-01 0.122E-01 -.596E-01
   -.359E+01 0.650E+01 0.349E+03   0.175E+01 -.335E+01 -.354E+03   0.172E+01 -.301E+01 0.443E+01   0.165E-01 0.407E-02 -.596E-01
   0.674E-05 0.294E-04 0.898E+00   -.200E-14 -.266E-14 0.000E+00   0.444E-15 -.444E-15 -.892E+00   -.183E-06 -.107E-06 0.333E-02

 POSITION                                       TOTAL-FORCE (eV/Angst)
      3.43923      1.98564     11.48932        -0.000000      0.000000      0.095015
      6.87847      3.97128     11.49277        -0.000000      0.000000      0.105067
      0.00000      0.00000     10.30094        -0.000000      0.000000      0.504820
      0.00000      0.00000     12.70915        -0.000000      0.000000      0.024778
      4.30982      0.00250     13.18602         0.048536     -0.006714     -0.088015
      1.28649      2.22327     13.18602        -0.030083     -0.038677     -0.088015
      4.72139      3.73116     13.18602        -0.018454      0.045391     -0.088015
      6.00788      5.95442      9.79607         0.183844      0.008555     -0.155212
      9.03120      3.73366      9.79607        -0.084513     -0.163491     -0.155212
      5.59630      2.22576      9.79607        -0.099331      0.154936     -0.155212
    total drift:                                0.000007      0.000029      0.009510

  FREE ENERGIE OF THE ION-ELECTRON SYSTEM (eV)
  free  energy   TOTEN  =       -42.56868487 eV

  energy  without entropy=      -42.56868487  energy(sigma->0) =      -42.56868487

 d Force =-0.6203217E-05[-0.780E-05,-0.460E-05]  d Energy =-0.1601195E-03 0.154E-03
 d Force =-0.6374353E-01[-0.637E-01,-0.637E-01]  d Ewald  = 0.6609835E+00-0.725E+00

 reached required accuracy - stopping structural energy minimisation

 total charge

[...]

 magnetization (x)

# of ion       s       p       d       tot
    1        0.041   0.045   2.894   2.980
    2        0.041   0.045   2.893   2.979
    3        0.005   0.023  -0.002   0.025
    4       -0.016   0.002   0.000  -0.014
    5       -0.002  -0.103   0.004  -0.101
    6       -0.003  -0.099   0.004  -0.097
    7       -0.004  -0.109   0.004  -0.109
    8       -0.000  -0.093   0.005  -0.088
    9       -0.002  -0.075   0.005  -0.072
   10       -0.002  -0.089   0.005  -0.086
tot          0.058  -0.453   5.811   5.416

 BZINTS: Fermi energy: -1.621638; 57.000000 electrons
         Band energy:-384.680620;  BLOECHL correction: -0.030165