 vasp.5.4.4.18Apr17-6-g9f103f2a35 (build May  1 2020 15:48:39) complex
 executed on             LinuxGNU date 2020.06.24  05:35:23

 INCAR:
 POTCAR:   PAW_PBE Co 06Sep2000
 POTCAR:   PAW_PBE Ge 05Jan2001
 POTCAR:   PAW_PBE Se 06Sep2000

 POTCAR:   PAW_PBE Co 06Sep2000
   VRHFIN =Co: d8 s1

   TITEL  = PAW_PBE Co 06Sep2000
   POMASS =   58.933; ZVAL   =    9.000    mass and valenz
   ENMAX  =  267.969; ENMIN  =  200.977 eV
   QCUT   =   -4.438; QGAM   =    8.876    optimization parameters

   Description
     l     E      TYP  RCUT    TYP  RCUT
     2   .000     23  2.300
     2   .000     23  2.300
     0   .000     23  2.300
     0   .000     23  2.300
     1  -.200     23  2.300
     1   .000     23  2.300
     3   .000      7   .000

 POTCAR:   PAW_PBE Ge 05Jan2001
   VRHFIN =Ge: s2p2

   TITEL  = PAW_PBE Ge 05Jan2001
   POMASS =   72.610; ZVAL   =    4.000    mass and valenz
   ENMAX  =  173.807; ENMIN  =  130.355 eV
   QCUT   =   -3.574; QGAM   =    7.148    optimization parameters

[...]

 POTCAR:   PAW_PBE Se 06Sep2000
   VRHFIN =Se: s2p4

   TITEL  = PAW_PBE Se 06Sep2000
   POMASS =   78.960; ZVAL   =    6.000    mass and valenz
   ENMAX  =  211.534; ENMIN  =  158.651 eV
   QCUT   =   -3.943; QGAM   =    7.886    optimization parameters

   Description
     l     E      TYP  RCUT    TYP  RCUT
     0   .000     23  2.100
     0   .000     23  2.100
     1   .000     23  2.100
     1   .000     23  2.100
     2   .000     23  2.100
     3  -.100      7  2.100

 Optimization of the real space projectors (new method)

 maximal supplied QI-value         = 16.25
 optimisation between [QCUT,QGAM] = [ 11.54, 23.24] = [ 37.28,151.24] Ry
 Optimized for a Real-space Cutoff    1.53 Angstroem

   l    n(q)    QCUT    max X(q) W(low)/X(q) W(high)/X(q)  e(spline)
   2     10    11.539     4.599    0.83E-05    0.15E-04    0.45E-07
   2     10    11.539    18.158    0.10E-03    0.14E-03    0.24E-06
   0     11    11.539    15.740    0.19E-04    0.12E-05    0.17E-07
   0     11    11.539    47.662    0.48E-04    0.15E-04    0.31E-06
   1     10    11.539     5.777    0.11E-04    0.46E-05    0.25E-07
   1     10    11.539     8.007    0.46E-04    0.29E-04    0.11E-06
 Optimization of the real space projectors (new method)

[...]

   l    n(q)    QCUT    max X(q) W(low)/X(q) W(high)/X(q)  e(spline)
   0      9    11.539     8.651    0.22E-04    0.16E-04    0.10E-07
   0      9    11.539    33.192    0.11E-03    0.16E-03    0.65E-07
   1      8    11.539     5.899    0.37E-04    0.28E-04    0.43E-07
   1      8    11.539    27.289    0.22E-03    0.28E-04    0.14E-06
   2      8    11.539     4.673    0.11E-03    0.18E-03    0.58E-07
 Optimization of the real space projectors (new method)

 maximal supplied QI-value         = 17.95
 optimisation between [QCUT,QGAM] = [ 11.67, 23.34] = [ 38.13,152.52] Ry
 Optimized for a Real-space Cutoff    1.25 Angstroem

   l    n(q)    QCUT    max X(q) W(low)/X(q) W(high)/X(q)  e(spline)
   0      9    11.669     6.499    0.13E-04    0.81E-05    0.11E-07
   0      9    11.669    52.623    0.18E-03    0.46E-04    0.72E-07
   1      8    11.669     4.229    0.40E-04    0.45E-04    0.31E-07
   1      8    11.669    29.991    0.22E-03    0.36E-03    0.10E-06
   2      8    11.669     3.719    0.19E-03    0.46E-04    0.50E-07

 PAW_PBE Co 06Sep2000                   :
 PAW_PBE Ge 05Jan2001                   :
 PAW_PBE Se 06Sep2000                   :

 POSCAR: Co2 Ge2 Se6
  positions in direct lattice
  velocities in cartesian coordinates
 exchange correlation table for  LEXCH =       42
   RHO(1)=    0.500       N(1)  =     2000
   RHO(2)=  100.500       N(2)  =     4000

 ion  position               nearest neighbor table
   1  0.333  0.333  0.500-   6 2.78   5 2.78   7 2.78   8 2.78  10 2.78   9 2.78
   2  0.667  0.667  0.500-   9 2.78   8 2.78  10 2.78   5 2.78   7 2.78   6 2.78
   3  0.000  0.000  0.448-   4 2.43   8 2.63  10 2.63   9 2.63
   4  0.000  0.000  0.552-   3 2.43   5 2.63   7 2.63   6 2.63
   5  0.626  0.000  0.574-   4 2.63   1 2.78   2 2.78
   6  0.000  0.373  0.574-   4 2.63   1 2.78   2 2.78
   7  0.373  0.626  0.574-   4 2.63   1 2.78   2 2.78
   8  0.374  1.000  0.426-   3 2.63   2 2.78   1 2.78
   9  1.000  0.627  0.426-   3 2.63   2 2.78   1 2.78
  10  0.627  0.374  0.426-   3 2.63   2 2.78   1 2.78

  LATTYP: Found a hexagonal cell.
 ALAT       =     6.9077769333
 C/A-ratio  =     3.3939410937

  Lattice vectors:

 A1 = (   3.4538890000,  -5.9823100000,   0.0000000000)
 A2 = (  -6.9077770000,   0.0000000000,   0.0000000000)
 A3 = (   0.0000000000,   0.0000000000, -23.4445880000)

Analysis of symmetry for initial positions (statically):
 Subroutine PRICEL returns:
 Original cell was already a primitive cell.

 Routine SETGRP: Setting up the symmetry group for a
 hexagonal supercell.

 Subroutine GETGRP returns: Found  6 space group operations
 (whereof  6 operations were pure point group operations)
 out of a pool of 24 trial point group operations.

The static configuration has the point symmetry S_6 .

Analysis of symmetry for dynamics (positions and initial velocities):
 Subroutine PRICEL returns:
 Original cell was already a primitive cell.

[...]

The dynamic configuration has the point symmetry S_6 .

Analysis of constrained symmetry for selective dynamics:
 Subroutine PRICEL returns:
 Original cell was already a primitive cell.

[...]

The constrained configuration has the point symmetry S_6 .

Analysis of structural, dynamic, and magnetic symmetry:
 Subroutine PRICEL returns:
 Original cell was already a primitive cell.

 Routine SETGRP: Setting up the symmetry group for a
 hexagonal supercell.

 Subroutine GETGRP returns: Found  6 space group operations
 (whereof  6 operations were pure point group operations)
 out of a pool of 24 trial point group operations.

The magnetic configuration has the point symmetry S_6 .

 Subroutine INISYM returns: Found  6 space group operations
 (whereof  6 operations are pure point group operations),
 and found     1 'primitive' translations

 KPOINTS: Kpoints from vasprun.xml

Automatic generation of k-mesh.
Space group operators:
 irot       det(A)        alpha          n_x          n_y          n_z        tau_x        tau_y        tau_z
    1     1.000000     0.000000     1.000000     0.000000     0.000000     0.000000     0.000000     0.000000
    2    -1.000000     0.000000     1.000000     0.000000     0.000000     0.000000     0.000000     0.000000
    3     1.000000   120.000000     0.000000     0.000000     1.000000     0.000000     0.000000     0.000000
    4    -1.000000   120.000000     0.000000     0.000000     1.000000     0.000000     0.000000     0.000000
    5     1.000000   120.000000     0.000000     0.000000    -1.000000     0.000000     0.000000     0.000000
    6    -1.000000   120.000000     0.000000     0.000000    -1.000000     0.000000     0.000000     0.000000

 Subroutine IBZKPT returns following result:

 Found      5 irreducible k-points:

 Following reciprocal coordinates:
            Coordinates               Weight
  0.000000  0.000000  0.000000      1.000000
  0.200000  0.000000  0.000000      6.000000
  0.400000  0.000000  0.000000      6.000000
  0.400000  0.200000  0.000000      6.000000
 -0.400000  0.200000  0.000000      6.000000

 Following cartesian coordinates:
            Coordinates               Weight
  0.000000  0.000000  0.000000      1.000000
  0.028953 -0.016716  0.000000      6.000000
  0.057906 -0.033432  0.000000      6.000000
  0.057906  0.000000  0.000000      6.000000
 -0.057906  0.066864  0.000000      6.000000

 TETIRR: Found     15 inequivalent tetrahedra from      150

 SYSTEM =  unknown system
 POSCAR =  Co2 Ge2 Se6

 Startparameter for this run:
   NWRITE =      2    write-flag & timer
   PREC   = accura    normal or accurate (medium, high low for compatibility)
   ISTART =      0    job   : 0-new  1-cont  2-samecut
   ICHARG =      2    charge: 1-file 2-atom 10-const
   ISPIN  =      2    spin polarized calculation?
   LNONCOLLINEAR =      F non collinear calculations
   LSORBIT =      F    spin-orbit coupling
   INIWAV =      1    electr: 0-lowe 1-rand  2-diag
   LASPH  =      F    aspherical Exc in radial PAW
   METAGGA=      F    non-selfconsistent MetaGGA calc.

 Electronic Relaxation 1
   ENCUT  =  520.0 eV  38.22 Ry    6.18 a.u.  12.84 12.84 43.59*2*pi/ulx,y,z
   ENINI  =  520.0     initial cutoff
   ENAUG  =  477.8 eV  augmentation charge cutoff
   NELM   =    400;   NELMIN=  2; NELMDL=  0     # of ELM steps
   EDIFF  = 0.1E-03   stopping-criterion for ELM
   LREAL  =      T    real-space projection
   NLSPLINE    = F    spline interpolate recip. space projectors
   LCOMPAT=      F    compatible to vasp.4.4
   GGA_COMPAT  = T    GGA compatible to vasp.4.4-vasp.4.6
   LMAXPAW     = -100 max onsite density
   LMAXMIX     =    2 max onsite mixed and CHGCAR
   VOSKOWN=      0    Vosko Wilk Nusair interpolation
   ROPT   =   -0.00025  -0.00025  -0.00025
 Ionic relaxation
   EDIFFG = 0.1E-02   stopping-criterion for IOM
   NSW    =     99    number of steps for IOM
   NBLOCK =      1;   KBLOCK =     99    inner block; outer block
   IBRION =      2    ionic relax: 0-MD 1-quasi-New 2-CG
   NFREE  =      1    steps in history (QN), initial steepest desc. (CG)
   ISIF   =      3    stress and relaxation
   IWAVPR =     11    prediction:  0-non 1-charg 2-wave 3-comb
   ISYM   =      2    0-nonsym 1-usesym 2-fastsym
   LCORR  =      T    Harris-Foulkes like correction to forces

   POTIM  = 0.5000    time-step for ionic-motion
   TEIN   =    0.0    initial temperature
   TEBEG  =    0.0;   TEEND  =   0.0 temperature during run
   SMASS  =  -3.00    Nose mass-parameter (am)
   estimated Nose-frequenzy (Omega)   =  0.10E-29 period in steps =****** mass=  -0.109E-26a.u.
   SCALEE = 1.0000    scale energy and forces
   NPACO  =    256;   APACO  = 16.0  distance and # of slots for P.C.
   PSTRESS=    0.0 pullay stress

  Mass of Ions in am
   POMASS =  58.93 72.61 78.96
  Ionic Valenz
   ZVAL   =   9.00  4.00  6.00
  Atomic Wigner-Seitz radii
  virtual crystal weights
   VCA    =   1.00  1.00  1.00
   NELECT =      62.0000    total number of electrons
   NUPDOWN=      -1.0000    fix difference up-down

 DOS related values:
   EMIN   =  10.00;   EMAX   =-10.00  energy-range for DOS
   EFERMI =   0.00
   ISMEAR =    -5;   SIGMA  =   0.05  broadening in eV -4-tet -1-fermi 0-gaus

 Electronic relaxation 2 (details)
   IALGO  =     38    algorithm
   LDIAG  =      T    sub-space diagonalisation (order eigenvalues)
   LSUBROT=      F    optimize rotation matrix (better conditioning)
   TURBO    =      0    0=normal 1=particle mesh
   IRESTART =      0    0=no restart 2=restart with 2 vectors
   NREBOOT  =      0    no. of reboots
   NMIN     =      0    reboot dimension
   EREF     =   0.00    reference energy to select bands
   IMIX   =      4    mixing-type and parameters
     AMIX     =   0.40;   BMIX     =  1.00
     AMIX_MAG =   1.60;   BMIX_MAG =  1.00
     AMIN     =   0.01
     WC   =   100.;   INIMIX=   1;  MIXPRE=   1;  MAXMIX= -45

 Intra band minimization:
   WEIMIN = 0.0010     energy-eigenvalue tresh-hold
[...]
   -.357E-04 0.269E-05 0.181E+03   -.141E-03 -.779E-04 -.179E+03   0.867E-18 0.173E-17 -.254E+01   -.304E-06 -.707E-06 -.288E+00
   0.357E-04 -.269E-05 -.181E+03   0.141E-03 0.779E-04 0.179E+03   -.347E-17 -.173E-17 0.254E+01   0.304E-06 0.707E-06 0.288E+00
   -.204E+02 0.155E+00 -.404E+03   0.186E+02 -.155E+00 0.405E+03   0.199E+01 -.619E-02 -.259E+01   0.392E+00 -.132E-03 0.103E+01
   0.103E+02 0.176E+02 -.404E+03   -.941E+01 -.160E+02 0.405E+03   -.100E+01 -.172E+01 -.259E+01   -.196E+00 -.340E+00 0.103E+01
   0.101E+02 -.178E+02 -.404E+03   -.915E+01 0.162E+02 0.405E+03   -.992E+00 0.173E+01 -.259E+01   -.196E+00 0.340E+00 0.103E+01
   0.204E+02 -.155E+00 0.404E+03   -.186E+02 0.155E+00 -.405E+03   -.199E+01 0.619E-02 0.259E+01   -.392E+00 0.132E-03 -.103E+01
   -.103E+02 -.176E+02 0.404E+03   0.941E+01 0.160E+02 -.405E+03   0.100E+01 0.172E+01 0.259E+01   0.196E+00 0.340E+00 -.103E+01
   -.101E+02 0.178E+02 0.404E+03   0.915E+01 -.162E+02 -.405E+03   0.992E+00 -.173E+01 0.259E+01   0.196E+00 -.340E+00 -.103E+01
   -.980E-11 -.135E-09 0.721E-10   0.711E-14 0.711E-14 0.171E-12   0.000E+00 0.000E+00 0.444E-15   0.117E-13 -.420E-13 -.330E-11

 POSITION                                       TOTAL-FORCE (eV/Angst)
      3.45388      1.99410     11.72054        -0.000000      0.000000      0.002554
      6.90778      3.98821     11.72405        -0.000000     -0.000000     -0.002554
      0.00000      0.00000     10.50824        -0.000000     -0.000000     -0.982518
      0.00000      0.00000     12.93635        -0.000000      0.000000      0.982518
      4.32819      0.00251     13.45138         0.520491     -0.005353     -1.228309
      1.29198      2.23274     13.45138        -0.264882     -0.448082     -1.228309
      4.74152      3.74706     13.45138        -0.255609      0.453435     -1.228309
      6.03348      5.97980      9.99321        -0.520491      0.005353      1.228309
      9.06969      3.74957      9.99321         0.264882      0.448082      1.228309
      5.62015      2.23525      9.99321         0.255609     -0.453435      1.228309
    total drift:                               -0.000000     -0.000000      0.000000

  FREE ENERGIE OF THE ION-ELECTRON SYSTEM (eV)
  free  energy   TOTEN  =       -36.05833830 eV

  energy  without entropy=      -36.05833830  energy(sigma->0) =      -36.05833830

[...]

 d Force = 0.4353840E+00[ 0.359E+00, 0.511E+00]  d Energy = 0.2545804E+01-0.211E+01
 d Force =-0.1493055E+03[-0.157E+03,-0.141E+03]  d Ewald  =-0.1117769E+04 0.968E+03

 Steepest descent step on ions:
 trial-energy change:   -2.545804  1 .order   -1.564629   -1.456440   -1.672817
  (g-gl).g = 0.146E+01      g.g   = 0.146E+01  gl.gl    = 0.000E+00
 g(Force)  = 0.515E+00   g(Stress)= 0.941E+00 ortho     = 0.000E+00
 gamma     =   0.00000
 trial     =   1.00000
 opt step  =   4.00000  (harmonic =   4.00000) maximal distance =0.23702760
 next E    =   -43.615113   (d E  =  -7.55678)

[...]

 d Force =-0.1976145E+01[-0.505E+01, 0.110E+01]  d Energy =-0.7296690E+01 0.532E+01
 d Force =-0.5742589E+03[-0.675E+03,-0.473E+03]  d Ewald  =-0.4772600E+04 0.420E+04

[...]

 d Force = 0.2299939E+01[-0.425E+00, 0.503E+01]  d Energy = 0.8032975E+01-0.573E+01
 d Force = 0.4857546E+03[ 0.413E+03, 0.558E+03]  d Ewald  = 0.4120801E+04-0.364E+04

[...]

 d Force = 0.3866285E-01[-0.201E-01, 0.974E-01]  d Energy = 0.1941533E+00-0.155E+00
 d Force =-0.8679627E+02[-0.893E+02,-0.843E+02]  d Ewald  =-0.6973118E+03 0.611E+03

[...]

 d Force = 0.2166018E-02[-0.448E-03, 0.478E-02]  d Energy = 0.9246223E-02-0.708E-02
 d Force = 0.1789668E+02[ 0.178E+02, 0.180E+02]  d Ewald  = 0.1455367E+03-0.128E+03

[...]

 Conjugate gradient step on ions:
 trial-energy change:   -0.161970  1 .order   -0.111733   -1.079285    0.855819
  (g-gl).g = 0.911E+00      g.g   = 0.985E+00  gl.gl    = 0.146E+01
 g(Force)  = 0.635E+00   g(Stress)= 0.350E+00 ortho     = 0.742E-01
 gamma     =   0.62531
 trial     =   1.04645
 opt step  =   0.62292  (harmonic =   0.58365) maximal distance =0.04084071
 next E    =   -39.875655   (d E  =  -0.33183)

[...]

 d Force =-0.1428970E+00[-0.190E+00,-0.960E-01]  d Energy = 0.1651899E+00-0.308E+00
 d Force = 0.9266481E+02[ 0.911E+02, 0.942E+02]  d Ewald  = 0.1917608E+03-0.991E+02

[...]

 d Force = 0.4061112E+00[ 0.183E-01, 0.794E+00]  d Energy = 0.4511598E+00-0.450E-01
 d Force =-0.1098567E+03[-0.111E+03,-0.109E+03]  d Ewald  = 0.6083225E+03-0.718E+03

[...]

 d Force =-0.3332155E-02[-0.536E-02,-0.131E-02]  d Energy = 0.3580339E-02-0.691E-02
 d Force = 0.8896913E+01[ 0.889E+01, 0.890E+01]  d Ewald  =-0.4647944E+02 0.554E+02

[...]

 d Force = 0.7155492E-02[-0.418E-03, 0.147E-01]  d Energy = 0.3295409E-01-0.258E-01
 d Force = 0.2041940E+02[ 0.204E+02, 0.204E+02]  d Ewald  =-0.1483211E+03 0.169E+03

 Conjugate gradient step on ions:
 trial-energy change:   -0.032954  1 .order   -0.034828   -0.072276    0.002620
  (g-gl).g =-0.738E-02      g.g   = 0.763E-01  gl.gl    = 0.105E+01
 g(Force)  = 0.159E-01   g(Stress)= 0.604E-01 ortho     =-0.237E-02
 gamma     =  -0.00703
 trial     =   0.94661
 opt step  =   0.90792  (harmonic =   0.91349) maximal distance =0.00727542
 next E    =   -40.358734   (d E  =  -0.03301)

[...]

 d Force = 0.1963036E-05[-0.105E-04, 0.145E-04]  d Energy =-0.1713307E-03 0.173E-03
 d Force =-0.8209436E+00[-0.821E+00,-0.821E+00]  d Ewald  = 0.6028778E+01-0.685E+01

[...]

 Conjugate gradient step on ions:
 trial-energy change:   -0.012695  1 .order   -0.012531   -0.019593   -0.005470
  (g-gl).g = 0.228E-01      g.g   = 0.213E-01  gl.gl    = 0.763E-01
 g(Force)  = 0.502E-02   g(Stress)= 0.163E-01 ortho     =-0.161E-02
 gamma     =   0.29877
 trial     =   0.93887
 opt step  =   1.30253  (harmonic =   1.30253) maximal distance =0.00895321
 next E    =   -40.372100   (d E  =  -0.01359)

[...]

 Conjugate gradient step on ions:
 trial-energy change:   -0.003540  1 .order   -0.003588   -0.005017   -0.002159
  (g-gl).g = 0.159E-02      g.g   = 0.466E-02  gl.gl    = 0.931E-02
 g(Force)  = 0.321E-02   g(Stress)= 0.145E-02 ortho     = 0.766E-03
 gamma     =   0.17096
 trial     =   1.04693
 opt step  =   1.83786  (harmonic =   1.83786) maximal distance =0.01104117
 next E    =   -40.379819   (d E  =  -0.00440)

[...]

 d Force = 0.4882520E-03[ 0.317E-03, 0.659E-03]  d Energy = 0.1594517E-02-0.111E-02
 d Force =-0.5782055E+01[-0.578E+01,-0.578E+01]  d Ewald  =-0.1625543E+02 0.105E+02

 Conjugate gradient step on ions:
 trial-energy change:   -0.001595  1 .order   -0.000737   -0.000852   -0.000621
  (g-gl).g = 0.763E-03      g.g   = 0.723E-03  gl.gl    = 0.466E-02
 g(Force)  = 0.515E-03   g(Stress)= 0.208E-03 ortho     =-0.992E-04
 gamma     =   0.16361
 trial     =   1.20512
 opt step  =   4.45808  (harmonic =   4.45808) maximal distance =0.00758283
 next E    =   -40.380866   (d E  =  -0.00158)

[...]

 d Force =-0.3060979E-03[-0.147E-02, 0.857E-03]  d Energy =-0.1422621E-04-0.292E-03
 d Force =-0.1562788E+02[-0.156E+02,-0.156E+02]  d Ewald  =-0.4388729E+02 0.283E+02

[...]

 d Force = 0.4570650E-03[ 0.280E-03, 0.634E-03]  d Energy = 0.4400950E-03 0.170E-04
 d Force =-0.8302014E+00[-0.830E+00,-0.831E+00]  d Ewald  = 0.4855600E+01-0.569E+01

 Steepest descent step on ions:
 trial-energy change:   -0.000440  1 .order   -0.001101   -0.001552   -0.000649
  (g-gl).g = 0.183E-02      g.g   = 0.157E-02  gl.gl    = 0.723E-03
 g(Force)  = 0.641E-03   g(Stress)= 0.931E-03 ortho     =-0.170E-03
 gamma     =   0.00000
 trial     =   0.98720
 opt step  =   1.69688  (harmonic =   1.69688) maximal distance =0.00384547
 next E    =   -40.382205   (d E  =  -0.00133)

[...]

 eigenvalue-minimisations  :  1184
 total energy-change (2. order) :-0.3295387E-03  (-0.3853554E-03)
 number of electron      62.0000005 magnetization      -0.0000000
 augmentation part        2.2969385 magnetization      -0.0000120

 Broyden mixing:
  rms(total) = 0.70555E-02    rms(broyden)= 0.70555E-02
  rms(prec ) = 0.80966E-02
  weight for this iteration     100.00

 eigenvalues of (default mixing * dielectric matrix)
  average eigenvalue GAMMA=   0.9680
  0.2367  0.8023  1.8651

[...]

--------------------------------------- Iteration     22(   5)  ---------------------------------------

[...]

 eigenvalue-minimisations  :   864
 total energy-change (2. order) : 0.1481714E-04  (-0.1095675E-04)
 number of electron      62.0000005 magnetization      -0.0000000
 augmentation part        2.2969385 magnetization      -0.0000120

 Free energy of the ion-electron system (eV)
  alpha Z        PSCENC =        51.40323986
  Ewald energy   TEWEN  =     10114.74840474
  -Hartree energ DENC   =    -13140.06240987
  -exchange      EXHF   =         0.00000000
  -V(xc)+E(xc)   XCENC  =         9.63137419
  PAW double counting   =      2154.81936540    -2143.18575227
  entropy T*S    EENTRO =         0.00000000
  eigenvalues    EBANDS =      -483.37445672
  atomic energy  EATOM  =      3395.63962523
  Solvation  Ediel_sol  =         0.00000000
  free energy    TOTEN  =       -40.38060945 eV

  energy without entropy =      -40.38060945  energy(sigma->0) =      -40.38060945

 average (electrostatic) potential at core
  the test charge radii are     1.0452  1.1631  1.0808
  (the norm of the test charge is              1.0000)
       1 -49.0754       2 -49.0754       3 -39.8169       4 -39.8169       5 -61.5428
       6 -61.5428       7 -61.5428       8 -61.5428       9 -61.5428      10 -61.5428

 E-fermi :  -3.1583     XC(G=0):  -3.6115     alpha+bet : -2.5589

[...]

 spin component 2

[...]

 k-point     5 :      -0.4000    0.2000    0.0000
  band No.  band energies     occupation
      1     -16.5883      1.00000
      2     -16.5782      1.00000
      3     -16.0969      1.00000
      4     -15.8884      1.00000
      5     -15.8573      1.00000
      6     -15.6470      1.00000
      7     -11.7995      1.00000
      8     -10.1117      1.00000
      9      -8.0403      1.00000
     10      -7.5196      1.00000
     11      -7.4602      1.00000
     12      -7.0170      1.00000
     13      -6.6239      1.00000
     14      -6.6042      1.00000
     15      -6.3383      1.00000
     16      -5.8629      1.00000
     17      -5.8299      1.00000
     18      -5.7488      1.00000
     19      -5.7273      1.00000
     20      -5.4893      1.00000
     21      -5.3581      1.00000
     22      -4.6783      1.00000
     23      -4.3708      1.00000
     24      -4.3544      1.00000
     25      -4.2108      1.00000
     26      -3.7955      1.00000
     27      -3.7584      1.00000
     28      -3.6461      1.00000
     29      -3.4908      1.00000
     30      -3.4789      1.00000
     31      -3.4342      1.00000
     32      -2.2626      0.00000
     33      -2.0235      0.00000
     34      -1.9806      0.00000
     35      -1.7194      0.00000
     36      -1.4370      0.00000
     37      -0.7050      0.00000
     38       0.3890      0.00000
     39       0.4670      0.00000
     40       1.1390      0.00000
     41       1.2790      0.00000
     42       1.4646      0.00000
     43       2.4380      0.00000
     44       2.5410      0.00000
     45       2.5750      0.00000
     46       2.6281      0.00000
     47       3.1076      0.00000
     48       3.4417      0.00000

[...]

 soft charge-density along one line, spin component           2
         0         1         2         3         4         5         6         7         8         9
 total charge-density along one line

------------------------ aborting loop because EDIFF is reached ----------------------------------------

[...]

  FORCE on cell =-STRESS in cart. coord.  units (eV):
  Direction    XX          YY          ZZ          XY          YZ          ZX
  Alpha Z    51.40324    51.40324    51.40324
  Ewald   12092.08495 12092.08313-14069.42190    -0.00236    -0.00051    -0.00092
  Hartree 12676.27813 12676.27919-12208.36256    -0.00049     0.00007     0.00011
  E(xc)    -256.51142  -256.51147  -256.24464     0.00007     0.00001     0.00001
  Local  -25487.57739-25487.57776 25528.85030     0.00242     0.00027     0.00051
  n-local   223.39585   223.44149   226.02637    -0.04417     0.54750     0.45920
  augment    73.18960    73.18936    69.66627     0.00034     0.00123    -0.00066
  Kinetic   630.04147   624.64899   658.07231    -3.49088     1.62152     1.89180
  Fock        0.00000     0.00000     0.00000     0.00000     0.00000     0.00000
  Total      -0.36970    -0.36970    -0.01060     0.00000     0.00000     0.00000
  in kB      -0.76359    -0.76359    -0.02190     0.00000     0.00000     0.00000

 VOLUME and BASIS-vectors are now :
  energy-cutoff  :      520.00
  volume of cell :      775.71
      direct lattice vectors                 reciprocal lattice vectors
     6.228519818 -0.000000386 -0.000000000     0.160551783 -0.092694623  0.000000000
     3.114259896  5.394055943 -0.000000000     0.000000011  0.185389246  0.000000000
    -0.000000000 -0.000000000 23.088704836     0.000000000  0.000000000  0.043311221

  length of vectors
     6.228519818  6.228519424 23.088704836     0.185389234  0.185389246  0.043311221

 FORCES acting on ions
    electron-ion (+dipol)            ewald-force                    non-local-force                 convergence-correction
   0.119E-03 0.533E-04 -.666E-01   0.680E-03 0.412E-03 0.676E-01   -.139E-16 -.139E-16 -.150E-02   -.260E-06 -.157E-06 -.879E-04
   -.119E-03 -.533E-04 0.666E-01   -.680E-03 -.412E-03 -.676E-01   0.208E-16 0.139E-16 0.150E-02   0.260E-06 0.157E-06 0.879E-04
   -.514E-04 0.484E-06 0.246E+03   -.174E-03 -.975E-04 -.243E+03   0.168E-16 0.683E-17 -.276E+01   0.456E-07 0.210E-07 -.366E-01
   0.514E-04 -.484E-06 -.246E+03   0.174E-03 0.975E-04 0.243E+03   -.988E-17 -.163E-17 0.276E+01   -.456E-07 -.210E-07 0.366E-01
   -.334E+02 -.211E-02 -.508E+03   0.311E+02 0.142E-02 0.510E+03   0.230E+01 0.598E-03 -.271E+01   0.106E-01 -.599E-04 0.782E-01
   0.167E+02 0.289E+02 -.508E+03   -.156E+02 -.269E+02 0.510E+03   -.115E+01 -.200E+01 -.271E+01   -.535E-02 -.915E-02 0.782E-01
   0.167E+02 -.289E+02 -.508E+03   -.156E+02 0.269E+02 0.510E+03   -.115E+01 0.200E+01 -.271E+01   -.525E-02 0.921E-02 0.782E-01
   0.334E+02 0.211E-02 0.508E+03   -.311E+02 -.142E-02 -.510E+03   -.230E+01 -.598E-03 0.271E+01   -.106E-01 0.599E-04 -.782E-01
   -.167E+02 -.289E+02 0.508E+03   0.156E+02 0.269E+02 -.510E+03   0.115E+01 0.200E+01 0.271E+01   0.535E-02 0.915E-02 -.782E-01
   -.167E+02 0.289E+02 0.508E+03   0.156E+02 -.269E+02 -.510E+03   0.115E+01 -.200E+01 0.271E+01   0.525E-02 -.921E-02 -.782E-01
   0.117E-09 0.291E-09 -.412E-09   -.213E-13 0.355E-14 0.000E+00   0.000E+00 0.000E+00 0.133E-14   -.464E-13 -.817E-12 0.433E-10

 POSITION                                       TOTAL-FORCE (eV/Angst)
      3.11426      1.79802     11.54446        -0.000000     -0.000000     -0.000617
      6.22852      3.59604     11.54424        -0.000000     -0.000000      0.000617
     -0.00000     -0.00000     10.34873         0.000000      0.000000     -0.061731
     -0.00000     -0.00000     12.73998        -0.000000     -0.000000      0.061731
      3.79807     -0.00008     13.04558        -0.000489      0.000477     -0.051753
      1.21516      2.10487     13.04558         0.000658      0.000185     -0.051753
      4.32956      3.28927     13.04558        -0.000168     -0.000662     -0.051753
      2.43045      0.00008     10.04313         0.000489     -0.000477      0.051753
      1.89910      3.28918     10.04313        -0.000658     -0.000185      0.051753
      5.01322      2.10479     10.04313         0.000168      0.000662      0.051753
    total drift:                                0.000000      0.000000     -0.000000

  FREE ENERGIE OF THE ION-ELECTRON SYSTEM (eV)
  free  energy   TOTEN  =       -40.38060945 eV

  energy  without entropy=      -40.38060945  energy(sigma->0) =      -40.38060945

 d Force = 0.1181509E-03[ 0.348E-04, 0.202E-03]  d Energy =-0.7014710E-03 0.820E-03
 d Force =-0.5961956E+00[-0.596E+00,-0.596E+00]  d Ewald  = 0.3491184E+01-0.409E+01

 reached required accuracy - stopping structural energy minimisation

 total charge

[...]

 magnetization (x)

# of ion       s       p       d       tot
    1        0.000   0.000   0.000   0.000
    2        0.000   0.000   0.000   0.000
    3       -0.000  -0.000  -0.000  -0.000
    4       -0.000  -0.000  -0.000  -0.000
    5       -0.000  -0.000   0.000  -0.000
    6       -0.000  -0.000  -0.000  -0.000
    7       -0.000  -0.000   0.000  -0.000
    8       -0.000  -0.000   0.000  -0.000
    9       -0.000  -0.000  -0.000  -0.000
   10       -0.000  -0.000   0.000  -0.000
tot         -0.000  -0.000   0.000   0.000

 BZINTS: Fermi energy: -3.158349; 62.000000 electrons
         Band energy:-483.374457;  BLOECHL correction:  0.000000