 vasp.5.4.4.18Apr17-6-g9f103f2a35 (build May  1 2020 15:48:39) complex
 executed on             LinuxGNU date 2020.06.16  13:38:20

 INCAR:
 POTCAR:   PAW_PBE Cr 06Sep2000
 POTCAR:   PAW_PBE Ge 05Jan2001
 POTCAR:    PAW_PBE P 17Jan2003
 POTCAR:   PAW_PBE Se 06Sep2000

 POTCAR:   PAW_PBE Cr 06Sep2000
   VRHFIN =Cr : d5 s1

   TITEL  = PAW_PBE Cr 06Sep2000
   POMASS =   51.996; ZVAL   =    6.000    mass and valenz
   ENMAX  =  227.082; ENMIN  =  170.311 eV
   QCUT   =   -4.085; QGAM   =    8.171    optimization parameters

   Description
     l     E      TYP  RCUT    TYP  RCUT
     2   .000     23  2.500
     2   .000     23  2.500
     0   .000     23  2.500
     0   .000     23  2.500
     1  -.400     23  2.500
     1  2.000     23  2.500
     3   .000      7   .000

 POTCAR:   PAW_PBE Ge 05Jan2001
   VRHFIN =Ge: s2p2

   TITEL  = PAW_PBE Ge 05Jan2001
   POMASS =   72.610; ZVAL   =    4.000    mass and valenz
   ENMAX  =  173.807; ENMIN  =  130.355 eV
   QCUT   =   -3.574; QGAM   =    7.148    optimization parameters

[...]

 POTCAR:    PAW_PBE P 17Jan2003
   VRHFIN =P : s2p3

   TITEL  = PAW_PBE P 17Jan2003
   POMASS =   30.974; ZVAL   =    5.000    mass and valenz
   ENMAX  =  270.000; ENMIN  =  191.280 eV
   QCUT   =   -4.330; QGAM   =    8.659    optimization parameters

[...]

 POTCAR:   PAW_PBE Se 06Sep2000
   VRHFIN =Se: s2p4

   TITEL  = PAW_PBE Se 06Sep2000
   POMASS =   78.960; ZVAL   =    6.000    mass and valenz
   ENMAX  =  211.534; ENMIN  =  158.651 eV
   QCUT   =   -3.943; QGAM   =    7.886    optimization parameters

   Description
     l     E      TYP  RCUT    TYP  RCUT
     0   .000     23  2.100
     0   .000     23  2.100
     1   .000     23  2.100
     1   .000     23  2.100
     2   .000     23  2.100
     3  -.100      7  2.100

 Optimization of the real space projectors (new method)

 maximal supplied QI-value         = 15.12
 optimisation between [QCUT,QGAM] = [ 11.64, 23.28] = [ 37.95,151.78] Ry
 Optimized for a Real-space Cutoff    1.49 Angstroem

   l    n(q)    QCUT    max X(q) W(low)/X(q) W(high)/X(q)  e(spline)
   2      9    11.641     4.777    0.25E-04    0.21E-05    0.63E-07
   2      9    11.641    31.132    0.13E-03    0.22E-03    0.64E-06
   0     10    11.641    20.416    0.11E-04    0.74E-05    0.19E-07
   0     10    11.641    45.408    0.10E-03    0.85E-04    0.30E-06
   1     10    11.641     7.848    0.22E-04    0.23E-04    0.56E-07
   1     10    11.641     9.895    0.85E-04    0.54E-04    0.16E-06
 Optimization of the real space projectors (new method)

[...]

   l    n(q)    QCUT    max X(q) W(low)/X(q) W(high)/X(q)  e(spline)
   0      8    11.508     6.651    0.19E-04    0.31E-05    0.49E-08
   0      8    11.508    90.285    0.95E-04    0.17E-03    0.51E-07
   1      8    11.508     4.328    0.14E-04    0.32E-04    0.22E-07
   1      8    11.508    54.583    0.16E-03    0.71E-04    0.89E-07
 Optimization of the real space projectors (new method)

 maximal supplied QI-value         = 17.95
 optimisation between [QCUT,QGAM] = [ 11.67, 23.34] = [ 38.13,152.52] Ry
 Optimized for a Real-space Cutoff    1.25 Angstroem

   l    n(q)    QCUT    max X(q) W(low)/X(q) W(high)/X(q)  e(spline)
   0      9    11.669     6.499    0.13E-04    0.81E-05    0.11E-07
   0      9    11.669    52.623    0.18E-03    0.46E-04    0.72E-07
   1      8    11.669     4.229    0.40E-04    0.45E-04    0.31E-07
   1      8    11.669    29.991    0.22E-03    0.36E-03    0.10E-06
   2      8    11.669     3.719    0.19E-03    0.46E-04    0.50E-07

 PAW_PBE Cr 06Sep2000                   :
 PAW_PBE Ge 05Jan2001                   :
  PAW_PBE P 17Jan2003                   :
 PAW_PBE Se 06Sep2000                   :

 POSCAR: Cr2 Ge P Se6
  positions in direct lattice
  velocities in cartesian coordinates
 exchange correlation table for  LEXCH =       42
   RHO(1)=    0.500       N(1)  =     2000
   RHO(2)=  100.500       N(2)  =     4000

 ion  position               nearest neighbor table
   1  0.333  0.333  0.500-   6 2.78   5 2.78   7 2.78   8 2.78  10 2.78   9 2.78
   2  0.667  0.667  0.500-   9 2.78   8 2.78  10 2.78   5 2.78   7 2.78   6 2.78
   3  0.000  0.000  0.448-   4 2.43   8 2.63  10 2.63   9 2.63
   4  0.000  0.000  0.552-   3 2.43   5 2.63   7 2.63   6 2.63
   5  0.626  0.000  0.574-   4 2.63   1 2.78   2 2.78
   6  0.000  0.373  0.574-   4 2.63   1 2.78   2 2.78
   7  0.373  0.626  0.574-   4 2.63   1 2.78   2 2.78
   8  0.374  1.000  0.426-   3 2.63   2 2.78   1 2.78
   9  1.000  0.627  0.426-   3 2.63   2 2.78   1 2.78
  10  0.627  0.374  0.426-   3 2.63   2 2.78   1 2.78

  LATTYP: Found a hexagonal cell.
 ALAT       =     6.9077769333
 C/A-ratio  =     3.3939410937

  Lattice vectors:

 A1 = (   3.4538890000,  -5.9823100000,   0.0000000000)
 A2 = (  -6.9077770000,   0.0000000000,   0.0000000000)
 A3 = (   0.0000000000,   0.0000000000, -23.4445880000)

Analysis of symmetry for initial positions (statically):
 Subroutine PRICEL returns:
 Original cell was already a primitive cell.

 Routine SETGRP: Setting up the symmetry group for a
 hexagonal supercell.

 Subroutine GETGRP returns: Found  3 space group operations
 (whereof  3 operations were pure point group operations)
 out of a pool of 24 trial point group operations.

The static configuration has the point symmetry C_3 .

Analysis of symmetry for dynamics (positions and initial velocities):
 Subroutine PRICEL returns:
 Original cell was already a primitive cell.

[...]

The dynamic configuration has the point symmetry C_3 .

Analysis of constrained symmetry for selective dynamics:
 Subroutine PRICEL returns:
 Original cell was already a primitive cell.

[...]

The constrained configuration has the point symmetry C_3 .

Analysis of structural, dynamic, and magnetic symmetry:
 Subroutine PRICEL returns:
 Original cell was already a primitive cell.

 Routine SETGRP: Setting up the symmetry group for a
 hexagonal supercell.

 Subroutine GETGRP returns: Found  3 space group operations
 (whereof  3 operations were pure point group operations)
 out of a pool of 24 trial point group operations.

The magnetic configuration has the point symmetry C_3 .

 Subroutine INISYM returns: Found  3 space group operations
 (whereof  3 operations are pure point group operations),
 and found     1 'primitive' translations

 KPOINTS: Kpoints from vasprun.xml

Automatic generation of k-mesh.
Space group operators:
 irot       det(A)        alpha          n_x          n_y          n_z        tau_x        tau_y        tau_z
    1     1.000000     0.000000     1.000000     0.000000     0.000000     0.000000     0.000000     0.000000
    2     1.000000   120.000000     0.000000     0.000000     1.000000     0.000000     0.000000     0.000000
    3     1.000000   120.000000     0.000000     0.000000    -1.000000     0.000000     0.000000     0.000000

 Subroutine IBZKPT returns following result:

 Found      5 irreducible k-points:

 Following reciprocal coordinates:
            Coordinates               Weight
  0.000000  0.000000  0.000000      1.000000
  0.200000  0.000000  0.000000      6.000000
  0.400000  0.000000  0.000000      6.000000
  0.400000  0.200000  0.000000      6.000000
 -0.400000  0.200000  0.000000      6.000000

 Following cartesian coordinates:
            Coordinates               Weight
  0.000000  0.000000  0.000000      1.000000
  0.028953 -0.016716  0.000000      6.000000
  0.057906 -0.033432  0.000000      6.000000
  0.057906  0.000000  0.000000      6.000000
 -0.057906  0.066864  0.000000      6.000000

 TETIRR: Found     15 inequivalent tetrahedra from      150

 SYSTEM =  unknown system
 POSCAR =  Cr2 Ge P Se6

 Startparameter for this run:
   NWRITE =      2    write-flag & timer
   PREC   = accura    normal or accurate (medium, high low for compatibility)
   ISTART =      0    job   : 0-new  1-cont  2-samecut
   ICHARG =      2    charge: 1-file 2-atom 10-const
   ISPIN  =      2    spin polarized calculation?
   LNONCOLLINEAR =      F non collinear calculations
   LSORBIT =      F    spin-orbit coupling
   INIWAV =      1    electr: 0-lowe 1-rand  2-diag
   LASPH  =      F    aspherical Exc in radial PAW
   METAGGA=      F    non-selfconsistent MetaGGA calc.

 Electronic Relaxation 1
   ENCUT  =  520.0 eV  38.22 Ry    6.18 a.u.  12.84 12.84 43.59*2*pi/ulx,y,z
   ENINI  =  520.0     initial cutoff
   ENAUG  =  446.8 eV  augmentation charge cutoff
   NELM   =    400;   NELMIN=  2; NELMDL=  0     # of ELM steps
   EDIFF  = 0.1E-03   stopping-criterion for ELM
   LREAL  =      T    real-space projection
   NLSPLINE    = F    spline interpolate recip. space projectors
   LCOMPAT=      F    compatible to vasp.4.4
   GGA_COMPAT  = T    GGA compatible to vasp.4.4-vasp.4.6
   LMAXPAW     = -100 max onsite density
   LMAXMIX     =    2 max onsite mixed and CHGCAR
   VOSKOWN=      0    Vosko Wilk Nusair interpolation
   ROPT   =   -0.00025  -0.00025  -0.00025  -0.00025
 Ionic relaxation
   EDIFFG = 0.1E-02   stopping-criterion for IOM
   NSW    =     99    number of steps for IOM
   NBLOCK =      1;   KBLOCK =     99    inner block; outer block
   IBRION =      2    ionic relax: 0-MD 1-quasi-New 2-CG
   NFREE  =      1    steps in history (QN), initial steepest desc. (CG)
   ISIF   =      3    stress and relaxation
   IWAVPR =     11    prediction:  0-non 1-charg 2-wave 3-comb
   ISYM   =      2    0-nonsym 1-usesym 2-fastsym
   LCORR  =      T    Harris-Foulkes like correction to forces

   POTIM  = 0.5000    time-step for ionic-motion
   TEIN   =    0.0    initial temperature
   TEBEG  =    0.0;   TEEND  =   0.0 temperature during run
   SMASS  =  -3.00    Nose mass-parameter (am)
   estimated Nose-frequenzy (Omega)   =  0.10E-29 period in steps =****** mass=  -0.109E-26a.u.
   SCALEE = 1.0000    scale energy and forces
   NPACO  =    256;   APACO  = 16.0  distance and # of slots for P.C.
   PSTRESS=    0.0 pullay stress

  Mass of Ions in am
   POMASS =  52.00 72.61 30.97 78.96
  Ionic Valenz
   ZVAL   =   6.00  4.00  5.00  6.00
  Atomic Wigner-Seitz radii
  virtual crystal weights
   VCA    =   1.00  1.00  1.00  1.00
   NELECT =      57.0000    total number of electrons
   NUPDOWN=      -1.0000    fix difference up-down

 DOS related values:
   EMIN   =  10.00;   EMAX   =-10.00  energy-range for DOS
   EFERMI =   0.00
   ISMEAR =    -5;   SIGMA  =   0.05  broadening in eV -4-tet -1-fermi 0-gaus

 Electronic relaxation 2 (details)
   IALGO  =     38    algorithm
   LDIAG  =      T    sub-space diagonalisation (order eigenvalues)
   LSUBROT=      F    optimize rotation matrix (better conditioning)
   TURBO    =      0    0=normal 1=particle mesh
   IRESTART =      0    0=no restart 2=restart with 2 vectors
   NREBOOT  =      0    no. of reboots
   NMIN     =      0    reboot dimension
   EREF     =   0.00    reference energy to select bands
   IMIX   =      4    mixing-type and parameters
     AMIX     =   0.40;   BMIX     =  1.00
     AMIX_MAG =   1.60;   BMIX_MAG =  1.00
     AMIN     =   0.01
     WC   =   100.;   INIMIX=   1;  MIXPRE=   1;  MAXMIX= -45

 Intra band minimization:
   WEIMIN = 0.0010     energy-eigenvalue tresh-hold
   EBREAK =  0.52E-06  absolut break condition
[...]
    1        0.279   0.298   4.095   4.672
    2        0.279   0.298   4.095   4.671
    3        1.177   0.936   0.066   2.179
    4        1.132   1.194   0.000   2.326
    5        1.494   2.197   0.019   3.710
    6        1.488   2.172   0.019   3.679
    7        1.492   2.189   0.019   3.701
    8        1.487   2.226   0.018   3.731
    9        1.483   2.209   0.018   3.710
   10        1.486   2.217   0.018   3.721
tot         11.798  15.936   8.367  36.101

 magnetization (x)

[...]

  FORCE on cell =-STRESS in cart. coord.  units (eV):
  Direction    XX          YY          ZZ          XY          YZ          ZX
  Alpha Z    32.59752    32.59752    32.59752
  Ewald    7704.79684  7704.79469 -9187.98168    -0.00106    -0.00039    -0.00072
  Hartree  8116.63989  8116.64028 -7917.18317    -0.00003     0.00005     0.00008
  E(xc)    -215.60706  -215.60492  -215.49257    -0.00181    -0.00037    -0.00009
  Local  -16547.87192-16547.87117 16348.67948     0.00082     0.00020     0.00038
  n-local   293.46806   294.41040   302.50906     0.35189     0.16809     0.15697
  augment    25.29909    25.29923    22.26957    -0.00007    -0.00005     0.00006
  Kinetic   572.48773   569.21455   601.97267    -2.33960     0.28471    -0.00381
  Fock        0.00000     0.00000     0.00000     0.00000     0.00000     0.00000
  Total     -19.35464   -19.35464   -12.62912     0.00000    -0.00000     0.00000
  in kB     -32.00706   -32.00706   -20.88497     0.00000    -0.00000     0.00000

 VOLUME and BASIS-vectors are now :
  energy-cutoff  :      520.00
  volume of cell :      968.84
      direct lattice vectors                 reciprocal lattice vectors
     6.907777000 -0.000000000  0.000000000     0.144764372 -0.083579742  0.000000000
     3.453888000  5.982310000  0.000000000     0.000000000  0.167159509 -0.000000000
     0.000000000  0.000000000 23.444588000    -0.000000000  0.000000000  0.042653767

[...]

 FORCES acting on ions
    electron-ion (+dipol)            ewald-force                    non-local-force                 convergence-correction
   -.788E-04 -.470E-04 0.636E+01   0.314E-03 0.187E-03 -.600E+01   0.347E-17 0.000E+00 0.110E-01   0.824E-07 -.280E-05 -.183E+00
   0.802E-04 0.443E-04 0.499E+01   -.314E-03 -.187E-03 -.471E+01   0.694E-17 0.000E+00 0.246E-01   -.212E-05 -.126E-06 -.126E+00
   -.222E-04 -.306E-04 0.171E+03   -.141E-03 -.779E-04 -.170E+03   -.347E-17 0.000E+00 -.112E+01   0.289E-07 0.650E-07 -.363E-01
   0.313E-04 0.297E-04 -.195E+03   0.176E-03 0.973E-04 0.197E+03   -.226E-16 0.000E+00 -.112E+01   0.842E-05 0.102E-04 -.144E+00
   0.228E+01 0.241E+00 -.344E+03   -.353E+01 -.143E+00 0.346E+03   0.168E+01 -.161E-01 -.300E+01   0.449E-01 -.980E-01 -.278E+00
   -.931E+00 -.209E+01 -.344E+03   0.164E+01 0.313E+01 0.346E+03   -.854E+00 -.145E+01 -.300E+01   -.107E+00 0.100E-01 -.278E+00
   -.135E+01 0.185E+01 -.344E+03   0.189E+01 -.298E+01 0.346E+03   -.826E+00 0.146E+01 -.300E+01   0.624E-01 0.879E-01 -.278E+00
   0.449E+01 -.150E+00 0.350E+03   -.308E+01 0.150E+00 -.352E+03   -.200E+01 0.877E-02 0.289E+01   0.445E-02 -.258E-02 -.231E-01
   -.237E+01 -.381E+01 0.350E+03   0.167E+01 0.259E+01 -.352E+03   0.101E+01 0.172E+01 0.289E+01   -.446E-02 -.256E-02 -.231E-01
   -.211E+01 0.396E+01 0.350E+03   0.141E+01 -.274E+01 -.352E+03   0.990E+00 -.173E+01 0.289E+01   0.161E-04 0.514E-02 -.231E-01
   0.530E-04 0.258E-04 0.391E+01   0.142E-13 0.533E-14 0.568E-13   0.444E-15 -.222E-15 -.255E+01   0.278E-05 -.300E-04 -.139E+01

 POSITION                                       TOTAL-FORCE (eV/Angst)
      3.45388      1.99410     11.72054        -0.000000      0.000000      0.193792
      6.90778      3.98821     11.72405        -0.000000      0.000000      0.182132
      0.00000      0.00000     10.50824        -0.000000      0.000000      0.145822
      0.00000      0.00000     12.93635        -0.000000      0.000000      0.574967
      4.32819      0.00251     13.45138         0.473600     -0.015554     -1.409377
      1.29198      2.23274     13.45138        -0.250270     -0.402373     -1.409377
      4.74152      3.74706     13.45138        -0.223330      0.417927     -1.409377
      6.03348      5.97980      9.99321        -0.586202      0.005252      1.043806
      9.06969      3.74957      9.99321         0.297650      0.505040      1.043806
      5.62015      2.23525      9.99321         0.288552     -0.510292      1.043806
    total drift:                                0.000056     -0.000004     -0.037243

  FREE ENERGIE OF THE ION-ELECTRON SYSTEM (eV)
  free  energy   TOTEN  =       -45.62449732 eV

  energy  without entropy=      -45.62449732  energy(sigma->0) =      -45.62449732

[...]

 d Force = 0.1982757E+00[-0.111E+00, 0.508E+00]  d Energy = 0.2385075E+01-0.219E+01
 d Force =-0.1233940E+03[-0.136E+03,-0.111E+03]  d Ewald  =-0.1139067E+04 0.102E+04

 Steepest descent step on ions:
 trial-energy change:   -2.385075  1 .order   -1.883044   -4.927151    1.161063
  (g-gl).g = 0.493E+01      g.g   = 0.493E+01  gl.gl    = 0.000E+00
 g(Force)  = 0.543E+00   g(Stress)= 0.438E+01 ortho     = 0.000E+00
 gamma     =   0.00000
 trial     =   1.00000
 opt step  =   0.86652  (harmonic =   0.80929) maximal distance =0.04363441
 next E    =   -48.085869   (d E  =  -2.46137)

[...]

 d Force = 0.6896444E-02[-0.232E-02, 0.161E-01]  d Energy = 0.8536373E-01-0.785E-01
 d Force = 0.1919489E+02[ 0.189E+02, 0.195E+02]  d Ewald  = 0.1714287E+03-0.152E+03

[...]

 d Force = 0.2298850E-01[ 0.113E-01, 0.346E-01]  d Energy = 0.2290893E-01 0.796E-04
 d Force = 0.4489370E+01[ 0.456E+01, 0.442E+01]  d Ewald  =-0.5223255E+02 0.567E+02

 Conjugate gradient step on ions:
 trial-energy change:   -0.022909  1 .order   -0.023854   -0.037259   -0.010448
  (g-gl).g = 0.609E-01      g.g   = 0.386E-01  gl.gl    = 0.493E+01
 g(Force)  = 0.353E-01   g(Stress)= 0.324E-02 ortho     =-0.223E-01
 gamma     =   0.01235
 trial     =   0.97330
 opt step  =   1.54412  (harmonic =   1.35261) maximal distance =0.04613461
 next E    =   -48.120718   (d E  =  -0.02578)

[...]

 d Force = 0.3003110E-02[-0.636E-03, 0.664E-02]  d Energy = 0.1132988E-02 0.187E-02
 d Force = 0.2698782E+01[ 0.273E+01, 0.267E+01]  d Ewald  =-0.3068203E+02 0.334E+02

[...]

 d Force = 0.2525376E-02[ 0.729E-03, 0.432E-02]  d Energy = 0.3839679E-02-0.131E-02
 d Force =-0.1259069E+01[-0.126E+01,-0.126E+01]  d Ewald  = 0.5325782E+02-0.545E+02

 Conjugate gradient step on ions:
 trial-energy change:   -0.003840  1 .order   -0.004535   -0.007179   -0.001891
  (g-gl).g = 0.114E-01      g.g   = 0.787E-02  gl.gl    = 0.386E-01
 g(Force)  = 0.430E-02   g(Stress)= 0.357E-02 ortho     =-0.426E-02
 gamma     =   0.29651
 trial     =   1.08747
 opt step  =   1.47619  (harmonic =   1.47619) maximal distance =0.01191758
 next E    =   -48.123851   (d E  =  -0.00487)

[...]

 d Force = 0.3380682E-04[-0.193E-03, 0.261E-03]  d Energy = 0.9851301E-04-0.647E-04
 d Force =-0.4521138E+00[-0.452E+00,-0.452E+00]  d Ewald  = 0.1895593E+02-0.194E+02

[...]

 eigenvalues of (default mixing * dielectric matrix)
  average eigenvalue GAMMA=   0.9768
  1.8610  0.7054  0.3639

[...]

 d Force = 0.6382811E-03[ 0.594E-04, 0.122E-02]  d Energy =-0.1578241E-03 0.796E-03
 d Force =-0.2245787E+01[-0.225E+01,-0.225E+01]  d Ewald  = 0.3051578E+02-0.328E+02

 Conjugate gradient step on ions:
 trial-energy change:    0.000158  1 .order   -0.001924   -0.003359   -0.000488
  (g-gl).g = 0.457E-03      g.g   = 0.285E-02  gl.gl    = 0.787E-02
 g(Force)  = 0.108E-02   g(Stress)= 0.178E-02 ortho     = 0.513E-03
 gamma     =   0.05812
 trial     =   1.16521
 opt step  =   1.36337  (harmonic =   1.36337) maximal distance =0.00217756
 next E    =   -48.124882   (d E  =  -0.00197)

[...]

 eigenvalue-minimisations  :  1104
 total energy-change (2. order) :-0.6853418E-04  (-0.5833524E-03)
 number of electron      57.0000001 magnetization       5.3731778
 augmentation part       -2.7389830 magnetization       4.0034731

 Broyden mixing:
  rms(total) = 0.64834E-02    rms(broyden)= 0.64830E-02
  rms(prec ) = 0.76916E-02
  weight for this iteration     100.00

[...]

--------------------------------------- Iteration      9(   2)  ---------------------------------------

[...]

 eigenvalue-minimisations  :  1088
 total energy-change (2. order) : 0.5386672E-04  (-0.5912044E-04)
 number of electron      57.0000001 magnetization       5.3731778
 augmentation part       -2.7389830 magnetization       4.0034731

 Free energy of the ion-electron system (eV)
  alpha Z        PSCENC =        40.83134442
  Ewald energy   TEWEN  =      7164.24223440
  -Hartree energ DENC   =     -9284.67188219
  -exchange      EXHF   =         0.00000000
  -V(xc)+E(xc)   XCENC  =       -48.19536848
  PAW double counting   =      1292.41539650    -1142.01234201
  entropy T*S    EENTRO =         0.00000000
  eigenvalues    EBANDS =      -459.70570210
  atomic energy  EATOM  =      2388.97348331
  Solvation  Ediel_sol  =         0.00000000
  free energy    TOTEN  =       -48.12283614 eV

  energy without entropy =      -48.12283614  energy(sigma->0) =      -48.12283614

 average (electrostatic) potential at core
  the test charge radii are     1.1394  1.1631  0.9587  1.0808
  (the norm of the test charge is              1.0000)
       1 -51.2801       2 -51.2741       3 -39.9818       4 -92.5473       5 -61.3016
       6 -61.3016       7 -61.3016       8 -61.0890       9 -61.0890      10 -61.0890

 E-fermi :  -2.2142     XC(G=0):  -3.4750     alpha+bet : -2.7117

[...]

 spin component 2

[...]

 k-point     5 :      -0.4000    0.2000    0.0000
  band No.  band energies     occupation
      1     -16.8812      1.00000
      2     -16.1863      1.00000
      3     -15.9398      1.00000
      4     -15.8614      1.00000
      5     -15.6325      1.00000
      6     -15.4818      1.00000
      7     -12.6056      1.00000
      8     -10.4910      1.00000
      9      -7.9528      1.00000
     10      -7.4844      1.00000
     11      -7.3140      1.00000
     12      -6.7981      1.00000
     13      -6.6781      1.00000
     14      -6.1673      1.00000
     15      -5.8543      1.00000
     16      -5.7243      1.00000
     17      -5.7063      1.00000
     18      -5.3077      1.00000
     19      -5.1916      1.00000
     20      -5.0734      1.00000
     21      -4.8351      1.00000
     22      -4.3377      1.00000
     23      -4.1796      1.00000
     24      -4.1491      1.00000
     25      -4.0940      1.00000
     26      -2.9952      1.00000
     27      -1.8887      0.00000
     28      -1.6308      0.00000
     29      -1.5962      0.00000
     30      -0.9616      0.00000
     31      -0.8708      0.00000
     32      -0.8454      0.00000
     33      -0.6001      0.00000
     34      -0.5115      0.00000
     35      -0.0543      0.00000
     36       0.0138      0.00000
     37       0.0215      0.00000
     38       0.2919      0.00000
     39       0.6025      0.00000
     40       1.2975      0.00000
     41       1.4663      0.00000
     42       1.5206      0.00000
     43       2.8352      0.00000
     44       3.0264      0.00000
     45       3.1197      0.00000
     46       3.1466      0.00000
     47       3.3649      0.00000
     48       3.5515      0.00000

[...]

 soft charge-density along one line, spin component           2
         0         1         2         3         4         5         6         7         8         9
 total charge-density along one line

------------------------ aborting loop because EDIFF is reached ----------------------------------------

[...]

  FORCE on cell =-STRESS in cart. coord.  units (eV):
  Direction    XX          YY          ZZ          XY          YZ          ZX
  Alpha Z    40.83134    40.83134    40.83134
  Ewald    8783.95033  8783.94790-10403.65821    -0.00117    -0.00042    -0.00077
  Hartree  9122.09601  9122.09641 -8961.16264    -0.00003     0.00005     0.00008
  E(xc)    -220.52342  -220.52343  -220.57260     0.00002     0.00001     0.00001
  Local  -18645.88704-18645.88629 18585.62883     0.00082     0.00019     0.00036
  n-local   305.07290   306.29466   312.36744     0.57651     0.36450     0.38443
  augment    25.13628    25.13635    21.44084     0.00004     0.00002     0.00003
  Kinetic   592.18959   585.46590   625.09742    -4.29224    -0.03418    -0.35448
  Fock        0.00000     0.00000     0.00000     0.00000     0.00000     0.00000
  Total       0.11441     0.11441    -0.02758     0.00000     0.00000     0.00000
  in kB       0.23700     0.23700    -0.05713     0.00000     0.00000     0.00000

 VOLUME and BASIS-vectors are now :
  energy-cutoff  :      520.00
  volume of cell :      773.47
      direct lattice vectors                 reciprocal lattice vectors
     6.348699363 -0.000000030 -0.000000000     0.157512577 -0.090939923 -0.000000000
     3.174349329  5.498134638 -0.000000000     0.000000001  0.181879867 -0.000000000
     0.000000000  0.000000000 22.158512338     0.000000000  0.000000000  0.045129383

  length of vectors
     6.348699363  6.348698934 22.158512338     0.181879855  0.181879867  0.045129383

 FORCES acting on ions
    electron-ion (+dipol)            ewald-force                    non-local-force                 convergence-correction
   -.107E-03 -.678E-04 0.544E+01   0.382E-03 0.226E-03 -.574E+01   0.453E-20 -.139E-16 0.178E+00   -.766E-07 -.656E-07 0.258E-01
   0.108E-03 0.646E-04 0.451E+01   -.364E-03 -.216E-03 -.481E+01   0.416E-20 0.139E-16 0.164E+00   -.101E-07 -.389E-07 0.256E-01
   -.408E-04 -.116E-04 0.202E+03   -.169E-03 -.942E-04 -.200E+03   -.139E-16 -.698E-17 -.123E+01   -.797E-07 -.362E-07 0.325E-01
   0.474E-04 0.267E-04 -.249E+03   0.228E-03 0.127E-03 0.249E+03   -.382E-16 0.694E-17 -.982E-01   -.177E-06 -.914E-07 0.268E-02
   0.478E+01 0.107E-01 -.405E+03   -.697E+01 0.192E-01 0.407E+03   0.214E+01 -.304E-02 -.222E+01   0.439E-01 -.266E-01 0.204E-02
   -.238E+01 -.414E+01 -.405E+03   0.350E+01 0.603E+01 0.407E+03   -.107E+01 -.185E+01 -.222E+01   -.449E-01 -.247E-01 0.204E-02
   -.240E+01 0.413E+01 -.405E+03   0.347E+01 -.605E+01 0.407E+03   -.107E+01 0.185E+01 -.222E+01   0.106E-02 0.513E-01 0.204E-02
   0.597E+01 0.185E-01 0.418E+03   -.387E+01 0.556E-02 -.420E+03   -.209E+01 0.569E-02 0.225E+01   -.304E-01 -.262E-01 0.327E-01
   -.297E+01 -.517E+01 0.418E+03   0.194E+01 0.335E+01 -.420E+03   0.105E+01 0.181E+01 0.225E+01   -.747E-02 0.394E-01 0.327E-01
   -.300E+01 0.516E+01 0.418E+03   0.193E+01 -.335E+01 -.420E+03   0.104E+01 -.182E+01 0.225E+01   0.379E-01 -.132E-01 0.327E-01
   0.103E-03 0.478E-04 0.704E+00   -.200E-13 -.222E-14 0.000E+00   -.222E-15 -.222E-15 -.880E+00   -.436E-06 -.253E-06 0.191E+00

 POSITION                                       TOTAL-FORCE (eV/Angst)
      3.17435      1.83271     11.07759         0.000000      0.000000     -0.097511
      6.34870      3.66542     11.08092        -0.000000      0.000000     -0.110234
      0.00000      0.00000      9.93180         0.000000      0.000000      0.257097
      0.00000      0.00000     12.28741        -0.000000      0.000000      0.067883
      4.00207      0.00088     12.63542        -0.012636      0.000942      0.014993
      1.17408      2.03181     12.63542         0.007134      0.010472      0.014993
      4.34691      3.46545     12.63542         0.005502     -0.011415      0.014993
      5.54932      5.49716      9.46843        -0.027695      0.002928     -0.054071
      8.33471      3.44183      9.46843         0.016383      0.022521     -0.054071
      5.16205      2.05728      9.46843         0.011312     -0.025449     -0.054071
    total drift:                                0.000103      0.000048      0.014351

  FREE ENERGIE OF THE ION-ELECTRON SYSTEM (eV)
  free  energy   TOTEN  =       -48.12283614 eV

  energy  without entropy=      -48.12283614  energy(sigma->0) =      -48.12283614

 d Force =-0.7489144E-05[-0.250E-04, 0.100E-04]  d Energy = 0.7761230E-04-0.851E-04
 d Force =-0.3832273E+00[-0.383E+00,-0.383E+00]  d Ewald  = 0.5193312E+01-0.558E+01

 reached required accuracy - stopping structural energy minimisation

 total charge

[...]

 magnetization (x)

# of ion       s       p       d       tot
    1        0.035   0.040   2.801   2.876
    2        0.035   0.040   2.800   2.875
    3        0.006   0.028  -0.001   0.032
    4       -0.031   0.002   0.000  -0.029
    5       -0.003  -0.105   0.004  -0.104
    6       -0.003  -0.100   0.005  -0.097
    7       -0.004  -0.110   0.005  -0.110
    8        0.000  -0.080   0.005  -0.074
    9       -0.001  -0.061   0.005  -0.057
   10       -0.001  -0.076   0.005  -0.071
tot          0.033  -0.422   5.630   5.241

 BZINTS: Fermi energy: -2.214159; 57.000000 electrons
         Band energy:-459.705702;  BLOECHL correction: -0.025098