 vasp.5.4.4.18Apr17-6-g9f103f2a35 (build May  1 2020 15:48:39) complex
 executed on             LinuxGNU date 2020.06.15  22:54:07

 INCAR:
 POTCAR:   PAW_PBE Ni 06Sep2000
 POTCAR:    PAW_PBE P 17Jan2003
 POTCAR:   PAW_PBE Te 08Apr2002

 POTCAR:   PAW_PBE Ni 06Sep2000
   VRHFIN =Ni:

   TITEL  = PAW_PBE Ni 06Sep2000
   POMASS =   58.690; ZVAL   =   10.000    mass and valenz
   ENMAX  =  269.533; ENMIN  =  202.150 eV
   QCUT   =   -4.451; QGAM   =    8.902    optimization parameters

   Description
     l     E      TYP  RCUT    TYP  RCUT
     2   .000     23  2.300
     2   .000     23  2.300
     0   .000     23  2.300
     0   .000     23  2.300
     1  -.200     23  2.300
     1   .000     23  2.300
     3   .000      7   .000

 POTCAR:    PAW_PBE P 17Jan2003
   VRHFIN =P : s2p3

   TITEL  = PAW_PBE P 17Jan2003
   POMASS =   30.974; ZVAL   =    5.000    mass and valenz
   ENMAX  =  270.000; ENMIN  =  191.280 eV
   QCUT   =   -4.330; QGAM   =    8.659    optimization parameters

[...]

 POTCAR:   PAW_PBE Te 08Apr2002
   VRHFIN =Te: s2p4

   TITEL  = PAW_PBE Te 08Apr2002
   POMASS =  127.600; ZVAL   =    6.000    mass and valenz
   ENMAX  =  174.982; ENMIN  =  131.236 eV
   QCUT   =   -3.586; QGAM   =    7.172    optimization parameters

   Description
     l     E      TYP  RCUT    TYP  RCUT
     0   .000     23  2.300
     0   .000     23  2.300
     1   .000     23  2.300
     1   .000     23  2.300
     2   .000     23  2.300
     3  -.100     23  2.300

 Optimization of the real space projectors (new method)

 maximal supplied QI-value         = 16.25
 optimisation between [QCUT,QGAM] = [ 11.54, 23.24] = [ 37.28,151.24] Ry
 Optimized for a Real-space Cutoff    1.49 Angstroem

   l    n(q)    QCUT    max X(q) W(low)/X(q) W(high)/X(q)  e(spline)
   2      9    11.539     4.811    0.20E-04    0.14E-04    0.45E-07
   2      9    11.539    15.146    0.24E-03    0.12E-03    0.20E-06
   0     10    11.539    14.357    0.18E-04    0.12E-05    0.14E-07
   0     10    11.539    43.282    0.39E-04    0.17E-04    0.23E-06
   1     10    11.539     5.514    0.99E-05    0.13E-04    0.19E-07
   1     10    11.539     7.697    0.38E-04    0.79E-04    0.91E-07
 Optimization of the real space projectors (new method)

[...]

   l    n(q)    QCUT    max X(q) W(low)/X(q) W(high)/X(q)  e(spline)
   0      8    11.508     6.651    0.19E-04    0.31E-05    0.49E-08
   0      8    11.508    90.285    0.95E-04    0.17E-03    0.51E-07
   1      8    11.508     4.328    0.14E-04    0.32E-04    0.22E-07
   1      8    11.508    54.583    0.16E-03    0.71E-04    0.89E-07
 Optimization of the real space projectors (new method)

 maximal supplied QI-value         = 16.25
 optimisation between [QCUT,QGAM] = [ 11.54, 23.24] = [ 37.28,151.24] Ry
 Optimized for a Real-space Cutoff    1.36 Angstroem

   l    n(q)    QCUT    max X(q) W(low)/X(q) W(high)/X(q)  e(spline)
   0      9    11.539     7.090    0.13E-04    0.25E-05    0.51E-08
   0      9    11.539   101.654    0.53E-04    0.69E-04    0.12E-06
   1      9    11.539     5.276    0.20E-04    0.98E-05    0.24E-07
   1      9    11.539    81.891    0.24E-03    0.13E-04    0.15E-06
   2      9    11.539     5.599    0.30E-04    0.97E-04    0.54E-07

 PAW_PBE Ni 06Sep2000                   :
  PAW_PBE P 17Jan2003                   :
 PAW_PBE Te 08Apr2002                   :

 POSCAR: Ni2 P2 Te6
  positions in direct lattice
  velocities in cartesian coordinates
 exchange correlation table for  LEXCH =       42
   RHO(1)=    0.500       N(1)  =     2000
   RHO(2)=  100.500       N(2)  =     4000

 ion  position               nearest neighbor table
   1  0.333  0.333  0.500-   6 2.78   5 2.78   7 2.78   8 2.78  10 2.78   9 2.78
   2  0.667  0.667  0.500-   9 2.78   8 2.78  10 2.78   5 2.78   7 2.78   6 2.78
   3  0.000  0.000  0.448-   4 2.43   8 2.63  10 2.63   9 2.63
   4  0.000  0.000  0.552-   3 2.43   5 2.63   7 2.63   6 2.63
   5  0.626  0.000  0.574-   4 2.63   1 2.78   2 2.78
   6  0.000  0.373  0.574-   4 2.63   1 2.78   2 2.78
   7  0.373  0.626  0.574-   4 2.63   1 2.78   2 2.78
   8  0.374  1.000  0.426-   3 2.63   2 2.78   1 2.78
   9  1.000  0.627  0.426-   3 2.63   2 2.78   1 2.78
  10  0.627  0.374  0.426-   3 2.63   2 2.78   1 2.78

  LATTYP: Found a hexagonal cell.
 ALAT       =     6.9077769333
 C/A-ratio  =     3.3939410937

  Lattice vectors:

 A1 = (   3.4538890000,  -5.9823100000,   0.0000000000)
 A2 = (  -6.9077770000,   0.0000000000,   0.0000000000)
 A3 = (   0.0000000000,   0.0000000000, -23.4445880000)

Analysis of symmetry for initial positions (statically):
 Subroutine PRICEL returns:
 Original cell was already a primitive cell.

 Routine SETGRP: Setting up the symmetry group for a
 hexagonal supercell.

 Subroutine GETGRP returns: Found  6 space group operations
 (whereof  6 operations were pure point group operations)
 out of a pool of 24 trial point group operations.

The static configuration has the point symmetry S_6 .

Analysis of symmetry for dynamics (positions and initial velocities):
 Subroutine PRICEL returns:
 Original cell was already a primitive cell.

[...]

The dynamic configuration has the point symmetry S_6 .

Analysis of structural, dynamic, and magnetic symmetry:
 Subroutine PRICEL returns:
 Original cell was already a primitive cell.

 Routine SETGRP: Setting up the symmetry group for a
 hexagonal supercell.

 Subroutine GETGRP returns: Found  6 space group operations
 (whereof  6 operations were pure point group operations)
 out of a pool of 24 trial point group operations.

The magnetic configuration has the point symmetry S_6 .

 Subroutine INISYM returns: Found  6 space group operations
 (whereof  6 operations are pure point group operations),
 and found     1 'primitive' translations

 KPOINTS: Kpoints from vasprun.xml

Automatic generation of k-mesh.
Space group operators:
 irot       det(A)        alpha          n_x          n_y          n_z        tau_x        tau_y        tau_z
    1     1.000000     0.000000     1.000000     0.000000     0.000000     0.000000     0.000000     0.000000
    2    -1.000000     0.000000     1.000000     0.000000     0.000000     0.000000     0.000000     0.000000
    3     1.000000   120.000000     0.000000     0.000000     1.000000     0.000000     0.000000     0.000000
    4    -1.000000   120.000000     0.000000     0.000000     1.000000     0.000000     0.000000     0.000000
    5     1.000000   120.000000     0.000000     0.000000    -1.000000     0.000000     0.000000     0.000000
    6    -1.000000   120.000000     0.000000     0.000000    -1.000000     0.000000     0.000000     0.000000

 Subroutine IBZKPT returns following result:

 Found      5 irreducible k-points:

 Following reciprocal coordinates:
            Coordinates               Weight
  0.000000  0.000000  0.000000      1.000000
  0.200000  0.000000  0.000000      6.000000
  0.400000  0.000000  0.000000      6.000000
  0.400000  0.200000  0.000000      6.000000
 -0.400000  0.200000  0.000000      6.000000

 Following cartesian coordinates:
            Coordinates               Weight
  0.000000  0.000000  0.000000      1.000000
  0.028953 -0.016716  0.000000      6.000000
  0.057906 -0.033432  0.000000      6.000000
  0.057906  0.000000  0.000000      6.000000
 -0.057906  0.066864  0.000000      6.000000

 TETIRR: Found     15 inequivalent tetrahedra from      150

 SYSTEM =  unknown system
 POSCAR =  Ni2 P2 Te6

 Startparameter for this run:
   NWRITE =      2    write-flag & timer
   PREC   = accura    normal or accurate (medium, high low for compatibility)
   ISTART =      0    job   : 0-new  1-cont  2-samecut
   ICHARG =      2    charge: 1-file 2-atom 10-const
   ISPIN  =      2    spin polarized calculation?
   LNONCOLLINEAR =      F non collinear calculations
   LSORBIT =      F    spin-orbit coupling
   INIWAV =      1    electr: 0-lowe 1-rand  2-diag
   LASPH  =      F    aspherical Exc in radial PAW
   METAGGA=      F    non-selfconsistent MetaGGA calc.

 Electronic Relaxation 1
   ENCUT  =  520.0 eV  38.22 Ry    6.18 a.u.  12.84 12.84 43.59*2*pi/ulx,y,z
   ENINI  =  520.0     initial cutoff
   ENAUG  =  544.6 eV  augmentation charge cutoff
   NELM   =    400;   NELMIN=  2; NELMDL=  0     # of ELM steps
   EDIFF  = 0.1E-03   stopping-criterion for ELM
   LREAL  =      T    real-space projection
   NLSPLINE    = F    spline interpolate recip. space projectors
   LCOMPAT=      F    compatible to vasp.4.4
   GGA_COMPAT  = T    GGA compatible to vasp.4.4-vasp.4.6
   LMAXPAW     = -100 max onsite density
   LMAXMIX     =    2 max onsite mixed and CHGCAR
   VOSKOWN=      0    Vosko Wilk Nusair interpolation
   ROPT   =   -0.00025  -0.00025  -0.00025
 Ionic relaxation
   EDIFFG = 0.1E-02   stopping-criterion for IOM
   NSW    =     99    number of steps for IOM
   NBLOCK =      1;   KBLOCK =     99    inner block; outer block
   IBRION =      2    ionic relax: 0-MD 1-quasi-New 2-CG
   NFREE  =      1    steps in history (QN), initial steepest desc. (CG)
   ISIF   =      3    stress and relaxation
   IWAVPR =     11    prediction:  0-non 1-charg 2-wave 3-comb
   ISYM   =      2    0-nonsym 1-usesym 2-fastsym
   LCORR  =      T    Harris-Foulkes like correction to forces

   POTIM  = 0.5000    time-step for ionic-motion
   TEIN   =    0.0    initial temperature
   TEBEG  =    0.0;   TEEND  =   0.0 temperature during run
   SMASS  =  -3.00    Nose mass-parameter (am)
   estimated Nose-frequenzy (Omega)   =  0.10E-29 period in steps =****** mass=  -0.109E-26a.u.
   SCALEE = 1.0000    scale energy and forces
   NPACO  =    256;   APACO  = 16.0  distance and # of slots for P.C.
   PSTRESS=    0.0 pullay stress

  Mass of Ions in am
   POMASS =  58.69 30.97127.60
  Ionic Valenz
   ZVAL   =  10.00  5.00  6.00
  Atomic Wigner-Seitz radii
  virtual crystal weights
   VCA    =   1.00  1.00  1.00
   NELECT =      66.0000    total number of electrons
   NUPDOWN=      -1.0000    fix difference up-down

 DOS related values:
   EMIN   =  10.00;   EMAX   =-10.00  energy-range for DOS
   EFERMI =   0.00
   ISMEAR =    -5;   SIGMA  =   0.05  broadening in eV -4-tet -1-fermi 0-gaus

 Electronic relaxation 2 (details)
   IALGO  =     38    algorithm
   LDIAG  =      T    sub-space diagonalisation (order eigenvalues)
   LSUBROT=      F    optimize rotation matrix (better conditioning)
   TURBO    =      0    0=normal 1=particle mesh
   IRESTART =      0    0=no restart 2=restart with 2 vectors
   NREBOOT  =      0    no. of reboots
   NMIN     =      0    reboot dimension
   EREF     =   0.00    reference energy to select bands
   IMIX   =      4    mixing-type and parameters
     AMIX     =   0.40;   BMIX     =  1.00
     AMIX_MAG =   1.60;   BMIX_MAG =  1.00
     AMIN     =   0.01
     WC   =   100.;   INIMIX=   1;  MIXPRE=   1;  MAXMIX= -45

 Intra band minimization:
   WEIMIN = 0.0010     energy-eigenvalue tresh-hold
   EBREAK =  0.52E-06  absolut break condition
   DEPER  =   0.30     relativ break condition

   TIME   =   0.40     timestep for ELM

  volume/ion in A,a.u.               =      96.88       653.80
  Fermi-wavevector in a.u.,A,eV,Ry     =   0.668610  1.263490  6.082339  0.447039
[...]
  volume of cell :      968.84
      direct lattice vectors                 reciprocal lattice vectors
     6.907777000 -0.000000000  0.000000000     0.144764372 -0.083579742  0.000000000
     3.453888000  5.982310000  0.000000000     0.000000000  0.167159509 -0.000000000
     0.000000000  0.000000000 23.444588000    -0.000000000  0.000000000  0.042653767

[...]

 FORCES acting on ions
    electron-ion (+dipol)            ewald-force                    non-local-force                 convergence-correction
   0.241E-03 0.129E-03 0.119E+01   0.672E-03 0.403E-03 -.120E+01   -.104E-16 0.000E+00 0.133E-01   -.382E-05 -.220E-05 0.573E-04
   -.241E-03 -.128E-03 -.119E+01   -.672E-03 -.403E-03 0.120E+01   -.694E-17 0.000E+00 -.133E-01   0.382E-05 0.220E-05 -.573E-04
   -.317E-04 -.345E-04 0.247E+03   -.176E-03 -.974E-04 -.248E+03   0.208E-16 0.139E-16 0.190E+01   0.325E-06 0.166E-06 -.725E-02
   0.317E-04 0.345E-04 -.247E+03   0.176E-03 0.974E-04 0.248E+03   -.139E-16 -.139E-16 -.190E+01   -.325E-06 -.166E-06 0.725E-02
   -.165E+02 0.146E+00 -.435E+03   0.139E+02 -.145E+00 0.438E+03   0.258E+01 -.602E-02 -.378E+01   0.317E-02 0.947E-05 0.156E-01
   0.839E+01 0.142E+02 -.435E+03   -.710E+01 -.120E+02 0.438E+03   -.129E+01 -.223E+01 -.378E+01   -.158E-02 -.275E-02 0.156E-01
   0.814E+01 -.144E+02 -.435E+03   -.685E+01 0.122E+02 0.438E+03   -.128E+01 0.224E+01 -.378E+01   -.160E-02 0.274E-02 0.156E-01
   0.165E+02 -.146E+00 0.435E+03   -.139E+02 0.145E+00 -.438E+03   -.258E+01 0.602E-02 0.378E+01   -.317E-02 -.947E-05 -.156E-01
   -.839E+01 -.142E+02 0.435E+03   0.710E+01 0.120E+02 -.438E+03   0.129E+01 0.223E+01 0.378E+01   0.158E-02 0.275E-02 -.156E-01
   -.814E+01 0.144E+02 0.435E+03   0.685E+01 -.122E+02 -.438E+03   0.128E+01 -.224E+01 0.378E+01   0.160E-02 -.274E-02 -.156E-01
   0.567E-07 0.335E-07 0.154E-08   -.799E-14 0.178E-14 0.568E-13   0.222E-15 0.000E+00 -.888E-15   0.292E-13 -.377E-13 0.829E-11

 POSITION                                       TOTAL-FORCE (eV/Angst)
      3.45388      1.99410     11.72054        -0.000000      0.000000      0.002808
      6.90778      3.98821     11.72405         0.000000      0.000000     -0.002808
      0.00000      0.00000     10.50824         0.000000      0.000000      0.572326
      0.00000      0.00000     12.93635        -0.000000      0.000000     -0.572326
      4.32819      0.00251     13.45138         0.000434     -0.003994     -0.707474
      1.29198      2.23274     13.45138        -0.003676      0.001621     -0.707474
      4.74152      3.74706     13.45138         0.003242      0.002373     -0.707474
      6.03348      5.97980      9.99321        -0.000434      0.003994      0.707474
      9.06969      3.74957      9.99321         0.003676     -0.001621      0.707474
      5.62015      2.23525      9.99321        -0.003242     -0.002373      0.707474
    total drift:                                0.000000      0.000000      0.000000

  FREE ENERGIE OF THE ION-ELECTRON SYSTEM (eV)
  free  energy   TOTEN  =       -32.87062237 eV

  energy  without entropy=      -32.87062237  energy(sigma->0) =      -32.87062237

[...]

 d Force = 0.7628295E-01[-0.166E-01, 0.169E+00]  d Energy = 0.5903895E+00-0.514E+00
 d Force =-0.1040725E+03[-0.109E+03,-0.992E+02]  d Ewald  =-0.5576230E+03 0.454E+03

 Steepest descent step on ions:
 trial-energy change:   -0.590390  1 .order   -0.436196   -1.370811    0.498420
  (g-gl).g = 0.137E+01      g.g   = 0.137E+01  gl.gl    = 0.000E+00
 g(Force)  = 0.176E+00   g(Stress)= 0.119E+01 ortho     = 0.000E+00
 gamma     =   0.00000
 trial     =   1.00000
 opt step  =   0.80964  (harmonic =   0.73336) maximal distance =0.02763330
 next E    =   -33.507388   (d E  =  -0.63677)

[...]

 Broyden mixing:
  rms(total) = 0.48819E+00    rms(broyden)= 0.41989E+00
  rms(prec ) = 0.45649E+00
  weight for this iteration     100.00
  WARNING: grid for Broyden might be to small

[...]

 d Force =-0.1681470E-02[-0.668E-02, 0.332E-02]  d Energy = 0.3334856E-01-0.350E-01
 d Force = 0.2163157E+02[ 0.214E+02, 0.218E+02]  d Ewald  = 0.1114421E+03-0.898E+02

[...]

 d Force = 0.1749732E-01[ 0.132E-01, 0.218E-01]  d Energy = 0.3665579E-01-0.192E-01
 d Force =-0.2741598E+02[-0.274E+02,-0.275E+02]  d Ewald  = 0.1357018E+03-0.163E+03

 Conjugate gradient step on ions:
 trial-energy change:   -0.036656  1 .order   -0.028529   -0.036466   -0.020591
  (g-gl).g = 0.784E-01      g.g   = 0.401E-01  gl.gl    = 0.137E+01
 g(Force)  = 0.207E-01   g(Stress)= 0.194E-01 ortho     =-0.383E-01
 gamma     =   0.05719
 trial     =   0.96193
 opt step  =   1.21724  (harmonic =   2.20972) maximal distance =0.01259942
 next E    =   -33.533901   (d E  =  -0.03954)

[...]

 d Force = 0.1816973E-02[-0.352E-02, 0.715E-02]  d Energy =-0.3071361E-02 0.489E-02
 d Force =-0.2891534E+02[-0.289E+02,-0.290E+02]  d Ewald  = 0.1413590E+03-0.170E+03

[...]

 d Force = 0.1816257E-01[-0.194E-02, 0.383E-01]  d Energy = 0.1989091E-01-0.173E-02
 d Force = 0.2238778E+02[ 0.224E+02, 0.224E+02]  d Ewald  =-0.8677667E+02 0.109E+03

 Steepest descent step on ions:
 trial-energy change:   -0.019891  1 .order   -0.020653   -0.050659    0.009353
  (g-gl).g = 0.458E-01      g.g   = 0.384E-01  gl.gl    = 0.401E-01
 g(Force)  = 0.288E-01   g(Stress)= 0.961E-02 ortho     =-0.130E-01
 gamma     =   0.00000
 trial     =   1.31937
 opt step  =   1.09980  (harmonic =   1.11375) maximal distance =0.02622406
 next E    =   -33.557548   (d E  =  -0.02067)

[...]

 d Force =-0.1718509E-03[-0.656E-03, 0.313E-03]  d Energy = 0.4801095E-03-0.652E-03
 d Force =-0.3689596E+01[-0.369E+01,-0.369E+01]  d Ewald  = 0.1442779E+02-0.181E+02

[...]

 d Force = 0.3990360E-02[ 0.291E-02, 0.508E-02]  d Energy = 0.4991438E-02-0.100E-02
 d Force =-0.4511450E+01[-0.453E+01,-0.449E+01]  d Ewald  =-0.5345411E+02 0.489E+02

 Conjugate gradient step on ions:
 trial-energy change:   -0.004991  1 .order   -0.004866   -0.008586   -0.001147
  (g-gl).g = 0.721E-02      g.g   = 0.681E-02  gl.gl    = 0.384E-01
 g(Force)  = 0.343E-02   g(Stress)= 0.338E-02 ortho     =-0.404E-03
 gamma     =   0.18780
 trial     =   1.27546
 opt step  =   1.47211  (harmonic =   1.47211) maximal distance =0.00876605
 next E    =   -33.562201   (d E  =  -0.00495)

[...]

 d Force = 0.4227424E-03[ 0.396E-03, 0.449E-03]  d Energy = 0.3007447E-03 0.122E-03
 d Force =-0.7003580E+00[-0.701E+00,-0.700E+00]  d Ewald  =-0.8285622E+01 0.759E+01

[...]

 Conjugate gradient step on ions:
 trial-energy change:   -0.004230  1 .order   -0.004465   -0.005598   -0.003332
  (g-gl).g = 0.408E-02      g.g   = 0.420E-02  gl.gl    = 0.681E-02
 g(Force)  = 0.255E-02   g(Stress)= 0.164E-02 ortho     = 0.103E-03
 gamma     =   0.59901
 trial     =   1.31479
 opt step  =   3.24880  (harmonic =   3.24880) maximal distance =0.02422768
 next E    =   -33.569454   (d E  =  -0.00692)

[...]

 d Force = 0.2330780E-02[ 0.265E-03, 0.440E-02]  d Energy = 0.1552069E-02 0.779E-03
 d Force =-0.2735142E+01[-0.277E+01,-0.270E+01]  d Ewald  = 0.3821475E+02-0.409E+02

[...]

 d Force = 0.3335291E-04[ 0.953E-05, 0.572E-04]  d Energy = 0.2187479E-05 0.312E-04
 d Force = 0.1045065E+01[ 0.105E+01, 0.104E+01]  d Ewald  =-0.3387704E-01 0.108E+01

 Conjugate gradient step on ions:
 trial-energy change:   -0.000002  1 .order   -0.000032   -0.000355    0.000291
  (g-gl).g = 0.460E-03      g.g   = 0.198E-03  gl.gl    = 0.420E-02
 g(Force)  = 0.186E-04   g(Stress)= 0.180E-03 ortho     = 0.933E-04
 gamma     =   0.10976
 trial     =   1.70159
 opt step  =   0.93504  (harmonic =   0.93504) maximal distance =0.00089268
 next E    =   -33.568419   (d E  =  -0.00010)

[...]

 eigenvalue-minimisations  :  1056
 total energy-change (2. order) :-0.6015182E-02  (-0.5132520E-02)
 number of electron      66.0000010 magnetization       0.0007199
 augmentation part        4.0544527 magnetization       0.0003693

[...]

 Broyden mixing:
  rms(total) = 0.29392E-02    rms(broyden)= 0.29391E-02
  rms(prec ) = 0.32618E-02
  weight for this iteration     100.00

 eigenvalues of (default mixing * dielectric matrix)
  average eigenvalue GAMMA=   0.9980
  2.0535  0.2373  0.7031

[...]

--------------------------------------- Iteration     15(   5)  ---------------------------------------

[...]

 eigenvalue-minimisations  :   912
 total energy-change (2. order) : 0.8478621E-05  (-0.4099441E-05)
 number of electron      66.0000010 magnetization       0.0006063
 augmentation part        4.1778264 magnetization       0.0004109

 Free energy of the ion-electron system (eV)
  alpha Z        PSCENC =        20.32645758
  Ewald energy   TEWEN  =      8749.52222536
  -Hartree energ DENC   =    -12258.46013542
  -exchange      EXHF   =         0.00000000
  -V(xc)+E(xc)   XCENC  =      -107.06512811
  PAW double counting   =      2588.66486613    -2466.43892005
  entropy T*S    EENTRO =         0.00000000
  eigenvalues    EBANDS =      -423.84962249
  atomic energy  EATOM  =      3863.73160596
  Solvation  Ediel_sol  =         0.00000000
  free energy    TOTEN  =       -33.56865103 eV

  energy without entropy =      -33.56865103  energy(sigma->0) =      -33.56865103

 average (electrostatic) potential at core
  the test charge radii are     0.9791  0.9587  1.1897
  (the norm of the test charge is              1.0000)
       1 -48.8541       2 -48.8541       3 -91.5393       4 -91.5393       5 -96.5282
       6 -96.5282       7 -96.5282       8 -96.5282       9 -96.5282      10 -96.5282

 E-fermi :  -1.4015     XC(G=0):  -3.4659     alpha+bet : -3.2800

[...]

 spin component 2

[...]

 k-point     5 :      -0.4000    0.2000    0.0000
  band No.  band energies     occupation
      1     -15.1468      1.00000
      2     -13.8867      1.00000
      3     -13.5785      1.00000
      4     -13.4695      1.00000
      5     -13.0332      1.00000
      6     -12.8492      1.00000
      7     -11.4901      1.00000
      8     -10.0880      1.00000
      9      -7.1093      1.00000
     10      -6.6187      1.00000
     11      -6.5795      1.00000
     12      -6.0847      1.00000
     13      -5.8876      1.00000
     14      -5.4176      1.00000
     15      -5.1698      1.00000
     16      -4.9899      1.00000
     17      -4.8986      1.00000
     18      -4.8099      1.00000
     19      -4.7092      1.00000
     20      -4.5229      1.00000
     21      -4.4237      1.00000
     22      -4.0679      1.00000
     23      -3.6459      1.00000
     24      -3.5744      1.00000
     25      -3.4413      1.00000
     26      -3.3814      1.00000
     27      -3.2378      1.00000
     28      -3.1738      1.00000
     29      -3.1443      1.00000
     30      -2.9813      1.00000
     31      -2.8250      1.00000
     32      -1.7208      1.00000
     33      -1.7184      1.03477
     34      -1.5651      1.04520
     35      -1.2624      0.00000
     36      -0.8433      0.00000
     37      -0.8045      0.00000
     38      -0.2499      0.00000
     39       0.2951      0.00000
     40       0.5794      0.00000
     41       0.9267      0.00000
     42       0.9953      0.00000
     43       2.5152      0.00000
     44       2.9806      0.00000
     45       3.0014      0.00000
     46       3.0426      0.00000
     47       3.2078      0.00000
     48       3.6574      0.00000

[...]

 soft charge-density along one line, spin component           2
         0         1         2         3         4         5         6         7         8         9
 total charge-density along one line

------------------------ aborting loop because EDIFF is reached ----------------------------------------

[...]

  FORCE on cell =-STRESS in cart. coord.  units (eV):
  Direction    XX          YY          ZZ          XY          YZ          ZX
  Alpha Z    20.32646    20.32646    20.32646
  Ewald   10874.53353 10874.53108-12999.54598    -0.00231    -0.00060    -0.00109
  Hartree 11619.96464 11619.96577-10981.74194    -0.00039     0.00009     0.00015
  E(xc)    -287.87345  -287.87334  -288.05026    -0.00007     0.00003     0.00001
  Local  -23409.75950-23409.75908 23032.84242     0.00240     0.00038     0.00072
  n-local   702.89635   700.66987   720.01124    -2.10098     0.34237     0.13757
  augment   -76.67019   -76.67003   -85.55957     0.00000     0.00003     0.00005
  Kinetic   563.27648   552.42497   581.91031    -6.79437    -1.02543    -0.95584
  Fock        0.00000     0.00000     0.00000     0.00000     0.00000     0.00000
  Total       0.15500     0.15500     0.19267     0.00000     0.00000     0.00000
  in kB       0.28569     0.28569     0.35513     0.00000     0.00000     0.00000

 VOLUME and BASIS-vectors are now :
  energy-cutoff  :      520.00
  volume of cell :      869.26
      direct lattice vectors                 reciprocal lattice vectors
     6.709557640  0.000000084 -0.000000000     0.149041123 -0.086048923  0.000000000
     3.354778291  5.810647073  0.000000000    -0.000000002  0.172097874 -0.000000000
    -0.000000000  0.000000000 22.296096874     0.000000000 -0.000000000  0.044850899

  length of vectors
     6.709557640  6.709557124 22.296096874     0.172097861  0.172097874  0.044850899

 FORCES acting on ions
    electron-ion (+dipol)            ewald-force                    non-local-force                 convergence-correction
   0.127E-03 0.565E-04 0.174E+00   0.740E-03 0.446E-03 -.179E+00   0.347E-17 0.176E-20 0.374E-02   -.243E-06 -.738E-07 0.114E-03
   -.127E-03 -.565E-04 -.174E+00   -.740E-03 -.446E-03 0.179E+00   0.753E-21 -.176E-20 -.374E-02   0.243E-06 0.738E-07 -.114E-03
   -.182E-04 -.600E-04 0.267E+03   -.179E-03 -.991E-04 -.269E+03   0.642E-17 0.120E-17 0.255E+01   -.277E-07 -.146E-07 -.233E-02
   0.182E-04 0.600E-04 -.267E+03   0.179E-03 0.991E-04 0.269E+03   -.342E-16 -.290E-16 -.255E+01   0.277E-07 0.146E-07 0.233E-02
   -.239E+02 0.270E-01 -.461E+03   0.221E+02 -.277E-01 0.465E+03   0.172E+01 0.890E-03 -.336E+01   0.573E-02 -.363E-04 0.936E-02
   0.119E+02 0.206E+02 -.461E+03   -.111E+02 -.192E+02 0.465E+03   -.857E+00 -.149E+01 -.336E+01   -.289E-02 -.494E-02 0.936E-02
   0.119E+02 -.207E+02 -.461E+03   -.110E+02 0.192E+02 0.465E+03   -.858E+00 0.149E+01 -.336E+01   -.283E-02 0.498E-02 0.936E-02
   0.239E+02 -.270E-01 0.461E+03   -.221E+02 0.277E-01 -.465E+03   -.172E+01 -.890E-03 0.336E+01   -.573E-02 0.363E-04 -.936E-02
   -.119E+02 -.206E+02 0.461E+03   0.111E+02 0.192E+02 -.465E+03   0.857E+00 0.149E+01 0.336E+01   0.289E-02 0.494E-02 -.936E-02
   -.119E+02 0.207E+02 0.461E+03   0.110E+02 -.192E+02 -.465E+03   0.858E+00 -.149E+01 0.336E+01   0.283E-02 -.498E-02 -.936E-02
   0.109E-08 0.497E-09 -.169E-08   0.000E+00 0.711E-14 0.568E-13   0.222E-15 0.222E-15 0.888E-15   -.445E-12 0.267E-13 0.296E-10

 POSITION                                       TOTAL-FORCE (eV/Angst)
      3.35478      1.93688     11.14784         0.000000     -0.000000     -0.000767
      6.70956      3.87377     11.14825        -0.000000      0.000000      0.000767
     -0.00000      0.00000     10.01268         0.000000     -0.000000     -0.007237
     -0.00000      0.00000     12.28342         0.000000      0.000000      0.007237
      4.13467      0.00033     12.74458        -0.002011      0.000697      0.014091
      1.28774      2.22976     12.74458         0.001609      0.001393      0.014091
      4.64194      3.58056     12.74458         0.000402     -0.002090      0.014091
      5.92967      5.81031      9.55151         0.002011     -0.000697     -0.014091
      8.77660      3.58089      9.55151        -0.001609     -0.001393     -0.014091
      5.42239      2.23008      9.55151        -0.000402      0.002090     -0.014091
    total drift:                                0.000000      0.000000     -0.000000

  FREE ENERGIE OF THE ION-ELECTRON SYSTEM (eV)
  free  energy   TOTEN  =       -33.56865103 eV

  energy  without entropy=      -33.56865103  energy(sigma->0) =      -33.56865103

 d Force =-0.1526868E-04[-0.262E-04,-0.431E-05]  d Energy = 0.3278448E-03-0.343E-03
 d Force =-0.4717365E+00[-0.472E+00,-0.472E+00]  d Ewald  = 0.1395632E-01-0.486E+00

 reached required accuracy - stopping structural energy minimisation

 total charge

[...]

 magnetization (x)

# of ion       s       p       d       tot
    1       -0.000  -0.000   0.000   0.000
    2       -0.000  -0.000   0.000   0.000
    3        0.000   0.000   0.000   0.000
    4        0.000   0.000   0.000   0.000
    5        0.000   0.000   0.000   0.000
    6        0.000   0.000   0.000   0.000
    7        0.000   0.000   0.000   0.000
    8        0.000   0.000   0.000   0.000
    9        0.000   0.000   0.000   0.000
   10        0.000   0.000   0.000   0.000
tot          0.000   0.000   0.000   0.000

 BZINTS: Fermi energy: -1.401546; 66.000000 electrons
         Band energy:-423.849622;  BLOECHL correction: -0.056312