 vasp.5.4.4.18Apr17-6-g9f103f2a35 (build May  1 2020 15:48:39) complex
 executed on             LinuxGNU date 2020.06.25  00:19:46

 INCAR:
 POTCAR:   PAW_PBE Co 06Sep2000
 POTCAR:   PAW_PBE Ge 05Jan2001
 POTCAR:   PAW_PBE Si 05Jan2001
 POTCAR:   PAW_PBE Se 06Sep2000

 POTCAR:   PAW_PBE Co 06Sep2000
   VRHFIN =Co: d8 s1

   TITEL  = PAW_PBE Co 06Sep2000
   POMASS =   58.933; ZVAL   =    9.000    mass and valenz
   ENMAX  =  267.969; ENMIN  =  200.977 eV
   QCUT   =   -4.438; QGAM   =    8.876    optimization parameters

   Description
     l     E      TYP  RCUT    TYP  RCUT
     2   .000     23  2.300
     2   .000     23  2.300
     0   .000     23  2.300
     0   .000     23  2.300
     1  -.200     23  2.300
     1   .000     23  2.300
     3   .000      7   .000

 POTCAR:   PAW_PBE Ge 05Jan2001
   VRHFIN =Ge: s2p2

   TITEL  = PAW_PBE Ge 05Jan2001
   POMASS =   72.610; ZVAL   =    4.000    mass and valenz
   ENMAX  =  173.807; ENMIN  =  130.355 eV
   QCUT   =   -3.574; QGAM   =    7.148    optimization parameters

[...]

 POTCAR:   PAW_PBE Si 05Jan2001
   VRHFIN =Si: s2p2

   TITEL  = PAW_PBE Si 05Jan2001
   POMASS =   28.085; ZVAL   =    4.000    mass and valenz
   ENMAX  =  245.345; ENMIN  =  184.009 eV
   QCUT   =   -4.246; QGAM   =    8.493    optimization parameters

[...]

 POTCAR:   PAW_PBE Se 06Sep2000
   VRHFIN =Se: s2p4

   TITEL  = PAW_PBE Se 06Sep2000
   POMASS =   78.960; ZVAL   =    6.000    mass and valenz
   ENMAX  =  211.534; ENMIN  =  158.651 eV
   QCUT   =   -3.943; QGAM   =    7.886    optimization parameters

   Description
     l     E      TYP  RCUT    TYP  RCUT
     0   .000     23  2.100
     0   .000     23  2.100
     1   .000     23  2.100
     1   .000     23  2.100
     2   .000     23  2.100
     3  -.100      7  2.100

 Optimization of the real space projectors (new method)

 maximal supplied QI-value         = 16.25
 optimisation between [QCUT,QGAM] = [ 11.54, 23.24] = [ 37.28,151.24] Ry
 Optimized for a Real-space Cutoff    1.53 Angstroem

   l    n(q)    QCUT    max X(q) W(low)/X(q) W(high)/X(q)  e(spline)
   2     10    11.539     4.599    0.83E-05    0.15E-04    0.45E-07
   2     10    11.539    18.158    0.10E-03    0.14E-03    0.24E-06
   0     11    11.539    15.740    0.19E-04    0.12E-05    0.17E-07
   0     11    11.539    47.662    0.48E-04    0.15E-04    0.31E-06
   1     10    11.539     5.777    0.11E-04    0.46E-05    0.25E-07
   1     10    11.539     8.007    0.46E-04    0.29E-04    0.11E-06
 Optimization of the real space projectors (new method)

[...]

   l    n(q)    QCUT    max X(q) W(low)/X(q) W(high)/X(q)  e(spline)
   0      8    11.508     8.708    0.18E-04    0.44E-05    0.47E-08
   0      8    11.508   106.241    0.70E-04    0.15E-03    0.51E-07
   1      8    11.508     5.901    0.63E-05    0.23E-04    0.21E-07
   1      8    11.508    73.241    0.15E-03    0.36E-04    0.79E-07
 Optimization of the real space projectors (new method)

 maximal supplied QI-value         = 17.95
 optimisation between [QCUT,QGAM] = [ 11.67, 23.34] = [ 38.13,152.52] Ry
 Optimized for a Real-space Cutoff    1.25 Angstroem

   l    n(q)    QCUT    max X(q) W(low)/X(q) W(high)/X(q)  e(spline)
   0      9    11.669     6.499    0.13E-04    0.81E-05    0.11E-07
   0      9    11.669    52.623    0.18E-03    0.46E-04    0.72E-07
   1      8    11.669     4.229    0.40E-04    0.45E-04    0.31E-07
   1      8    11.669    29.991    0.22E-03    0.36E-03    0.10E-06
   2      8    11.669     3.719    0.19E-03    0.46E-04    0.50E-07

 PAW_PBE Co 06Sep2000                   :
 PAW_PBE Ge 05Jan2001                   :
 PAW_PBE Si 05Jan2001                   :
 PAW_PBE Se 06Sep2000                   :

 POSCAR: Co2 Ge Si Se6
  positions in direct lattice
  velocities in cartesian coordinates
 exchange correlation table for  LEXCH =       42
   RHO(1)=    0.500       N(1)  =     2000
   RHO(2)=  100.500       N(2)  =     4000

 ion  position               nearest neighbor table
   1  0.333  0.333  0.500-   6 2.78   5 2.78   7 2.78   8 2.78  10 2.78   9 2.78
   2  0.667  0.667  0.500-   9 2.78   8 2.78  10 2.78   5 2.78   7 2.78   6 2.78
   3  0.000  0.000  0.448-   4 2.43   8 2.63  10 2.63   9 2.63
   4  0.000  0.000  0.552-   3 2.43   5 2.63   7 2.63   6 2.63
   5  0.626  0.000  0.574-   4 2.63   1 2.78   2 2.78
   6  0.000  0.373  0.574-   4 2.63   1 2.78   2 2.78
   7  0.373  0.626  0.574-   4 2.63   1 2.78   2 2.78
   8  0.374  1.000  0.426-   3 2.63   2 2.78   1 2.78
   9  1.000  0.627  0.426-   3 2.63   2 2.78   1 2.78
  10  0.627  0.374  0.426-   3 2.63   2 2.78   1 2.78

  LATTYP: Found a hexagonal cell.
 ALAT       =     6.9077769333
 C/A-ratio  =     3.3939410937

  Lattice vectors:

 A1 = (   3.4538890000,  -5.9823100000,   0.0000000000)
 A2 = (  -6.9077770000,   0.0000000000,   0.0000000000)
 A3 = (   0.0000000000,   0.0000000000, -23.4445880000)

Analysis of symmetry for initial positions (statically):
 Subroutine PRICEL returns:
 Original cell was already a primitive cell.

 Routine SETGRP: Setting up the symmetry group for a
 hexagonal supercell.

 Subroutine GETGRP returns: Found  3 space group operations
 (whereof  3 operations were pure point group operations)
 out of a pool of 24 trial point group operations.

The static configuration has the point symmetry C_3 .

Analysis of symmetry for dynamics (positions and initial velocities):
 Subroutine PRICEL returns:
 Original cell was already a primitive cell.

[...]

The dynamic configuration has the point symmetry C_3 .

Analysis of constrained symmetry for selective dynamics:
 Subroutine PRICEL returns:
 Original cell was already a primitive cell.

[...]

The constrained configuration has the point symmetry C_3 .

Analysis of structural, dynamic, and magnetic symmetry:
 Subroutine PRICEL returns:
 Original cell was already a primitive cell.

 Routine SETGRP: Setting up the symmetry group for a
 hexagonal supercell.

 Subroutine GETGRP returns: Found  3 space group operations
 (whereof  3 operations were pure point group operations)
 out of a pool of 24 trial point group operations.

The magnetic configuration has the point symmetry C_3 .

 Subroutine INISYM returns: Found  3 space group operations
 (whereof  3 operations are pure point group operations),
 and found     1 'primitive' translations

 KPOINTS: Kpoints from vasprun.xml

Automatic generation of k-mesh.
Space group operators:
 irot       det(A)        alpha          n_x          n_y          n_z        tau_x        tau_y        tau_z
    1     1.000000     0.000000     1.000000     0.000000     0.000000     0.000000     0.000000     0.000000
    2     1.000000   120.000000     0.000000     0.000000     1.000000     0.000000     0.000000     0.000000
    3     1.000000   120.000000     0.000000     0.000000    -1.000000     0.000000     0.000000     0.000000

 Subroutine IBZKPT returns following result:

 Found      5 irreducible k-points:

 Following reciprocal coordinates:
            Coordinates               Weight
  0.000000  0.000000  0.000000      1.000000
  0.200000  0.000000  0.000000      6.000000
  0.400000  0.000000  0.000000      6.000000
  0.400000  0.200000  0.000000      6.000000
 -0.400000  0.200000  0.000000      6.000000

 Following cartesian coordinates:
            Coordinates               Weight
  0.000000  0.000000  0.000000      1.000000
  0.028953 -0.016716  0.000000      6.000000
  0.057906 -0.033432  0.000000      6.000000
  0.057906  0.000000  0.000000      6.000000
 -0.057906  0.066864  0.000000      6.000000

 TETIRR: Found     15 inequivalent tetrahedra from      150

 SYSTEM =  unknown system
 POSCAR =  Co2 Ge Si Se6

 Startparameter for this run:
   NWRITE =      2    write-flag & timer
   PREC   = accura    normal or accurate (medium, high low for compatibility)
   ISTART =      0    job   : 0-new  1-cont  2-samecut
   ICHARG =      2    charge: 1-file 2-atom 10-const
   ISPIN  =      2    spin polarized calculation?
   LNONCOLLINEAR =      F non collinear calculations
   LSORBIT =      F    spin-orbit coupling
   INIWAV =      1    electr: 0-lowe 1-rand  2-diag
   LASPH  =      F    aspherical Exc in radial PAW
   METAGGA=      F    non-selfconsistent MetaGGA calc.

 Electronic Relaxation 1
   ENCUT  =  520.0 eV  38.22 Ry    6.18 a.u.  12.84 12.84 43.59*2*pi/ulx,y,z
   ENINI  =  520.0     initial cutoff
   ENAUG  =  477.8 eV  augmentation charge cutoff
   NELM   =    400;   NELMIN=  2; NELMDL=  0     # of ELM steps
   EDIFF  = 0.1E-03   stopping-criterion for ELM
   LREAL  =      T    real-space projection
   NLSPLINE    = F    spline interpolate recip. space projectors
   LCOMPAT=      F    compatible to vasp.4.4
   GGA_COMPAT  = T    GGA compatible to vasp.4.4-vasp.4.6
   LMAXPAW     = -100 max onsite density
   LMAXMIX     =    2 max onsite mixed and CHGCAR
   VOSKOWN=      0    Vosko Wilk Nusair interpolation
   ROPT   =   -0.00025  -0.00025  -0.00025  -0.00025
 Ionic relaxation
   EDIFFG = 0.1E-02   stopping-criterion for IOM
   NSW    =     99    number of steps for IOM
   NBLOCK =      1;   KBLOCK =     99    inner block; outer block
   IBRION =      2    ionic relax: 0-MD 1-quasi-New 2-CG
   NFREE  =      1    steps in history (QN), initial steepest desc. (CG)
   ISIF   =      3    stress and relaxation
   IWAVPR =     11    prediction:  0-non 1-charg 2-wave 3-comb
   ISYM   =      2    0-nonsym 1-usesym 2-fastsym
   LCORR  =      T    Harris-Foulkes like correction to forces

   POTIM  = 0.5000    time-step for ionic-motion
   TEIN   =    0.0    initial temperature
   TEBEG  =    0.0;   TEEND  =   0.0 temperature during run
   SMASS  =  -3.00    Nose mass-parameter (am)
   estimated Nose-frequenzy (Omega)   =  0.10E-29 period in steps =****** mass=  -0.109E-26a.u.
   SCALEE = 1.0000    scale energy and forces
   NPACO  =    256;   APACO  = 16.0  distance and # of slots for P.C.
   PSTRESS=    0.0 pullay stress

  Mass of Ions in am
   POMASS =  58.93 72.61 28.09 78.96
  Ionic Valenz
   ZVAL   =   9.00  4.00  4.00  6.00
  Atomic Wigner-Seitz radii
  virtual crystal weights
   VCA    =   1.00  1.00  1.00  1.00
   NELECT =      62.0000    total number of electrons
   NUPDOWN=      -1.0000    fix difference up-down

 DOS related values:
   EMIN   =  10.00;   EMAX   =-10.00  energy-range for DOS
   EFERMI =   0.00
   ISMEAR =    -5;   SIGMA  =   0.05  broadening in eV -4-tet -1-fermi 0-gaus

 Electronic relaxation 2 (details)
   IALGO  =     38    algorithm
   LDIAG  =      T    sub-space diagonalisation (order eigenvalues)
   LSUBROT=      F    optimize rotation matrix (better conditioning)
   TURBO    =      0    0=normal 1=particle mesh
   IRESTART =      0    0=no restart 2=restart with 2 vectors
   NREBOOT  =      0    no. of reboots
   NMIN     =      0    reboot dimension
   EREF     =   0.00    reference energy to select bands
   IMIX   =      4    mixing-type and parameters
     AMIX     =   0.40;   BMIX     =  1.00
     AMIX_MAG =   1.60;   BMIX_MAG =  1.00
     AMIN     =   0.01
     WC   =   100.;   INIMIX=   1;  MIXPRE=   1;  MAXMIX= -45

 Intra band minimization:
   WEIMIN = 0.0010     energy-eigenvalue tresh-hold
   EBREAK =  0.52E-06  absolut break condition
[...]
  Direction    XX          YY          ZZ          XY          YZ          ZX
  Alpha Z    38.63741    38.63741    38.63741
  Ewald    9323.94493  9323.94287-11117.97373    -0.00179    -0.00048    -0.00089
  Hartree 10014.93180 10014.93269 -9508.75877    -0.00034     0.00008     0.00012
  E(xc)    -249.78540  -249.78544  -248.96500     0.00005    -0.00001     0.00002
  Local  -20054.57331-20054.57315 19897.54000     0.00189     0.00026     0.00051
  n-local   231.96835   232.47570   243.56359     0.20888     0.23531    -0.08661
  augment    69.81967    69.81990    59.93680    -0.00008    -0.00006     0.00010
  Kinetic   604.41259   601.30465   624.05906    -1.70972    -0.08145    -0.91850
  Fock        0.00000     0.00000     0.00000     0.00000     0.00000     0.00000
  Total     -21.94466   -21.94466   -11.96063     0.00000     0.00000    -0.00000
  in kB     -36.29023   -36.29022   -19.77948     0.00000     0.00000    -0.00000

 VOLUME and BASIS-vectors are now :
  energy-cutoff  :      520.00
  volume of cell :      968.84
      direct lattice vectors                 reciprocal lattice vectors
     6.907777000 -0.000000000  0.000000000     0.144764372 -0.083579742  0.000000000
     3.453888000  5.982310000  0.000000000     0.000000000  0.167159509 -0.000000000
     0.000000000  0.000000000 23.444588000    -0.000000000  0.000000000  0.042653767

[...]

 FORCES acting on ions
    electron-ion (+dipol)            ewald-force                    non-local-force                 convergence-correction
   0.174E-03 0.720E-04 0.954E+00   0.549E-03 0.331E-03 -.104E+01   -.867E-18 0.000E+00 0.484E-01   0.815E-07 0.523E-07 -.759E-03
   -.163E-03 -.111E-03 -.114E+01   -.549E-03 -.331E-03 0.104E+01   0.867E-18 0.000E+00 0.621E-01   0.935E-08 -.270E-07 -.316E-02
   -.472E-04 -.390E-05 0.181E+03   -.141E-03 -.779E-04 -.179E+03   0.173E-17 0.347E-17 -.240E+01   0.179E-06 0.293E-07 0.208E-02
   0.343E-04 0.192E-04 -.183E+03   0.141E-03 0.779E-04 0.179E+03   0.000E+00 0.000E+00 0.475E+01   0.132E-07 0.480E-08 -.407E-02
   -.198E+02 0.149E+00 -.403E+03   0.186E+02 -.155E+00 0.405E+03   0.234E+01 -.716E-02 -.264E+01   -.150E-02 0.533E-02 -.919E-02
   0.100E+02 0.171E+02 -.403E+03   -.941E+01 -.160E+02 0.405E+03   -.118E+01 -.203E+01 -.264E+01   0.536E-02 -.137E-02 -.919E-02
   0.978E+01 -.172E+02 -.403E+03   -.915E+01 0.162E+02 0.405E+03   -.117E+01 0.203E+01 -.264E+01   -.387E-02 -.396E-02 -.919E-02
   0.200E+02 -.159E+00 0.403E+03   -.186E+02 0.155E+00 -.405E+03   -.198E+01 0.738E-02 0.259E+01   0.114E-02 0.371E-02 0.695E-02
   -.101E+02 -.173E+02 0.403E+03   0.941E+01 0.160E+02 -.405E+03   0.997E+00 0.171E+01 0.259E+01   0.264E-02 -.284E-02 0.695E-02
   -.987E+01 0.174E+02 0.403E+03   0.915E+01 -.162E+02 -.405E+03   0.984E+00 -.172E+01 0.259E+01   -.378E-02 -.864E-03 0.695E-02
   0.721E-05 -.119E-04 -.230E+01   0.711E-14 0.711E-14 0.171E-12   -.777E-15 0.222E-15 0.231E+01   0.306E-06 0.905E-06 -.126E-01

 POSITION                                       TOTAL-FORCE (eV/Angst)
      3.45388      1.99410     11.72054         0.000000      0.000000     -0.036527
      6.90778      3.98821     11.72405         0.000000      0.000000     -0.043292
      0.00000      0.00000     10.50824         0.000000      0.000000     -0.331797
      0.00000      0.00000     12.93635         0.000000      0.000000      0.647281
      4.32819      0.00251     13.45138         1.071768     -0.006245     -1.298503
      1.29198      2.23274     13.45138        -0.541293     -0.925056     -1.298503
      4.74152      3.74706     13.45138        -0.530476      0.931301     -1.298503
      6.03348      5.97980      9.99321        -0.527013      0.006067      1.219948
      9.06969      3.74957      9.99321         0.268761      0.453373      1.219948
      5.62015      2.23525      9.99321         0.258252     -0.459440      1.219948
    total drift:                                0.000008     -0.000011     -0.002263

  FREE ENERGIE OF THE ION-ELECTRON SYSTEM (eV)
  free  energy   TOTEN  =       -36.90494646 eV

  energy  without entropy=      -36.90494646  energy(sigma->0) =      -36.90494646

[...]

 d Force = 0.2759643E+00[-0.848E-01, 0.637E+00]  d Energy = 0.4420752E+01-0.414E+01
 d Force =-0.1471159E+03[-0.164E+03,-0.130E+03]  d Ewald  =-0.1724788E+04 0.158E+04

 Steepest descent step on ions:
 trial-energy change:   -4.420752  1 .order   -2.926625   -6.022815    0.169564
  (g-gl).g = 0.602E+01      g.g   = 0.602E+01  gl.gl    = 0.000E+00
 g(Force)  = 0.686E+00   g(Stress)= 0.534E+01 ortho     = 0.000E+00
 gamma     =   0.00000
 trial     =   1.00000
 opt step  =   0.98874  (harmonic =   0.97262) maximal distance =0.05819073
 next E    =   -41.326651   (d E  =  -4.42170)

[...]

 d Force = 0.1049492E-02[ 0.961E-03, 0.114E-02]  d Energy = 0.1583795E-02-0.534E-03
 d Force = 0.1960560E+01[ 0.196E+01, 0.196E+01]  d Ewald  = 0.2280415E+02-0.208E+02

[...]

 d Force = 0.1658380E-02[ 0.120E-02, 0.211E-02]  d Energy =-0.3418160E-02 0.508E-02
 d Force = 0.4287476E+01[ 0.427E+01, 0.430E+01]  d Ewald  = 0.4974893E+02-0.455E+02

[...]

 d Force =-0.1033629E-02[-0.125E-02,-0.820E-03]  d Energy = 0.3316089E-02-0.435E-02
 d Force =-0.2950689E+01[-0.296E+01,-0.294E+01]  d Ewald  =-0.3430768E+02 0.314E+02

[...]

 d Force = 0.2771869E+00[ 0.163E+00, 0.392E+00]  d Energy = 0.3173061E+00-0.401E-01
 d Force =-0.7268290E+02[-0.740E+02,-0.714E+02]  d Ewald  = 0.1718747E+03-0.245E+03

 Conjugate gradient step on ions:
 trial-energy change:   -0.317306  1 .order   -0.320859   -0.523914   -0.117803
  (g-gl).g = 0.364E+00      g.g   = 0.517E+00  gl.gl    = 0.602E+01
 g(Force)  = 0.401E+00   g(Stress)= 0.116E+00 ortho     = 0.152E+00
 gamma     =   0.06047
 trial     =   0.99622
 opt step  =   1.30656  (harmonic =   1.28520) maximal distance =0.08999178
 next E    =   -41.662728   (d E  =  -0.33555)

[...]

 d Force = 0.7501881E-01[-0.664E-02, 0.157E+00]  d Energy = 0.8807774E-01-0.131E-01
 d Force =-0.3652791E+01[-0.374E+01,-0.357E+01]  d Ewald  = 0.1009035E+03-0.105E+03

 Conjugate gradient step on ions:
 trial-energy change:   -0.088078  1 .order   -0.098441   -0.223111    0.026229
  (g-gl).g = 0.215E+00      g.g   = 0.226E+00  gl.gl    = 0.517E+00
 g(Force)  = 0.110E+00   g(Stress)= 0.116E+00 ortho     =-0.359E-01
 gamma     =   0.41680
 trial     =   1.05829
 opt step  =   0.91630  (harmonic =   0.94696) maximal distance =0.04825802
 next E    =   -41.743099   (d E  =  -0.08986)

[...]

 d Force =-0.3431618E-03[-0.156E-02, 0.877E-03]  d Energy = 0.2576667E-02-0.292E-02
 d Force = 0.4947610E+00[ 0.494E+00, 0.496E+00]  d Ewald  =-0.1339798E+02 0.139E+02

[...]

 d Force = 0.4085189E-02[-0.424E-02, 0.124E-01]  d Energy = 0.1128631E-01-0.720E-02
 d Force = 0.8627714E+00[ 0.913E+00, 0.812E+00]  d Ewald  =-0.1963580E+03 0.197E+03

[...]

 d Force = 0.5597675E-03[ 0.119E-03, 0.100E-02]  d Energy = 0.8755840E-03-0.316E-03
 d Force =-0.2104775E+00[-0.208E+00,-0.213E+00]  d Ewald  = 0.4685518E+02-0.471E+02

[...]

 d Force = 0.7448009E-03[ 0.619E-03, 0.871E-03]  d Energy = 0.1175017E-02-0.430E-03
 d Force = 0.3208453E+00[ 0.322E+00, 0.319E+00]  d Ewald  =-0.1723076E+02 0.176E+02

 Conjugate gradient step on ions:
 trial-energy change:   -0.001175  1 .order   -0.001770   -0.001507   -0.002032
  (g-gl).g = 0.162E-02      g.g   = 0.154E-02  gl.gl    = 0.339E-01
 g(Force)  = 0.910E-03   g(Stress)= 0.633E-03 ortho     =-0.125E-03
 gamma     =   0.04767
 trial     =   0.98110
 opt step  =   3.92440  (harmonic =   3.92440) maximal distance =0.01095196
 next E    =   -41.766284   (d E  =  -0.01023)

[...]

 eigenvalue-minimisations  :  1248
 total energy-change (2. order) :-0.1536586E+00  (-0.7454111E-01)
 number of electron      62.0000004 magnetization      -0.0000000
 augmentation part        2.1319630 magnetization      -0.0000009

[...]

 Broyden mixing:
  rms(total) = 0.10876E-01    rms(broyden)= 0.10876E-01
  rms(prec ) = 0.13210E-01
  weight for this iteration     100.00

 eigenvalues of (default mixing * dielectric matrix)
  average eigenvalue GAMMA=   0.8382
  1.9297  0.8961  0.2394  0.2874

[...]

--------------------------------------- Iteration     13(   6)  ---------------------------------------

[...]

 eigenvalue-minimisations  :  1184
 total energy-change (2. order) : 0.9842148E-04  (-0.6526681E-04)
 number of electron      62.0000004 magnetization      -0.0000000
 augmentation part        2.7211747 magnetization      -0.0000104

 Free energy of the ion-electron system (eV)
  alpha Z        PSCENC =        52.20908173
  Ewald energy   TEWEN  =      9121.08563543
  -Hartree energ DENC   =    -12159.31715895
  -exchange      EXHF   =         0.00000000
  -V(xc)+E(xc)   XCENC  =         7.88205449
  PAW double counting   =      2143.41579746    -2128.14092869
  entropy T*S    EENTRO =         0.00000000
  eigenvalues    EBANDS =      -472.03563007
  atomic energy  EATOM  =      3393.14552885
  Solvation  Ediel_sol  =         0.00000000
  free energy    TOTEN  =       -41.75561975 eV

  energy without entropy =      -41.75561975  energy(sigma->0) =      -41.75561975

 average (electrostatic) potential at core
  the test charge radii are     1.0452  1.1631  0.9892  1.0808
  (the norm of the test charge is              1.0000)
       1 -48.8863       2 -48.8767       3 -39.5769       4 -92.7515       5 -61.2506
       6 -61.2506       7 -61.2505       8 -61.3795       9 -61.3795      10 -61.3794

 E-fermi :  -3.0434     XC(G=0):  -3.8647     alpha+bet : -2.8138

[...]

 spin component 2

[...]

 k-point     5 :      -0.4000    0.2000    0.0000
  band No.  band energies     occupation
      1     -16.4377      1.00000
      2     -16.4061      1.00000
      3     -15.9382      1.00000
      4     -15.7562      1.00000
      5     -15.7076      1.00000
      6     -15.4996      1.00000
      7     -11.3879      1.00000
      8      -9.5904      1.00000
      9      -7.9269      1.00000
     10      -7.4151      1.00000
     11      -7.3630      1.00000
     12      -6.9071      1.00000
     13      -6.5162      1.00000
     14      -6.4257      1.00000
     15      -6.1521      1.00000
     16      -5.6765      1.00000
     17      -5.6219      1.00000
     18      -5.6192      1.00000
     19      -5.5827      1.00000
     20      -5.2976      1.00000
     21      -5.1424      1.00000
     22      -4.4392      1.00000
     23      -4.2195      1.00000
     24      -4.2038      1.00000
     25      -4.0326      1.00000
     26      -3.6298      1.00000
     27      -3.5586      1.00000
     28      -3.4301      1.00000
     29      -3.3335      1.00000
     30      -3.2864      1.00000
     31      -3.2441      1.00000
     32      -2.0201      0.00000
     33      -1.8790      0.00000
     34      -1.7381      0.00000
     35      -1.2760      0.00000
     36      -1.1887      0.00000
     37      -0.1545      0.00000
     38       0.5602      0.00000
     39       0.7119      0.00000
     40       1.4531      0.00000
     41       1.5156      0.00000
     42       1.7719      0.00000
     43       2.6337      0.00000
     44       2.7483      0.00000
     45       2.8163      0.00000
     46       2.8199      0.00000
     47       3.2876      0.00000
     48       3.6514      0.00000

[...]

 soft charge-density along one line, spin component           2
         0         1         2         3         4         5         6         7         8         9
 total charge-density along one line

------------------------ aborting loop because EDIFF is reached ----------------------------------------

[...]

  FORCE on cell =-STRESS in cart. coord.  units (eV):
  Direction    XX          YY          ZZ          XY          YZ          ZX
  Alpha Z    52.20908    52.20908    52.20908
  Ewald   11120.64532 11120.64330-13120.20559    -0.00224    -0.00053    -0.00095
  Hartree 11714.19841 11714.19942-11260.54427    -0.00044     0.00007     0.00011
  E(xc)    -255.70379  -255.70384  -255.42341     0.00006     0.00000     0.00001
  Local  -23567.78912-23567.78930 23619.32772     0.00226     0.00028     0.00053
  n-local   243.12666   243.08859   245.41759    -0.09231     0.63117     0.50403
  augment    66.18280    66.18291    62.35309     0.00003     0.00006     0.00003
  Kinetic   629.59909   624.06761   656.68161    -3.57774     1.40172     1.61411
  Fock        0.00000     0.00000     0.00000     0.00000     0.00000     0.00000
  Total      -0.31689    -0.31689    -0.18419     0.00000    -0.00000    -0.00000
  in kB      -0.70811    -0.70811    -0.41158     0.00000    -0.00000    -0.00000

 VOLUME and BASIS-vectors are now :
  energy-cutoff  :      520.00
  volume of cell :      716.99
      direct lattice vectors                 reciprocal lattice vectors
     6.175715397 -0.000000087 -0.000000000     0.161924559 -0.093487185 -0.000000000
     3.087857435  5.348326128 -0.000000000     0.000000003  0.186974386  0.000000000
    -0.000000000 -0.000000000 21.707343025     0.000000000  0.000000000  0.046067361

  length of vectors
     6.175715397  6.175715012 21.707343025     0.186974374  0.186974386  0.046067361

 FORCES acting on ions
    electron-ion (+dipol)            ewald-force                    non-local-force                 convergence-correction
   -.243E-04 -.327E-04 -.375E+01   0.687E-03 0.413E-03 0.379E+01   -.139E-16 -.150E-18 0.108E+00   -.677E-06 -.598E-06 -.313E-01
   0.208E-04 0.257E-04 -.402E+01   -.692E-03 -.416E-03 0.405E+01   0.139E-16 -.140E-18 0.100E+00   0.110E-05 0.219E-06 -.278E-01
   -.201E-04 -.263E-04 0.238E+03   -.173E-03 -.973E-04 -.235E+03   -.311E-16 0.120E-16 -.366E+01   -.782E-07 -.328E-07 -.824E-01
   0.412E-04 0.290E-04 -.247E+03   0.187E-03 0.105E-03 0.242E+03   0.137E-16 -.347E-16 0.502E+01   0.281E-07 -.681E-08 0.740E-01
   -.261E+02 -.871E-01 -.506E+03   0.238E+02 0.148E+00 0.508E+03   0.233E+01 0.285E-02 -.274E+01   0.251E-01 -.577E-01 0.151E+00
   0.130E+02 0.227E+02 -.506E+03   -.118E+02 -.207E+02 0.508E+03   -.116E+01 -.202E+01 -.274E+01   -.626E-01 0.709E-02 0.151E+00
   0.131E+02 -.226E+02 -.506E+03   -.120E+02 0.205E+02 0.508E+03   -.117E+01 0.202E+01 -.274E+01   0.374E-01 0.506E-01 0.151E+00
   0.339E+02 -.678E-02 0.511E+03   -.317E+02 0.713E-01 -.513E+03   -.220E+01 0.428E-02 0.272E+01   -.186E-01 -.634E-01 -.180E+00
   -.170E+02 -.294E+02 0.511E+03   0.159E+02 0.274E+02 -.513E+03   0.110E+01 0.190E+01 0.272E+01   -.456E-01 0.478E-01 -.180E+00
   -.170E+02 0.294E+02 0.511E+03   0.158E+02 -.275E+02 -.513E+03   0.110E+01 -.191E+01 0.272E+01   0.642E-01 0.156E-01 -.180E+00
   0.401E-04 -.436E-04 -.137E+01   0.000E+00 0.178E-13 0.227E-12   0.000E+00 0.222E-15 0.152E+01   0.249E-06 -.484E-06 -.154E+00

 POSITION                                       TOTAL-FORCE (eV/Angst)
      3.08785      1.78277     10.83735         0.000000     -0.000000      0.109711
      6.17572      3.56555     10.83811         0.000000     -0.000000      0.101921
     -0.00000     -0.00000      9.72958         0.000000     -0.000000     -0.071750
      0.00000     -0.00000     12.05861         0.000000      0.000000     -0.139725
      3.86519     -0.00048     12.37764         0.030730      0.006333     -0.085087
      1.15485      2.00122     12.37764        -0.009880     -0.029780     -0.085087
      4.24354      3.34759     12.37764        -0.020850      0.023446     -0.085087
      5.51262      5.34783      9.34860         0.020965      0.004838      0.085035
      8.05076      3.24867      9.34860        -0.006293     -0.020575      0.085035
      4.96376      2.10015      9.34860        -0.014672      0.015738      0.085035
    total drift:                                0.000040     -0.000044     -0.007086

  FREE ENERGIE OF THE ION-ELECTRON SYSTEM (eV)
  free  energy   TOTEN  =       -41.75561975 eV

  energy  without entropy=      -41.75561975  energy(sigma->0) =      -41.75561975

 d Force = 0.7939007E-03[-0.275E-03, 0.186E-02]  d Energy =-0.1607905E-02 0.240E-02
 d Force = 0.9839837E+00[ 0.998E+00, 0.970E+00]  d Ewald  =-0.5154188E+02 0.525E+02

 reached required accuracy - stopping structural energy minimisation

 total charge

[...]

 magnetization (x)

# of ion       s       p       d       tot
    1       -0.000  -0.000  -0.000  -0.000
    2       -0.000  -0.000  -0.000  -0.000
    3        0.000   0.000   0.000   0.000
    4        0.000  -0.000   0.000  -0.000
    5        0.000   0.000   0.000   0.000
    6       -0.000   0.000  -0.000   0.000
    7       -0.000   0.000   0.000   0.000
    8        0.000   0.000   0.000   0.000
    9        0.000   0.000   0.000   0.000
   10        0.000   0.000   0.000   0.000
tot         -0.000   0.000  -0.000  -0.000

 BZINTS: Fermi energy: -3.043384; 62.000000 electrons
         Band energy:-472.035630;  BLOECHL correction:  0.000000