 vasp.5.4.4.18Apr17-6-g9f103f2a35 (build May  1 2020 15:48:39) complex
 executed on             LinuxGNU date 2020.06.14  05:34:20

 INCAR:
 POTCAR:   PAW_PBE Cr 06Sep2000
 POTCAR:   PAW_PBE Si 05Jan2001
 POTCAR:   PAW_PBE Se 06Sep2000

 POTCAR:   PAW_PBE Cr 06Sep2000
   VRHFIN =Cr : d5 s1

   TITEL  = PAW_PBE Cr 06Sep2000
   POMASS =   51.996; ZVAL   =    6.000    mass and valenz
   ENMAX  =  227.082; ENMIN  =  170.311 eV
   QCUT   =   -4.085; QGAM   =    8.171    optimization parameters

   Description
     l     E      TYP  RCUT    TYP  RCUT
     2   .000     23  2.500
     2   .000     23  2.500
     0   .000     23  2.500
     0   .000     23  2.500
     1  -.400     23  2.500
     1  2.000     23  2.500
     3   .000      7   .000

 POTCAR:   PAW_PBE Si 05Jan2001
   VRHFIN =Si: s2p2

   TITEL  = PAW_PBE Si 05Jan2001
   POMASS =   28.085; ZVAL   =    4.000    mass and valenz
   ENMAX  =  245.345; ENMIN  =  184.009 eV
   QCUT   =   -4.246; QGAM   =    8.493    optimization parameters

[...]

 POTCAR:   PAW_PBE Se 06Sep2000
   VRHFIN =Se: s2p4

   TITEL  = PAW_PBE Se 06Sep2000
   POMASS =   78.960; ZVAL   =    6.000    mass and valenz
   ENMAX  =  211.534; ENMIN  =  158.651 eV
   QCUT   =   -3.943; QGAM   =    7.886    optimization parameters

   Description
     l     E      TYP  RCUT    TYP  RCUT
     0   .000     23  2.100
     0   .000     23  2.100
     1   .000     23  2.100
     1   .000     23  2.100
     2   .000     23  2.100
     3  -.100      7  2.100

 Optimization of the real space projectors (new method)

 maximal supplied QI-value         = 15.12
 optimisation between [QCUT,QGAM] = [ 11.64, 23.28] = [ 37.95,151.78] Ry
 Optimized for a Real-space Cutoff    1.49 Angstroem

   l    n(q)    QCUT    max X(q) W(low)/X(q) W(high)/X(q)  e(spline)
   2      9    11.641     4.777    0.25E-04    0.21E-05    0.63E-07
   2      9    11.641    31.132    0.13E-03    0.22E-03    0.64E-06
   0     10    11.641    20.416    0.11E-04    0.74E-05    0.19E-07
   0     10    11.641    45.408    0.10E-03    0.85E-04    0.30E-06
   1     10    11.641     7.848    0.22E-04    0.23E-04    0.56E-07
   1     10    11.641     9.895    0.85E-04    0.54E-04    0.16E-06
 Optimization of the real space projectors (new method)

[...]

   l    n(q)    QCUT    max X(q) W(low)/X(q) W(high)/X(q)  e(spline)
   0      8    11.508     8.708    0.18E-04    0.44E-05    0.47E-08
   0      8    11.508   106.241    0.70E-04    0.15E-03    0.51E-07
   1      8    11.508     5.901    0.63E-05    0.23E-04    0.21E-07
   1      8    11.508    73.241    0.15E-03    0.36E-04    0.79E-07
 Optimization of the real space projectors (new method)

 maximal supplied QI-value         = 17.95
 optimisation between [QCUT,QGAM] = [ 11.67, 23.34] = [ 38.13,152.52] Ry
 Optimized for a Real-space Cutoff    1.25 Angstroem

   l    n(q)    QCUT    max X(q) W(low)/X(q) W(high)/X(q)  e(spline)
   0      9    11.669     6.499    0.13E-04    0.81E-05    0.11E-07
   0      9    11.669    52.623    0.18E-03    0.46E-04    0.72E-07
   1      8    11.669     4.229    0.40E-04    0.45E-04    0.31E-07
   1      8    11.669    29.991    0.22E-03    0.36E-03    0.10E-06
   2      8    11.669     3.719    0.19E-03    0.46E-04    0.50E-07

 PAW_PBE Cr 06Sep2000                   :
 PAW_PBE Si 05Jan2001                   :
 PAW_PBE Se 06Sep2000                   :

 POSCAR: Cr2 Si2 Se6
  positions in direct lattice
  velocities in cartesian coordinates
 exchange correlation table for  LEXCH =       42
   RHO(1)=    0.500       N(1)  =     2000
   RHO(2)=  100.500       N(2)  =     4000

 ion  position               nearest neighbor table
   1  0.333  0.333  0.500-   6 2.78   5 2.78   7 2.78   8 2.78  10 2.78   9 2.78
   2  0.667  0.667  0.500-   9 2.78   8 2.78  10 2.78   5 2.78   7 2.78   6 2.78
   3  0.000  0.000  0.448-   4 2.43   8 2.63  10 2.63   9 2.63
   4  0.000  0.000  0.552-   3 2.43   5 2.63   7 2.63   6 2.63
   5  0.626  0.000  0.574-   4 2.63   1 2.78   2 2.78
   6  0.000  0.373  0.574-   4 2.63   1 2.78   2 2.78
   7  0.373  0.626  0.574-   4 2.63   1 2.78   2 2.78
   8  0.374  1.000  0.426-   3 2.63   2 2.78   1 2.78
   9  1.000  0.627  0.426-   3 2.63   2 2.78   1 2.78
  10  0.627  0.374  0.426-   3 2.63   2 2.78   1 2.78

  LATTYP: Found a hexagonal cell.
 ALAT       =     6.9077769333
 C/A-ratio  =     3.3939410937

  Lattice vectors:

 A1 = (   3.4538890000,  -5.9823100000,   0.0000000000)
 A2 = (  -6.9077770000,   0.0000000000,   0.0000000000)
 A3 = (   0.0000000000,   0.0000000000, -23.4445880000)

Analysis of symmetry for initial positions (statically):
 Subroutine PRICEL returns:
 Original cell was already a primitive cell.

 Routine SETGRP: Setting up the symmetry group for a
 hexagonal supercell.

 Subroutine GETGRP returns: Found  6 space group operations
 (whereof  6 operations were pure point group operations)
 out of a pool of 24 trial point group operations.

The static configuration has the point symmetry S_6 .

Analysis of symmetry for dynamics (positions and initial velocities):
 Subroutine PRICEL returns:
 Original cell was already a primitive cell.

[...]

The dynamic configuration has the point symmetry S_6 .

Analysis of constrained symmetry for selective dynamics:
 Subroutine PRICEL returns:
 Original cell was already a primitive cell.

[...]

The constrained configuration has the point symmetry S_6 .

Analysis of structural, dynamic, and magnetic symmetry:
 Subroutine PRICEL returns:
 Original cell was already a primitive cell.

 Routine SETGRP: Setting up the symmetry group for a
 hexagonal supercell.

 Subroutine GETGRP returns: Found  6 space group operations
 (whereof  6 operations were pure point group operations)
 out of a pool of 24 trial point group operations.

The magnetic configuration has the point symmetry S_6 .

 Subroutine INISYM returns: Found  6 space group operations
 (whereof  6 operations are pure point group operations),
 and found     1 'primitive' translations

 KPOINTS: Kpoints from vasprun.xml

Automatic generation of k-mesh.
Space group operators:
 irot       det(A)        alpha          n_x          n_y          n_z        tau_x        tau_y        tau_z
    1     1.000000     0.000000     1.000000     0.000000     0.000000     0.000000     0.000000     0.000000
    2    -1.000000     0.000000     1.000000     0.000000     0.000000     0.000000     0.000000     0.000000
    3     1.000000   120.000000     0.000000     0.000000     1.000000     0.000000     0.000000     0.000000
    4    -1.000000   120.000000     0.000000     0.000000     1.000000     0.000000     0.000000     0.000000
    5     1.000000   120.000000     0.000000     0.000000    -1.000000     0.000000     0.000000     0.000000
    6    -1.000000   120.000000     0.000000     0.000000    -1.000000     0.000000     0.000000     0.000000

 Subroutine IBZKPT returns following result:

 Found      5 irreducible k-points:

 Following reciprocal coordinates:
            Coordinates               Weight
  0.000000  0.000000  0.000000      1.000000
  0.200000  0.000000  0.000000      6.000000
  0.400000  0.000000  0.000000      6.000000
  0.400000  0.200000  0.000000      6.000000
 -0.400000  0.200000  0.000000      6.000000

 Following cartesian coordinates:
            Coordinates               Weight
  0.000000  0.000000  0.000000      1.000000
  0.028953 -0.016716  0.000000      6.000000
  0.057906 -0.033432  0.000000      6.000000
  0.057906  0.000000  0.000000      6.000000
 -0.057906  0.066864  0.000000      6.000000

 TETIRR: Found     15 inequivalent tetrahedra from      150

 SYSTEM =  unknown system
 POSCAR =  Cr2 Si2 Se6

 Startparameter for this run:
   NWRITE =      2    write-flag & timer
   PREC   = accura    normal or accurate (medium, high low for compatibility)
   ISTART =      0    job   : 0-new  1-cont  2-samecut
   ICHARG =      2    charge: 1-file 2-atom 10-const
   ISPIN  =      2    spin polarized calculation?
   LNONCOLLINEAR =      F non collinear calculations
   LSORBIT =      F    spin-orbit coupling
   INIWAV =      1    electr: 0-lowe 1-rand  2-diag
   LASPH  =      F    aspherical Exc in radial PAW
   METAGGA=      F    non-selfconsistent MetaGGA calc.

 Electronic Relaxation 1
   ENCUT  =  520.0 eV  38.22 Ry    6.18 a.u.  12.84 12.84 43.59*2*pi/ulx,y,z
   ENINI  =  520.0     initial cutoff
   ENAUG  =  446.8 eV  augmentation charge cutoff
   NELM   =    400;   NELMIN=  2; NELMDL=  0     # of ELM steps
   EDIFF  = 0.1E-03   stopping-criterion for ELM
   LREAL  =      T    real-space projection
   NLSPLINE    = F    spline interpolate recip. space projectors
   LCOMPAT=      F    compatible to vasp.4.4
   GGA_COMPAT  = T    GGA compatible to vasp.4.4-vasp.4.6
   LMAXPAW     = -100 max onsite density
   LMAXMIX     =    2 max onsite mixed and CHGCAR
   VOSKOWN=      0    Vosko Wilk Nusair interpolation
   ROPT   =   -0.00025  -0.00025  -0.00025
 Ionic relaxation
   EDIFFG = 0.1E-02   stopping-criterion for IOM
   NSW    =     99    number of steps for IOM
   NBLOCK =      1;   KBLOCK =     99    inner block; outer block
   IBRION =      2    ionic relax: 0-MD 1-quasi-New 2-CG
   NFREE  =      1    steps in history (QN), initial steepest desc. (CG)
   ISIF   =      3    stress and relaxation
   IWAVPR =     11    prediction:  0-non 1-charg 2-wave 3-comb
   ISYM   =      2    0-nonsym 1-usesym 2-fastsym
   LCORR  =      T    Harris-Foulkes like correction to forces

   POTIM  = 0.5000    time-step for ionic-motion
   TEIN   =    0.0    initial temperature
   TEBEG  =    0.0;   TEEND  =   0.0 temperature during run
   SMASS  =  -3.00    Nose mass-parameter (am)
   estimated Nose-frequenzy (Omega)   =  0.10E-29 period in steps =****** mass=  -0.109E-26a.u.
   SCALEE = 1.0000    scale energy and forces
   NPACO  =    256;   APACO  = 16.0  distance and # of slots for P.C.
   PSTRESS=    0.0 pullay stress

  Mass of Ions in am
   POMASS =  52.00 28.09 78.96
  Ionic Valenz
   ZVAL   =   6.00  4.00  6.00
  Atomic Wigner-Seitz radii
  virtual crystal weights
   VCA    =   1.00  1.00  1.00
   NELECT =      56.0000    total number of electrons
   NUPDOWN=      -1.0000    fix difference up-down

 DOS related values:
   EMIN   =  10.00;   EMAX   =-10.00  energy-range for DOS
   EFERMI =   0.00
   ISMEAR =    -5;   SIGMA  =   0.05  broadening in eV -4-tet -1-fermi 0-gaus

 Electronic relaxation 2 (details)
   IALGO  =     38    algorithm
   LDIAG  =      T    sub-space diagonalisation (order eigenvalues)
   LSUBROT=      F    optimize rotation matrix (better conditioning)
   TURBO    =      0    0=normal 1=particle mesh
   IRESTART =      0    0=no restart 2=restart with 2 vectors
   NREBOOT  =      0    no. of reboots
   NMIN     =      0    reboot dimension
   EREF     =   0.00    reference energy to select bands
   IMIX   =      4    mixing-type and parameters
     AMIX     =   0.40;   BMIX     =  1.00
     AMIX_MAG =   1.60;   BMIX_MAG =  1.00
     AMIN     =   0.01
     WC   =   100.;   INIMIX=   1;  MIXPRE=   1;  MAXMIX= -45

 Intra band minimization:
   WEIMIN = 0.0010     energy-eigenvalue tresh-hold
   EBREAK =  0.52E-06  absolut break condition
   DEPER  =   0.30     relativ break condition

[...]
       6 -61.6656       7 -61.6655       8 -61.6656       9 -61.6656      10 -61.6655

 E-fermi :  -4.0052     XC(G=0):  -3.2566     alpha+bet : -2.2181

 spin component 1

 k-point     1 :       0.0000    0.0000    0.0000
  band No.  band energies     occupation
      1     -16.3566      1.00000
      2     -15.8977      1.00000
      3     -15.4236      1.00000
      4     -15.4236      1.00000
      5     -15.3771      1.00000
      6     -15.3771      1.00000
      7     -11.5193      1.00000
      8      -9.3666      1.00000
      9      -7.3886      1.00000
     10      -7.3886      1.00000
     11      -7.2886      1.00000
     12      -7.2372      1.00000
     13      -6.9567      1.00000
     14      -6.9566      1.00000
     15      -6.1353      1.00000
     16      -5.7659      1.00000
     17      -5.7659      1.00000
     18      -5.5395      1.00000
     19      -5.5394      1.00000
     20      -5.2990      1.00000
     21      -4.9344      1.00000
     22      -4.9344      1.00000
     23      -4.7385      1.00000
     24      -4.5816      1.00000
     25      -4.5816      1.00000
     26      -4.5645      1.00000
     27      -4.5627      1.00000
     28      -4.5627      1.00000
     29      -4.2402      1.00000
     30      -4.0319      1.00000
     31      -4.0318      1.00000
     32      -2.7645      0.00000
     33      -2.7645      0.00000
     34      -2.6124      0.00000
     35      -2.4267      0.00000
     36      -2.4246      0.00000
     37      -2.4246      0.00000
     38      -0.6078      0.00000
     39      -0.6077      0.00000
     40       0.7576      0.00000
     41       0.9422      0.00000
     42       0.9533      0.00000
     43       0.9534      0.00000
     44       1.0834      0.00000
     45       1.4701      0.00000
     46       2.0153      0.00000
     47       2.4089      0.00000
     48       2.5996      0.00000

[...]

 soft charge-density along one line, spin component           1
         0         1         2         3         4         5         6         7         8         9
 total charge-density along one line

[...]

------------------------ aborting loop because EDIFF is reached ----------------------------------------

 total charge

# of ion       s       p       d       tot
    1        0.280   0.299   4.091   4.670
    2        0.280   0.299   4.091   4.670
    3        0.799   0.673   0.000   1.472
    4        0.799   0.673   0.000   1.472
    5        1.485   2.216   0.018   3.719
    6        1.482   2.218   0.018   3.718
    7        1.484   2.215   0.018   3.717
    8        1.485   2.216   0.018   3.719
    9        1.482   2.218   0.018   3.718
   10        1.484   2.215   0.018   3.717
tot         11.059  15.243   8.290  34.592

 magnetization (x)

[...]

  FORCE on cell =-STRESS in cart. coord.  units (eV):
  Direction    XX          YY          ZZ          XY          YZ          ZX
  Alpha Z    29.07756    29.07756    29.07756
  Ewald    7419.63051  7419.62857 -8853.36149    -0.00107    -0.00038    -0.00069
  Hartree  7819.40281  7819.40321 -7617.94851    -0.00006     0.00005     0.00008
  E(xc)    -210.24761  -210.24746  -210.04721    -0.00022    -0.00012    -0.00012
  Local  -15945.41413-15945.41356 15739.41145     0.00087     0.00019     0.00036
  n-local   295.09292   296.32854   303.12104     0.55390     0.27904     0.23911
  augment    23.06958    23.06969    20.28211    -0.00002     0.00003     0.00004
  Kinetic   547.11837   545.06984   577.17637    -1.73910     0.72029     0.78472
  Fock        0.00000     0.00000     0.00000     0.00000     0.00000     0.00000
  Total     -22.67681   -22.67680   -12.28868     0.00000    -0.00000    -0.00000
  in kB     -37.50098   -37.50098   -20.32199     0.00000    -0.00000    -0.00000

 VOLUME and BASIS-vectors are now :
  energy-cutoff  :      520.00
  volume of cell :      968.84
      direct lattice vectors                 reciprocal lattice vectors
     6.907777000 -0.000000000  0.000000000     0.144764372 -0.083579742  0.000000000
     3.453888000  5.982310000  0.000000000     0.000000000  0.167159509 -0.000000000
     0.000000000  0.000000000 23.444588000    -0.000000000  0.000000000  0.042653767

[...]

 FORCES acting on ions
    electron-ion (+dipol)            ewald-force                    non-local-force                 convergence-correction
   -.764E-04 -.536E-04 0.636E+00   0.306E-03 0.183E-03 -.640E+00   0.173E-17 0.347E-17 -.332E-02   0.381E-06 0.461E-06 0.114E-01
   0.764E-04 0.536E-04 -.636E+00   -.306E-03 -.183E-03 0.640E+00   -.173E-17 -.347E-17 0.332E-02   -.381E-06 -.461E-06 -.114E-01
   -.201E-04 -.348E-04 0.164E+03   -.141E-03 -.779E-04 -.158E+03   0.139E-16 0.139E-16 -.529E+01   -.205E-05 -.163E-05 -.307E-01
   0.201E-04 0.348E-04 -.164E+03   0.141E-03 0.779E-04 0.158E+03   -.347E-17 -.139E-16 0.529E+01   0.205E-05 0.163E-05 0.307E-01
   -.584E+01 0.132E+00 -.341E+03   0.444E+01 -.152E+00 0.342E+03   0.249E+01 -.109E-01 -.300E+01   -.941E-02 0.199E-01 0.755E-01
   0.303E+01 0.499E+01 -.341E+03   -.235E+01 -.377E+01 0.342E+03   -.126E+01 -.215E+01 -.300E+01   0.219E-01 -.179E-02 0.755E-01
   0.280E+01 -.512E+01 -.341E+03   -.209E+01 0.392E+01 0.342E+03   -.124E+01 0.216E+01 -.300E+01   -.125E-01 -.181E-01 0.755E-01
   0.584E+01 -.132E+00 0.341E+03   -.444E+01 0.152E+00 -.342E+03   -.249E+01 0.109E-01 0.300E+01   0.941E-02 -.199E-01 -.755E-01
   -.303E+01 -.499E+01 0.341E+03   0.235E+01 0.377E+01 -.342E+03   0.126E+01 0.215E+01 0.300E+01   -.219E-01 0.179E-02 -.755E-01
   -.280E+01 0.512E+01 0.341E+03   0.209E+01 -.392E+01 -.342E+03   0.124E+01 -.216E+01 0.300E+01   0.125E-01 0.181E-01 -.755E-01
   -.125E-09 -.181E-09 -.126E-11   0.155E-13 0.799E-14 -.171E-12   -.222E-15 -.444E-15 -.444E-15   0.122E-13 -.133E-13 0.835E-11

 POSITION                                       TOTAL-FORCE (eV/Angst)
      3.45388      1.99410     11.72054        -0.000000      0.000000      0.004221
      6.90778      3.98821     11.72405        -0.000000     -0.000000     -0.004221
      0.00000      0.00000     10.50824        -0.000000      0.000000      0.449357
      0.00000      0.00000     12.93635        -0.000000     -0.000000     -0.449357
      4.32819      0.00251     13.45138         1.084577     -0.010475     -1.107709
      1.29198      2.23274     13.45138        -0.551360     -0.934034     -1.107709
      4.74152      3.74706     13.45138        -0.533217      0.944508     -1.107709
      6.03348      5.97980      9.99321        -1.084577      0.010475      1.107709
      9.06969      3.74957      9.99321         0.551360      0.934034      1.107709
      5.62015      2.23525      9.99321         0.533217     -0.944508      1.107709
    total drift:                               -0.000000     -0.000000      0.000000

  FREE ENERGIE OF THE ION-ELECTRON SYSTEM (eV)
  free  energy   TOTEN  =       -47.04264451 eV

  energy  without entropy=      -47.04264451  energy(sigma->0) =      -47.04264451

[...]

 d Force =-0.3992518E-06[-0.242E-05, 0.162E-05]  d Energy = 0.3066881E+01-0.307E+01
 d Force =-0.2635155E-03[-0.282E-03,-0.245E-03]  d Ewald  =-0.1293643E+04 0.129E+04

 Steepest descent step on ions:
 trial-energy change:   -3.066881  1 .order   -2.390896   -5.690159    0.908367
  (g-gl).g = 0.569E+01      g.g   = 0.569E+01  gl.gl    = 0.000E+00
 g(Force)  = 0.172E-05   g(Stress)= 0.569E+01 ortho     = 0.000E+00
 gamma     =   0.00000
 trial     =   1.00000
 opt step  =   0.91178  (harmonic =   0.86234) maximal distance =0.00018568
 next E    =   -50.149129   (d E  =  -3.10648)

[...]

 eigenvalue-minimisations  :  1104
 total energy-change (2. order) :-0.1603696E+00  (-0.3180920E+00)
 number of electron      55.9999998 magnetization       5.9994878
 augmentation part       -1.9562884 magnetization       4.1790496

[...]

 Broyden mixing:
  rms(total) = 0.35004E-02    rms(broyden)= 0.35004E-02
  rms(prec ) = 0.43798E-02
  weight for this iteration     100.00

 eigenvalues of (default mixing * dielectric matrix)
  average eigenvalue GAMMA=   1.1133
  2.0450  1.4945  0.9449  0.4275  0.6547

[...]

--------------------------------------- Iteration      3(   7)  ---------------------------------------

[...]

 eigenvalue-minimisations  :   888
 total energy-change (2. order) : 0.3304266E-04  (-0.6716893E-05)
 number of electron      55.9999998 magnetization       5.9997600
 augmentation part       -2.0118583 magnetization       4.1354471

 Free energy of the ion-electron system (eV)
  alpha Z        PSCENC =        37.92827915
  Ewald energy   TEWEN  =      7147.45936881
  -Hartree energ DENC   =     -9210.01175988
  -exchange      EXHF   =         0.00000000
  -V(xc)+E(xc)   XCENC  =       -62.23288481
  PAW double counting   =      1270.32051928    -1106.70694505
  entropy T*S    EENTRO =         0.00000000
  eigenvalues    EBANDS =      -440.20123919
  atomic energy  EATOM  =      2313.29000814
  Solvation  Ediel_sol  =         0.00000000
  free energy    TOTEN  =       -50.15465355 eV

  energy without entropy =      -50.15465355  energy(sigma->0) =      -50.15465355

 average (electrostatic) potential at core
  the test charge radii are     1.1394  0.9892  1.0808
  (the norm of the test charge is              1.0000)
       1 -51.2611       2 -51.2611       3 -92.7509       4 -92.7509       5 -60.9750
       6 -60.9750       7 -60.9750       8 -60.9750       9 -60.9750      10 -60.9750

 E-fermi :  -2.9538     XC(G=0):  -3.7787     alpha+bet : -2.8933

[...]

 spin component 2

[...]

 k-point     5 :      -0.4000    0.2000    0.0000
  band No.  band energies     occupation
      1     -16.1308      1.00000
      2     -16.0128      1.00000
      3     -15.6669      1.00000
      4     -15.6309      1.00000
      5     -15.5638      1.00000
      6     -15.3734      1.00000
      7     -10.8639      1.00000
      8      -9.2014      1.00000
      9      -7.5039      1.00000
     10      -7.1452      1.00000
     11      -6.9331      1.00000
     12      -6.6111      1.00000
     13      -6.4107      1.00000
     14      -6.1053      1.00000
     15      -5.6541      1.00000
     16      -5.3414      1.00000
     17      -5.2456      1.00000
     18      -5.0977      1.00000
     19      -4.9819      1.00000
     20      -4.9297      1.00000
     21      -4.5792      1.00000
     22      -4.2884      1.00000
     23      -4.1460      1.00000
     24      -3.7993      1.00000
     25      -3.6880      1.00000
     26      -2.2279      0.00000
     27      -1.4397      0.00000
     28      -1.4035      0.00000
     29      -0.8501      0.00000
     30      -0.7826      0.00000
     31      -0.6583      0.00000
     32      -0.6260      0.00000
     33      -0.3537      0.00000
     34      -0.3121      0.00000
     35       0.0893      0.00000
     36       0.1554      0.00000
     37       0.5758      0.00000
     38       0.9381      0.00000
     39       1.0294      0.00000
     40       1.8767      0.00000
     41       1.9839      0.00000
     42       2.0487      0.00000
     43       2.7359      0.00000
     44       2.9205      0.00000
     45       2.9370      0.00000
     46       3.0418      0.00000
     47       3.3925      0.00000
     48       3.7247      0.00000

[...]

 soft charge-density along one line, spin component           2
         0         1         2         3         4         5         6         7         8         9
 total charge-density along one line

------------------------ aborting loop because EDIFF is reached ----------------------------------------

[...]

  FORCE on cell =-STRESS in cart. coord.  units (eV):
  Direction    XX          YY          ZZ          XY          YZ          ZX
  Alpha Z    37.92828    37.92828    37.92828
  Ewald    8723.57379  8723.57175-10299.68823    -0.00112    -0.00039    -0.00070
  Hartree  9053.37736  9053.37774 -8894.26568    -0.00006     0.00004     0.00007
  E(xc)    -215.95941  -215.95940  -215.82079     0.00001     0.00001     0.00001
  Local  -18500.81949-18500.81901 18441.48143     0.00082     0.00017     0.00031
  n-local   307.99275   309.43338   314.00012     0.64059     0.43959     0.32671
  augment    22.96047    22.96053    19.77090     0.00006     0.00009    -0.00002
  Kinetic   573.17305   567.52012   596.72563    -4.11387     0.91400     0.86490
  Fock        0.00000     0.00000     0.00000     0.00000     0.00000     0.00000
  Total       0.12009     0.12009     0.13166     0.00000    -0.00000     0.00000
  in kB       0.25904     0.25904     0.28399     0.00000    -0.00000     0.00000

 VOLUME and BASIS-vectors are now :
  energy-cutoff  :      520.00
  volume of cell :      742.75
      direct lattice vectors                 reciprocal lattice vectors
     6.218741647  0.000000048 -0.000000000     0.160804237 -0.092840362 -0.000000000
     3.109370432  5.385588014 -0.000000000    -0.000000001  0.185680747  0.000000000
     0.000000000 -0.000000000 22.177317525     0.000000000  0.000000000  0.045091116

  length of vectors
     6.218741647  6.218741250 22.177317525     0.185680735  0.185680747  0.045091116

 FORCES acting on ions
    electron-ion (+dipol)            ewald-force                    non-local-force                 convergence-correction
   -.870E-04 -.569E-04 0.722E+00   0.354E-03 0.210E-03 -.727E+00   0.694E-17 -.694E-17 -.101E-02   -.204E-06 -.117E-06 -.303E-04
   0.870E-04 0.569E-04 -.722E+00   -.354E-03 -.210E-03 0.727E+00   -.347E-17 -.109E-22 0.101E-02   0.204E-06 0.117E-06 0.303E-04
   -.385E-04 -.188E-04 0.199E+03   -.176E-03 -.981E-04 -.192E+03   0.173E-16 -.686E-17 -.692E+01   -.346E-07 0.732E-08 -.178E-01
   0.385E-04 0.188E-04 -.199E+03   0.176E-03 0.981E-04 0.192E+03   0.694E-17 -.140E-16 0.692E+01   0.346E-07 -.732E-08 0.178E-01
   -.510E+01 0.194E+00 -.424E+03   0.345E+01 -.194E+00 0.427E+03   0.234E+01 -.110E-01 -.209E+01   0.151E-02 -.197E-04 0.409E-01
   0.272E+01 0.432E+01 -.424E+03   -.190E+01 -.289E+01 0.427E+03   -.118E+01 -.202E+01 -.209E+01   -.774E-03 -.130E-02 0.409E-01
   0.238E+01 -.451E+01 -.424E+03   -.156E+01 0.309E+01 0.427E+03   -.116E+01 0.203E+01 -.209E+01   -.741E-03 0.132E-02 0.409E-01
   0.510E+01 -.194E+00 0.424E+03   -.345E+01 0.194E+00 -.427E+03   -.234E+01 0.110E-01 0.209E+01   -.151E-02 0.197E-04 -.409E-01
   -.272E+01 -.432E+01 0.424E+03   0.190E+01 0.289E+01 -.427E+03   0.118E+01 0.202E+01 0.209E+01   0.774E-03 0.130E-02 -.409E-01
   -.238E+01 0.451E+01 0.424E+03   0.156E+01 -.309E+01 -.427E+03   0.116E+01 -.203E+01 0.209E+01   0.741E-03 -.132E-02 -.409E-01
   -.192E-10 -.777E-10 0.116E-09   0.444E-14 -.160E-13 0.000E+00   0.444E-15 0.000E+00 0.000E+00   0.166E-15 -.183E-13 0.312E-11

 POSITION                                       TOTAL-FORCE (eV/Angst)
      3.10937      1.79519     11.08717        -0.000000     -0.000000     -0.005594
      6.21874      3.59039     11.09015        -0.000000     -0.000000      0.005594
      0.00000     -0.00000      9.94023        -0.000000     -0.000000      0.298188
      0.00000     -0.00000     12.23709        -0.000000     -0.000000     -0.298188
      3.89646      0.00226     12.72428         0.694105     -0.010998      0.069775
      1.16310      2.01003     12.72428        -0.356577     -0.595613      0.069775
      4.26856      3.37330     12.72428        -0.337527      0.606612      0.069775
      5.43165      5.38333      9.45304        -0.694105      0.010998     -0.069775
      8.16501      3.37556      9.45304         0.356577      0.595613     -0.069775
      5.05955      2.01229      9.45304         0.337527     -0.606612     -0.069775
    total drift:                               -0.000000     -0.000000      0.000000

  FREE ENERGIE OF THE ION-ELECTRON SYSTEM (eV)
  free  energy   TOTEN  =       -50.15465355 eV

  energy  without entropy=      -50.15465355  energy(sigma->0) =      -50.15465355

 d Force = 0.2149681E-06[ 0.202E-06, 0.228E-06]  d Energy = 0.4512813E-01-0.451E-01
 d Force = 0.2641908E-04[ 0.263E-04, 0.266E-04]  d Ewald  = 0.1320831E+03-0.132E+03

 reached required accuracy - stopping structural energy minimisation

 total charge

[...]

 magnetization (x)

# of ion       s       p       d       tot
    1        0.036   0.042   2.933   3.011
    2        0.036   0.042   2.933   3.011
    3        0.005   0.028   0.000   0.033
    4        0.005   0.028   0.000   0.033
    5       -0.000  -0.077   0.006  -0.071
    6       -0.002  -0.061   0.007  -0.056
    7       -0.001  -0.072   0.006  -0.066
    8       -0.000  -0.077   0.006  -0.071
    9       -0.002  -0.061   0.007  -0.056
   10       -0.001  -0.072   0.006  -0.066
tot          0.077  -0.280   5.903   5.700

 BZINTS: Fermi energy: -2.953846; 56.000000 electrons
         Band energy:-440.201239;  BLOECHL correction:  0.000000