 vasp.5.4.4.18Apr17-6-g9f103f2a35 (build May  1 2020 15:48:39) complex
 executed on             LinuxGNU date 2020.06.18  23:35:06

 INCAR:
 POTCAR:   PAW_PBE Ni 06Sep2000
 POTCAR:    PAW_PBE P 17Jan2003
 POTCAR:   PAW_PBE Ge 05Jan2001
 POTCAR:   PAW_PBE Se 06Sep2000

 POTCAR:   PAW_PBE Ni 06Sep2000
   VRHFIN =Ni:

   TITEL  = PAW_PBE Ni 06Sep2000
   POMASS =   58.690; ZVAL   =   10.000    mass and valenz
   ENMAX  =  269.533; ENMIN  =  202.150 eV
   QCUT   =   -4.451; QGAM   =    8.902    optimization parameters

   Description
     l     E      TYP  RCUT    TYP  RCUT
     2   .000     23  2.300
     2   .000     23  2.300
     0   .000     23  2.300
     0   .000     23  2.300
     1  -.200     23  2.300
     1   .000     23  2.300
     3   .000      7   .000

 POTCAR:    PAW_PBE P 17Jan2003
   VRHFIN =P : s2p3

   TITEL  = PAW_PBE P 17Jan2003
   POMASS =   30.974; ZVAL   =    5.000    mass and valenz
   ENMAX  =  270.000; ENMIN  =  191.280 eV
   QCUT   =   -4.330; QGAM   =    8.659    optimization parameters

[...]

 POTCAR:   PAW_PBE Ge 05Jan2001
   VRHFIN =Ge: s2p2

   TITEL  = PAW_PBE Ge 05Jan2001
   POMASS =   72.610; ZVAL   =    4.000    mass and valenz
   ENMAX  =  173.807; ENMIN  =  130.355 eV
   QCUT   =   -3.574; QGAM   =    7.148    optimization parameters

[...]

 POTCAR:   PAW_PBE Se 06Sep2000
   VRHFIN =Se: s2p4

   TITEL  = PAW_PBE Se 06Sep2000
   POMASS =   78.960; ZVAL   =    6.000    mass and valenz
   ENMAX  =  211.534; ENMIN  =  158.651 eV
   QCUT   =   -3.943; QGAM   =    7.886    optimization parameters

   Description
     l     E      TYP  RCUT    TYP  RCUT
     0   .000     23  2.100
     0   .000     23  2.100
     1   .000     23  2.100
     1   .000     23  2.100
     2   .000     23  2.100
     3  -.100      7  2.100

 Optimization of the real space projectors (new method)

 maximal supplied QI-value         = 16.25
 optimisation between [QCUT,QGAM] = [ 11.54, 23.24] = [ 37.28,151.24] Ry
 Optimized for a Real-space Cutoff    1.49 Angstroem

   l    n(q)    QCUT    max X(q) W(low)/X(q) W(high)/X(q)  e(spline)
   2      9    11.539     4.811    0.20E-04    0.14E-04    0.45E-07
   2      9    11.539    15.146    0.24E-03    0.12E-03    0.20E-06
   0     10    11.539    14.357    0.18E-04    0.12E-05    0.14E-07
   0     10    11.539    43.282    0.39E-04    0.17E-04    0.23E-06
   1     10    11.539     5.514    0.99E-05    0.13E-04    0.19E-07
   1     10    11.539     7.697    0.38E-04    0.79E-04    0.91E-07
 Optimization of the real space projectors (new method)

[...]

   l    n(q)    QCUT    max X(q) W(low)/X(q) W(high)/X(q)  e(spline)
   0      9    11.539     8.651    0.22E-04    0.16E-04    0.10E-07
   0      9    11.539    33.192    0.11E-03    0.16E-03    0.65E-07
   1      8    11.539     5.899    0.37E-04    0.28E-04    0.43E-07
   1      8    11.539    27.289    0.22E-03    0.28E-04    0.14E-06
   2      8    11.539     4.673    0.11E-03    0.18E-03    0.58E-07
 Optimization of the real space projectors (new method)

 maximal supplied QI-value         = 17.95
 optimisation between [QCUT,QGAM] = [ 11.67, 23.34] = [ 38.13,152.52] Ry
 Optimized for a Real-space Cutoff    1.25 Angstroem

   l    n(q)    QCUT    max X(q) W(low)/X(q) W(high)/X(q)  e(spline)
   0      9    11.669     6.499    0.13E-04    0.81E-05    0.11E-07
   0      9    11.669    52.623    0.18E-03    0.46E-04    0.72E-07
   1      8    11.669     4.229    0.40E-04    0.45E-04    0.31E-07
   1      8    11.669    29.991    0.22E-03    0.36E-03    0.10E-06
   2      8    11.669     3.719    0.19E-03    0.46E-04    0.50E-07

 PAW_PBE Ni 06Sep2000                   :
  PAW_PBE P 17Jan2003                   :
 PAW_PBE Ge 05Jan2001                   :
 PAW_PBE Se 06Sep2000                   :

 POSCAR: Ni2 P Ge Se6
  positions in direct lattice
  velocities in cartesian coordinates
 exchange correlation table for  LEXCH =       42
   RHO(1)=    0.500       N(1)  =     2000
   RHO(2)=  100.500       N(2)  =     4000

 ion  position               nearest neighbor table
   1  0.333  0.333  0.500-   6 2.78   5 2.78   7 2.78   8 2.78  10 2.78   9 2.78
   2  0.667  0.667  0.500-   9 2.78   8 2.78  10 2.78   5 2.78   7 2.78   6 2.78
   3  0.000  0.000  0.448-   4 2.43   8 2.63  10 2.63   9 2.63
   4  0.000  0.000  0.552-   3 2.43   5 2.63   7 2.63   6 2.63
   5  0.626  0.000  0.574-   4 2.63   1 2.78   2 2.78
   6  0.000  0.373  0.574-   4 2.63   1 2.78   2 2.78
   7  0.373  0.626  0.574-   4 2.63   1 2.78   2 2.78
   8  0.374  1.000  0.426-   3 2.63   2 2.78   1 2.78
   9  1.000  0.627  0.426-   3 2.63   2 2.78   1 2.78
  10  0.627  0.374  0.426-   3 2.63   2 2.78   1 2.78

  LATTYP: Found a hexagonal cell.
 ALAT       =     6.9077769333
 C/A-ratio  =     3.3939410937

  Lattice vectors:

 A1 = (   3.4538890000,  -5.9823100000,   0.0000000000)
 A2 = (  -6.9077770000,   0.0000000000,   0.0000000000)
 A3 = (   0.0000000000,   0.0000000000, -23.4445880000)

Analysis of symmetry for initial positions (statically):
 Subroutine PRICEL returns:
 Original cell was already a primitive cell.

 Routine SETGRP: Setting up the symmetry group for a
 hexagonal supercell.

 Subroutine GETGRP returns: Found  3 space group operations
 (whereof  3 operations were pure point group operations)
 out of a pool of 24 trial point group operations.

The static configuration has the point symmetry C_3 .

Analysis of symmetry for dynamics (positions and initial velocities):
 Subroutine PRICEL returns:
 Original cell was already a primitive cell.

[...]

The dynamic configuration has the point symmetry C_3 .

Analysis of constrained symmetry for selective dynamics:
 Subroutine PRICEL returns:
 Original cell was already a primitive cell.

[...]

The constrained configuration has the point symmetry C_3 .

Analysis of structural, dynamic, and magnetic symmetry:
 Subroutine PRICEL returns:
 Original cell was already a primitive cell.

 Routine SETGRP: Setting up the symmetry group for a
 hexagonal supercell.

 Subroutine GETGRP returns: Found  3 space group operations
 (whereof  3 operations were pure point group operations)
 out of a pool of 24 trial point group operations.

The magnetic configuration has the point symmetry C_3 .

 Subroutine INISYM returns: Found  3 space group operations
 (whereof  3 operations are pure point group operations),
 and found     1 'primitive' translations

 KPOINTS: Kpoints from vasprun.xml

Automatic generation of k-mesh.
Space group operators:
 irot       det(A)        alpha          n_x          n_y          n_z        tau_x        tau_y        tau_z
    1     1.000000     0.000000     1.000000     0.000000     0.000000     0.000000     0.000000     0.000000
    2     1.000000   120.000000     0.000000     0.000000     1.000000     0.000000     0.000000     0.000000
    3     1.000000   120.000000     0.000000     0.000000    -1.000000     0.000000     0.000000     0.000000

 Subroutine IBZKPT returns following result:

 Found      5 irreducible k-points:

 Following reciprocal coordinates:
            Coordinates               Weight
  0.000000  0.000000  0.000000      1.000000
  0.200000  0.000000  0.000000      6.000000
  0.400000  0.000000  0.000000      6.000000
  0.400000  0.200000  0.000000      6.000000
 -0.400000  0.200000  0.000000      6.000000

 Following cartesian coordinates:
            Coordinates               Weight
  0.000000  0.000000  0.000000      1.000000
  0.028953 -0.016716  0.000000      6.000000
  0.057906 -0.033432  0.000000      6.000000
  0.057906  0.000000  0.000000      6.000000
 -0.057906  0.066864  0.000000      6.000000

 TETIRR: Found     15 inequivalent tetrahedra from      150

 SYSTEM =  unknown system
 POSCAR =  Ni2 P Ge Se6

 Startparameter for this run:
   NWRITE =      2    write-flag & timer
   PREC   = accura    normal or accurate (medium, high low for compatibility)
   ISTART =      0    job   : 0-new  1-cont  2-samecut
   ICHARG =      2    charge: 1-file 2-atom 10-const
   ISPIN  =      2    spin polarized calculation?
   LNONCOLLINEAR =      F non collinear calculations
   LSORBIT =      F    spin-orbit coupling
   INIWAV =      1    electr: 0-lowe 1-rand  2-diag
   LASPH  =      F    aspherical Exc in radial PAW
   METAGGA=      F    non-selfconsistent MetaGGA calc.

 Electronic Relaxation 1
   ENCUT  =  520.0 eV  38.22 Ry    6.18 a.u.  12.84 12.84 43.59*2*pi/ulx,y,z
   ENINI  =  520.0     initial cutoff
   ENAUG  =  544.6 eV  augmentation charge cutoff
   NELM   =    400;   NELMIN=  2; NELMDL=  0     # of ELM steps
   EDIFF  = 0.1E-03   stopping-criterion for ELM
   LREAL  =      T    real-space projection
   NLSPLINE    = F    spline interpolate recip. space projectors
   LCOMPAT=      F    compatible to vasp.4.4
   GGA_COMPAT  = T    GGA compatible to vasp.4.4-vasp.4.6
   LMAXPAW     = -100 max onsite density
   LMAXMIX     =    2 max onsite mixed and CHGCAR
   VOSKOWN=      0    Vosko Wilk Nusair interpolation
   ROPT   =   -0.00025  -0.00025  -0.00025  -0.00025
 Ionic relaxation
   EDIFFG = 0.1E-02   stopping-criterion for IOM
   NSW    =     99    number of steps for IOM
   NBLOCK =      1;   KBLOCK =     99    inner block; outer block
   IBRION =      2    ionic relax: 0-MD 1-quasi-New 2-CG
   NFREE  =      1    steps in history (QN), initial steepest desc. (CG)
   ISIF   =      3    stress and relaxation
   IWAVPR =     11    prediction:  0-non 1-charg 2-wave 3-comb
   ISYM   =      2    0-nonsym 1-usesym 2-fastsym
   LCORR  =      T    Harris-Foulkes like correction to forces

   POTIM  = 0.5000    time-step for ionic-motion
   TEIN   =    0.0    initial temperature
   TEBEG  =    0.0;   TEEND  =   0.0 temperature during run
   SMASS  =  -3.00    Nose mass-parameter (am)
   estimated Nose-frequenzy (Omega)   =  0.10E-29 period in steps =****** mass=  -0.109E-26a.u.
   SCALEE = 1.0000    scale energy and forces
   NPACO  =    256;   APACO  = 16.0  distance and # of slots for P.C.
   PSTRESS=    0.0 pullay stress

  Mass of Ions in am
   POMASS =  58.69 30.97 72.61 78.96
  Ionic Valenz
   ZVAL   =  10.00  5.00  4.00  6.00
  Atomic Wigner-Seitz radii
  virtual crystal weights
   VCA    =   1.00  1.00  1.00  1.00
   NELECT =      65.0000    total number of electrons
   NUPDOWN=      -1.0000    fix difference up-down

 DOS related values:
   EMIN   =  10.00;   EMAX   =-10.00  energy-range for DOS
   EFERMI =   0.00
   ISMEAR =    -5;   SIGMA  =   0.05  broadening in eV -4-tet -1-fermi 0-gaus

 Electronic relaxation 2 (details)
   IALGO  =     38    algorithm
   LDIAG  =      T    sub-space diagonalisation (order eigenvalues)
   LSUBROT=      F    optimize rotation matrix (better conditioning)
   TURBO    =      0    0=normal 1=particle mesh
   IRESTART =      0    0=no restart 2=restart with 2 vectors
   NREBOOT  =      0    no. of reboots
   NMIN     =      0    reboot dimension
   EREF     =   0.00    reference energy to select bands
   IMIX   =      4    mixing-type and parameters
     AMIX     =   0.40;   BMIX     =  1.00
     AMIX_MAG =   1.60;   BMIX_MAG =  1.00
     AMIN     =   0.01
     WC   =   100.;   INIMIX=   1;  MIXPRE=   1;  MAXMIX= -45

 Intra band minimization:
   WEIMIN = 0.0010     energy-eigenvalue tresh-hold
[...]
    2        0.304   0.232   8.245   8.781
    3        1.103   1.204   0.000   2.308
    4        1.176   0.934   0.065   2.176
    5        1.497   2.153   0.017   3.668
    6        1.493   2.166   0.017   3.676
    7        1.496   2.158   0.017   3.671
    8        1.503   2.132   0.018   3.653
    9        1.499   2.112   0.018   3.629
   10        1.502   2.126   0.018   3.647
tot         11.879  15.450  16.662  43.991

 magnetization (x)

[...]

  FORCE on cell =-STRESS in cart. coord.  units (eV):
  Direction    XX          YY          ZZ          XY          YZ          ZX
  Alpha Z    41.46199    41.46199    41.46199
  Ewald   10336.73094 10336.72865-12334.57977    -0.00203    -0.00054    -0.00098
  Hartree 11204.16534 11204.16643-10496.66890    -0.00044     0.00009     0.00014
  E(xc)    -271.77078  -271.77092  -271.83266     0.00014    -0.00002     0.00002
  Local  -22267.96703-22267.96685 22069.05839     0.00226     0.00030     0.00059
  n-local   241.98924   242.78206   251.79651     0.31147    -0.08724    -0.19830
  augment    70.01967    70.01974    65.78048     0.00006     0.00003     0.00002
  Kinetic   624.73001   620.35050   662.53630    -2.52188    -0.61012    -0.73223
  Fock        0.00000     0.00000     0.00000     0.00000     0.00000     0.00000
  Total     -22.43452   -22.43452   -12.44766     0.00000     0.00000     0.00000
  in kB     -37.10031   -37.10031   -20.58489     0.00000     0.00000     0.00000

 VOLUME and BASIS-vectors are now :
  energy-cutoff  :      520.00
  volume of cell :      968.84
      direct lattice vectors                 reciprocal lattice vectors
     6.907777000 -0.000000000  0.000000000     0.144764372 -0.083579742  0.000000000
     3.453888000  5.982310000  0.000000000     0.000000000  0.167159509 -0.000000000
     0.000000000  0.000000000 23.444588000    -0.000000000  0.000000000  0.042653767

[...]

 FORCES acting on ions
    electron-ion (+dipol)            ewald-force                    non-local-force                 convergence-correction
   0.232E-03 0.140E-03 -.733E+01   0.658E-03 0.396E-03 0.773E+01   0.208E-16 0.000E+00 -.341E+00   0.615E-05 0.350E-05 -.368E-03
   -.245E-03 -.100E-03 -.974E+01   -.658E-03 -.396E-03 0.101E+02   0.694E-17 0.139E-16 -.339E+00   -.616E-05 -.359E-05 -.346E-03
   -.373E-04 -.377E-04 0.235E+03   -.176E-03 -.974E-04 -.233E+03   0.000E+00 -.694E-17 -.274E+01   -.887E-06 -.498E-06 0.245E-02
   0.672E-04 -.412E-04 -.199E+03   0.141E-03 0.779E-04 0.199E+03   0.000E+00 0.000E+00 0.676E+00   0.602E-06 0.318E-06 0.147E-02
   -.233E+02 0.157E+00 -.433E+03   0.219E+02 -.154E+00 0.435E+03   0.193E+01 -.739E-02 -.266E+01   0.323E-02 -.168E-02 0.259E-02
   0.118E+02 0.201E+02 -.433E+03   -.111E+02 -.189E+02 0.435E+03   -.970E+00 -.167E+01 -.266E+01   -.307E-02 -.196E-02 0.259E-02
   0.115E+02 -.202E+02 -.433E+03   -.108E+02 0.191E+02 0.435E+03   -.957E+00 0.167E+01 -.266E+01   -.161E-03 0.363E-02 0.258E-02
   0.164E+02 -.147E+00 0.428E+03   -.153E+02 0.146E+00 -.429E+03   -.200E+01 0.621E-02 0.254E+01   -.326E-03 -.168E-02 -.217E-02
   -.831E+01 -.141E+02 0.428E+03   0.778E+01 0.132E+02 -.429E+03   0.100E+01 0.172E+01 0.254E+01   -.129E-02 0.113E-02 -.217E-02
   -.805E+01 0.142E+02 0.428E+03   0.752E+01 -.133E+02 -.429E+03   0.992E+00 -.173E+01 0.254E+01   0.162E-02 0.560E-03 -.217E-02
   0.449E-04 -.145E-03 0.311E+01   -.444E-14 0.711E-14 -.568E-13   0.555E-15 -.222E-15 -.311E+01   -.327E-06 -.276E-06 0.445E-02

 POSITION                                       TOTAL-FORCE (eV/Angst)
      3.45388      1.99410     11.72054         0.000000     -0.000000      0.052690
      6.90778      3.98821     11.72405         0.000000     -0.000000      0.036583
      0.00000      0.00000     10.50824         0.000000     -0.000000     -0.463256
      0.00000      0.00000     12.93635         0.000000     -0.000000      0.205840
      4.32819      0.00251     13.45138         0.559032     -0.005223     -1.248763
      1.29198      2.23274     13.45138        -0.284039     -0.481525     -1.248763
      4.74152      3.74706     13.45138        -0.274993      0.486747     -1.248763
      6.03348      5.97980      9.99321        -0.935392      0.003128      1.304811
      9.06969      3.74957      9.99321         0.470405      0.808510      1.304811
      5.62015      2.23525      9.99321         0.464988     -0.811637      1.304811
    total drift:                                0.000045     -0.000145     -0.000967

  FREE ENERGIE OF THE ION-ELECTRON SYSTEM (eV)
  free  energy   TOTEN  =       -33.75172587 eV

  energy  without entropy=      -33.75172587  energy(sigma->0) =      -33.75172587

[...]

 d Force = 0.2918821E+00[-0.232E-01, 0.607E+00]  d Energy = 0.3374620E+01-0.308E+01
 d Force =-0.1608858E+03[-0.180E+03,-0.142E+03]  d Ewald  =-0.1938420E+04 0.178E+04

 Steepest descent step on ions:
 trial-energy change:   -3.374620  1 .order   -2.781139   -6.258184    0.695907
  (g-gl).g = 0.626E+01      g.g   = 0.626E+01  gl.gl    = 0.000E+00
 g(Force)  = 0.655E+00   g(Stress)= 0.560E+01 ortho     = 0.000E+00
 gamma     =   0.00000
 trial     =   1.00000
 opt step  =   0.93226  (harmonic =   0.89993) maximal distance =0.05868371
 next E    =   -37.149730   (d E  =  -3.39800)

[...]

 d Force =-0.1023554E-02[-0.395E-02, 0.190E-02]  d Energy = 0.3397244E-01-0.350E-01
 d Force = 0.1291207E+02[ 0.128E+02, 0.130E+02]  d Ewald  = 0.1531398E+03-0.140E+03

[...]

 d Force =-0.1905855E-02[-0.203E-02,-0.178E-02]  d Energy = 0.5106682E-01-0.530E-01
 d Force = 0.5742676E+01[ 0.572E+01, 0.576E+01]  d Ewald  = 0.6795155E+02-0.622E+02

[...]

 d Force = 0.7484298E-03[ 0.650E-03, 0.847E-03]  d Energy = 0.2253008E-02-0.150E-02
 d Force =-0.2388099E+01[-0.239E+01,-0.238E+01]  d Ewald  =-0.2830779E+02 0.259E+02

[...]

 d Force = 0.7267488E-01[ 0.451E-01, 0.100E+00]  d Energy = 0.7187913E-01 0.796E-03
 d Force =-0.1804438E+02[-0.181E+02,-0.180E+02]  d Ewald  = 0.1449401E+02-0.325E+02

 Conjugate gradient step on ions:
 trial-energy change:   -0.071879  1 .order   -0.074116   -0.101668   -0.046563
  (g-gl).g = 0.390E-01      g.g   = 0.103E+00  gl.gl    = 0.626E+01
 g(Force)  = 0.102E+00   g(Stress)= 0.126E-02 ortho     = 0.641E-01
 gamma     =   0.00623
 trial     =   0.98289
 opt step  =   1.81344  (harmonic =   1.81344) maximal distance =0.05133606
 next E    =   -37.307427   (d E  =  -0.09379)

[...]

 d Force = 0.2563622E-03[ 0.155E-03, 0.358E-03]  d Energy = 0.7222875E-03-0.466E-03
 d Force =-0.2205379E+01[-0.220E+01,-0.221E+01]  d Ewald  = 0.1387973E+02-0.161E+02

[...]

 Conjugate gradient step on ions:
 trial-energy change:   -0.002059  1 .order   -0.001561   -0.001646   -0.001475
  (g-gl).g = 0.171E-02      g.g   = 0.141E-02  gl.gl    = 0.814E-02
 g(Force)  = 0.112E-02   g(Stress)= 0.295E-03 ortho     =-0.160E-03
 gamma     =   0.21056
 trial     =   1.19556
 opt step  =   4.78223  (harmonic =  11.49870) maximal distance =0.00905694
 next E    =   -37.318208   (d E  =  -0.00792)

[...]

 eigenvalue-minimisations  :  1152
 total energy-change (2. order) : 0.8732917E-03  (-0.2886525E-03)
 number of electron      64.9999989 magnetization       0.0195330
 augmentation part        4.4492880 magnetization       0.0070270

[...]

 eigenvalues of (default mixing * dielectric matrix)
  average eigenvalue GAMMA=   0.7916
  2.0752  0.6849  0.2717  0.1344

[...]

 d Force = 0.4435680E-03[ 0.206E-03, 0.681E-03]  d Energy = 0.4681768E-03-0.246E-04
 d Force =-0.3804107E-01[-0.368E-01,-0.393E-01]  d Ewald  =-0.3330861E+02 0.333E+02

 Conjugate gradient step on ions:
 trial-energy change:   -0.000468  1 .order   -0.000860   -0.001756    0.000037
  (g-gl).g = 0.541E-04      g.g   = 0.186E-02  gl.gl    = 0.122E-01
 g(Force)  = 0.717E-03   g(Stress)= 0.115E-02 ortho     = 0.422E-02
 gamma     =   0.00445
 trial     =   0.93281
 opt step  =   0.91348  (harmonic =   0.91348) maximal distance =0.00106530
 next E    =   -37.359402   (d E  =  -0.00086)

[...]

 Broyden mixing:
  rms(total) = 0.22800E-02    rms(broyden)= 0.22797E-02
  rms(prec ) = 0.30156E-02
  weight for this iteration     100.00

[...]

--------------------------------------- Iteration     26(   2)  ---------------------------------------

[...]

 eigenvalue-minimisations  :   864
 total energy-change (2. order) :-0.2056420E-04  (-0.9674059E-05)
 number of electron      64.9999989 magnetization       0.0191133
 augmentation part        4.4402245 magnetization       0.0105095

 Free energy of the ion-electron system (eV)
  alpha Z        PSCENC =        52.30980912
  Ewald energy   TEWEN  =     10820.42803152
  -Hartree energ DENC   =    -14415.93583158
  -exchange      EXHF   =         0.00000000
  -V(xc)+E(xc)   XCENC  =        49.79035537
  PAW double counting   =      2599.74635510    -2625.23471718
  entropy T*S    EENTRO =         0.00000000
  eigenvalues    EBANDS =      -515.11125082
  atomic energy  EATOM  =      3996.64816900
  Solvation  Ediel_sol  =         0.00000000
  free energy    TOTEN  =       -37.35907947 eV

  energy without entropy =      -37.35907947  energy(sigma->0) =      -37.35907947

 average (electrostatic) potential at core
  the test charge radii are     0.9791  0.9587  1.1631  1.0808
  (the norm of the test charge is              1.0000)
       1 -50.0502       2 -50.0414       3 -92.9990       4 -39.9842       5 -61.5171
       6 -61.5171       7 -61.5171       8 -61.6396       9 -61.6395      10 -61.6395

 E-fermi :  -2.6516     XC(G=0):  -3.6764     alpha+bet : -2.5749

[...]

 spin component 2

[...]

 k-point     5 :      -0.4000    0.2000    0.0000
  band No.  band energies     occupation
      1     -17.5094      1.00000
      2     -16.5546      1.00000
      3     -16.2695      1.00000
      4     -16.0645      1.00000
      5     -15.9521      1.00000
      6     -15.7465      1.00000
      7     -12.5960      1.00000
      8     -10.7598      1.00000
      9      -8.4650      1.00000
     10      -7.9993      1.00000
     11      -7.8172      1.00000
     12      -7.2544      1.00000
     13      -7.2107      1.00000
     14      -6.6677      1.00000
     15      -6.4128      1.00000
     16      -6.2346      1.00000
     17      -6.1293      1.00000
     18      -6.0354      1.00000
     19      -5.8694      1.00000
     20      -5.6499      1.00000
     21      -5.5109      1.00000
     22      -5.0141      1.00000
     23      -4.8122      1.00000
     24      -4.6805      1.00000
     25      -4.5328      1.00000
     26      -4.4481      1.00000
     27      -4.3284      1.00000
     28      -4.2262      1.00000
     29      -4.0906      1.00000
     30      -4.0357      1.00000
     31      -3.9551      1.00000
     32      -2.9534      1.00000
     33      -2.7895      1.02541
     34      -2.4215      0.00000
     35      -2.0308      0.00000
     36      -1.8204      0.00000
     37      -1.1255      0.00000
     38      -0.2056      0.00000
     39       0.1751      0.00000
     40       0.7090      0.00000
     41       0.9140      0.00000
     42       0.9335      0.00000
     43       2.3211      0.00000
     44       2.4024      0.00000
     45       2.4766      0.00000
     46       2.6256      0.00000
     47       2.7145      0.00000
     48       3.2938      0.00000

[...]

 soft charge-density along one line, spin component           2
         0         1         2         3         4         5         6         7         8         9
 total charge-density along one line

------------------------ aborting loop because EDIFF is reached ----------------------------------------

[...]

  FORCE on cell =-STRESS in cart. coord.  units (eV):
  Direction    XX          YY          ZZ          XY          YZ          ZX
  Alpha Z    52.30981    52.30981    52.30981
  Ewald   13043.96365 13043.96105-15267.49880    -0.00229    -0.00061    -0.00110
  Hartree 13796.38147 13796.38260-13172.36563    -0.00046     0.00008     0.00013
  E(xc)    -277.67890  -277.67893  -277.60321     0.00005     0.00000     0.00001
  Local  -27587.52849-27587.52834 27655.48376     0.00237     0.00033     0.00062
  n-local   256.00022   257.05380   259.82068     0.42180     0.41653     0.39881
  augment    70.58510    70.58529    66.40662    -0.00004     0.00014     0.00004
  Kinetic   650.51476   641.32065   684.05631    -5.15653    -1.20875    -1.18337
  Fock        0.00000     0.00000     0.00000     0.00000     0.00000     0.00000
  Total       0.47679     0.47679     0.60955    -0.00000     0.00000     0.00000
  in kB       0.99476     0.99476     1.27176    -0.00000     0.00000     0.00000

 VOLUME and BASIS-vectors are now :
  energy-cutoff  :      520.00
  volume of cell :      767.92
      direct lattice vectors                 reciprocal lattice vectors
     6.226999082 -0.000000675 -0.000000000     0.160590988 -0.092717268  0.000000000
     3.113499774  5.392738799 -0.000000000     0.000000020  0.185434521  0.000000000
    -0.000000000 -0.000000000 22.868021087     0.000000000  0.000000000  0.043729188

  length of vectors
     6.226999082  6.226998683 22.868021087     0.185434509  0.185434521  0.043729188

 FORCES acting on ions
    electron-ion (+dipol)            ewald-force                    non-local-force                 convergence-correction
   -.401E-04 -.446E-04 0.191E+02   0.793E-03 0.474E-03 -.189E+02   0.293E-16 -.263E-16 -.189E+00   0.101E-06 -.196E-07 0.337E-01
   -.916E-05 0.132E-04 0.254E+02   -.847E-03 -.505E-03 -.253E+02   0.109E-17 -.267E-16 -.136E+00   0.253E-06 0.650E-07 0.326E-01
   -.231E-04 -.266E-04 0.260E+03   -.214E-03 -.119E-03 -.255E+03   0.123E-15 0.122E-15 -.490E+01   -.150E-06 -.854E-07 -.258E-01
   0.772E-04 0.240E-04 -.296E+03   0.191E-03 0.107E-03 0.296E+03   -.104E-16 -.103E-16 0.429E+00   -.645E-07 -.386E-07 0.453E-01
   -.292E+02 0.184E+00 -.538E+03   0.275E+02 -.195E+00 0.540E+03   0.168E+01 0.164E-01 -.183E+01   0.183E-01 -.568E-03 0.963E-01
   0.147E+02 0.252E+02 -.538E+03   -.139E+02 -.237E+02 0.540E+03   -.824E+00 -.146E+01 -.183E+01   -.964E-02 -.156E-01 0.963E-01
   0.144E+02 -.254E+02 -.538E+03   -.136E+02 0.239E+02 0.540E+03   -.853E+00 0.144E+01 -.183E+01   -.865E-02 0.161E-01 0.963E-01
   0.158E+02 0.286E+00 0.536E+03   -.141E+02 -.282E+00 -.538E+03   -.169E+01 -.162E-01 0.212E+01   -.219E-01 -.332E-03 -.726E-01
   -.767E+01 -.139E+02 0.536E+03   0.682E+01 0.124E+02 -.538E+03   0.831E+00 0.147E+01 0.212E+01   0.107E-01 0.192E-01 -.726E-01
   -.816E+01 0.136E+02 0.536E+03   0.730E+01 -.121E+02 -.538E+03   0.859E+00 -.145E+01 0.212E+01   0.113E-01 -.188E-01 -.726E-01
   -.176E-03 0.583E-05 0.380E+01   -.888E-15 0.178E-14 0.000E+00   0.555E-15 0.222E-15 -.392E+01   0.190E-06 -.497E-07 0.157E+00

 POSITION                                       TOTAL-FORCE (eV/Angst)
      3.11350      1.79758     11.22358        -0.000000     -0.000000      0.033538
      6.22700      3.59516     11.21458        -0.000000     -0.000000      0.029931
     -0.00000     -0.00000     10.23292         0.000000      0.000000     -0.008410
     -0.00000     -0.00000     12.61821        -0.000000     -0.000000      0.043302
      3.79996     -0.00245     12.77897        -0.013861      0.005307     -0.034892
      1.21140      2.10310     12.77897         0.011527      0.009350     -0.034892
      4.32914      3.29208     12.77897         0.002334     -0.014657     -0.034892
      2.20649      0.00538      9.68510         0.005364     -0.013483      0.002105
      2.01492      3.47917      9.68510        -0.014359      0.002096      0.002105
      5.11909      1.90818      9.68510         0.008995      0.011387      0.002105
    total drift:                               -0.000176      0.000006      0.035338

  FREE ENERGIE OF THE ION-ELECTRON SYSTEM (eV)
  free  energy   TOTEN  =       -37.35907947 eV

  energy  without entropy=      -37.35907947  energy(sigma->0) =      -37.35907947

 d Force =-0.4803515E-05[-0.534E-05,-0.426E-05]  d Energy = 0.6882756E-04-0.736E-04
 d Force = 0.7634195E-03[ 0.764E-03, 0.763E-03]  d Ewald  = 0.6899648E+00-0.689E+00

 reached required accuracy - stopping structural energy minimisation

 total charge

[...]

 magnetization (x)

# of ion       s       p       d       tot
    1       -0.001   0.001  -0.543  -0.543
    2        0.001  -0.001   0.555   0.554
    3        0.000   0.000   0.000   0.000
    4       -0.000   0.000   0.000  -0.000
    5        0.001   0.001  -0.000   0.002
    6        0.000  -0.003  -0.000  -0.003
    7       -0.001   0.004   0.000   0.004
    8       -0.001   0.004   0.000   0.003
    9        0.000   0.003   0.000   0.003
   10        0.001  -0.006  -0.000  -0.006
tot          0.000   0.004   0.012   0.015

 BZINTS: Fermi energy: -2.651623; 65.000000 electrons
         Band energy:-515.111251;  BLOECHL correction: -0.023073