 vasp.5.4.4.18Apr17-6-g9f103f2a35 (build May  1 2020 15:48:39) complex
 executed on             LinuxGNU date 2020.06.27  20:48:54

 INCAR:
 POTCAR:   PAW_PBE Co 06Sep2000
 POTCAR:   PAW_PBE Ge 05Jan2001
 POTCAR:    PAW_PBE P 17Jan2003
 POTCAR:   PAW_PBE Te 08Apr2002

 POTCAR:   PAW_PBE Co 06Sep2000
   VRHFIN =Co: d8 s1

   TITEL  = PAW_PBE Co 06Sep2000
   POMASS =   58.933; ZVAL   =    9.000    mass and valenz
   ENMAX  =  267.969; ENMIN  =  200.977 eV
   QCUT   =   -4.438; QGAM   =    8.876    optimization parameters

   Description
     l     E      TYP  RCUT    TYP  RCUT
     2   .000     23  2.300
     2   .000     23  2.300
     0   .000     23  2.300
     0   .000     23  2.300
     1  -.200     23  2.300
     1   .000     23  2.300
     3   .000      7   .000

 POTCAR:   PAW_PBE Ge 05Jan2001
   VRHFIN =Ge: s2p2

   TITEL  = PAW_PBE Ge 05Jan2001
   POMASS =   72.610; ZVAL   =    4.000    mass and valenz
   ENMAX  =  173.807; ENMIN  =  130.355 eV
   QCUT   =   -3.574; QGAM   =    7.148    optimization parameters

[...]

 POTCAR:    PAW_PBE P 17Jan2003
   VRHFIN =P : s2p3

   TITEL  = PAW_PBE P 17Jan2003
   POMASS =   30.974; ZVAL   =    5.000    mass and valenz
   ENMAX  =  270.000; ENMIN  =  191.280 eV
   QCUT   =   -4.330; QGAM   =    8.659    optimization parameters

[...]

 POTCAR:   PAW_PBE Te 08Apr2002
   VRHFIN =Te: s2p4

   TITEL  = PAW_PBE Te 08Apr2002
   POMASS =  127.600; ZVAL   =    6.000    mass and valenz
   ENMAX  =  174.982; ENMIN  =  131.236 eV
   QCUT   =   -3.586; QGAM   =    7.172    optimization parameters

   Description
     l     E      TYP  RCUT    TYP  RCUT
     0   .000     23  2.300
     0   .000     23  2.300
     1   .000     23  2.300
     1   .000     23  2.300
     2   .000     23  2.300
     3  -.100     23  2.300

 Optimization of the real space projectors (new method)

 maximal supplied QI-value         = 16.25
 optimisation between [QCUT,QGAM] = [ 11.54, 23.24] = [ 37.28,151.24] Ry
 Optimized for a Real-space Cutoff    1.53 Angstroem

   l    n(q)    QCUT    max X(q) W(low)/X(q) W(high)/X(q)  e(spline)
   2     10    11.539     4.599    0.83E-05    0.15E-04    0.45E-07
   2     10    11.539    18.158    0.10E-03    0.14E-03    0.24E-06
   0     11    11.539    15.740    0.19E-04    0.12E-05    0.17E-07
   0     11    11.539    47.662    0.48E-04    0.15E-04    0.31E-06
   1     10    11.539     5.777    0.11E-04    0.46E-05    0.25E-07
   1     10    11.539     8.007    0.46E-04    0.29E-04    0.11E-06
 Optimization of the real space projectors (new method)

[...]

   l    n(q)    QCUT    max X(q) W(low)/X(q) W(high)/X(q)  e(spline)
   0      8    11.508     6.651    0.19E-04    0.31E-05    0.49E-08
   0      8    11.508    90.285    0.95E-04    0.17E-03    0.51E-07
   1      8    11.508     4.328    0.14E-04    0.32E-04    0.22E-07
   1      8    11.508    54.583    0.16E-03    0.71E-04    0.89E-07
 Optimization of the real space projectors (new method)

 maximal supplied QI-value         = 16.25
 optimisation between [QCUT,QGAM] = [ 11.54, 23.24] = [ 37.28,151.24] Ry
 Optimized for a Real-space Cutoff    1.36 Angstroem

   l    n(q)    QCUT    max X(q) W(low)/X(q) W(high)/X(q)  e(spline)
   0      9    11.539     7.090    0.13E-04    0.25E-05    0.51E-08
   0      9    11.539   101.654    0.53E-04    0.69E-04    0.12E-06
   1      9    11.539     5.276    0.20E-04    0.98E-05    0.24E-07
   1      9    11.539    81.891    0.24E-03    0.13E-04    0.15E-06
   2      9    11.539     5.599    0.30E-04    0.97E-04    0.54E-07

 PAW_PBE Co 06Sep2000                   :
 PAW_PBE Ge 05Jan2001                   :
  PAW_PBE P 17Jan2003                   :
 PAW_PBE Te 08Apr2002                   :

 POSCAR: Co2 Ge P Te6
  positions in direct lattice
  velocities in cartesian coordinates
 exchange correlation table for  LEXCH =       42
   RHO(1)=    0.500       N(1)  =     2000
   RHO(2)=  100.500       N(2)  =     4000

 ion  position               nearest neighbor table
   1  0.333  0.333  0.500-   6 2.78   5 2.78   7 2.78   8 2.78  10 2.78   9 2.78
   2  0.667  0.667  0.500-   9 2.78   8 2.78  10 2.78   5 2.78   7 2.78   6 2.78
   3  0.000  0.000  0.448-   4 2.43   8 2.63  10 2.63   9 2.63
   4  0.000  0.000  0.552-   3 2.43   5 2.63   7 2.63   6 2.63
   5  0.626  0.000  0.574-   4 2.63   1 2.78   2 2.78
   6  0.000  0.373  0.574-   4 2.63   1 2.78   2 2.78
   7  0.373  0.626  0.574-   4 2.63   1 2.78   2 2.78
   8  0.374  1.000  0.426-   3 2.63   2 2.78   1 2.78
   9  1.000  0.627  0.426-   3 2.63   2 2.78   1 2.78
  10  0.627  0.374  0.426-   3 2.63   2 2.78   1 2.78

  LATTYP: Found a hexagonal cell.
 ALAT       =     6.9077769333
 C/A-ratio  =     3.3939410937

  Lattice vectors:

 A1 = (   3.4538890000,  -5.9823100000,   0.0000000000)
 A2 = (  -6.9077770000,   0.0000000000,   0.0000000000)
 A3 = (   0.0000000000,   0.0000000000, -23.4445880000)

Analysis of symmetry for initial positions (statically):
 Subroutine PRICEL returns:
 Original cell was already a primitive cell.

 Routine SETGRP: Setting up the symmetry group for a
 hexagonal supercell.

 Subroutine GETGRP returns: Found  3 space group operations
 (whereof  3 operations were pure point group operations)
 out of a pool of 24 trial point group operations.

The static configuration has the point symmetry C_3 .

Analysis of symmetry for dynamics (positions and initial velocities):
 Subroutine PRICEL returns:
 Original cell was already a primitive cell.

[...]

The dynamic configuration has the point symmetry C_3 .

Analysis of constrained symmetry for selective dynamics:
 Subroutine PRICEL returns:
 Original cell was already a primitive cell.

[...]

The constrained configuration has the point symmetry C_3 .

Analysis of structural, dynamic, and magnetic symmetry:
 Subroutine PRICEL returns:
 Original cell was already a primitive cell.

 Routine SETGRP: Setting up the symmetry group for a
 hexagonal supercell.

 Subroutine GETGRP returns: Found  3 space group operations
 (whereof  3 operations were pure point group operations)
 out of a pool of 24 trial point group operations.

The magnetic configuration has the point symmetry C_3 .

 Subroutine INISYM returns: Found  3 space group operations
 (whereof  3 operations are pure point group operations),
 and found     1 'primitive' translations

 KPOINTS: Kpoints from vasprun.xml

Automatic generation of k-mesh.
Space group operators:
 irot       det(A)        alpha          n_x          n_y          n_z        tau_x        tau_y        tau_z
    1     1.000000     0.000000     1.000000     0.000000     0.000000     0.000000     0.000000     0.000000
    2     1.000000   120.000000     0.000000     0.000000     1.000000     0.000000     0.000000     0.000000
    3     1.000000   120.000000     0.000000     0.000000    -1.000000     0.000000     0.000000     0.000000

 Subroutine IBZKPT returns following result:

 Found      5 irreducible k-points:

 Following reciprocal coordinates:
            Coordinates               Weight
  0.000000  0.000000  0.000000      1.000000
  0.200000  0.000000  0.000000      6.000000
  0.400000  0.000000  0.000000      6.000000
  0.400000  0.200000  0.000000      6.000000
 -0.400000  0.200000  0.000000      6.000000

 Following cartesian coordinates:
            Coordinates               Weight
  0.000000  0.000000  0.000000      1.000000
  0.028953 -0.016716  0.000000      6.000000
  0.057906 -0.033432  0.000000      6.000000
  0.057906  0.000000  0.000000      6.000000
 -0.057906  0.066864  0.000000      6.000000

 TETIRR: Found     15 inequivalent tetrahedra from      150

 SYSTEM =  unknown system
 POSCAR =  Co2 Ge P Te6

 Startparameter for this run:
   NWRITE =      2    write-flag & timer
   PREC   = accura    normal or accurate (medium, high low for compatibility)
   ISTART =      0    job   : 0-new  1-cont  2-samecut
   ICHARG =      2    charge: 1-file 2-atom 10-const
   ISPIN  =      2    spin polarized calculation?
   LNONCOLLINEAR =      F non collinear calculations
   LSORBIT =      F    spin-orbit coupling
   INIWAV =      1    electr: 0-lowe 1-rand  2-diag
   LASPH  =      F    aspherical Exc in radial PAW
   METAGGA=      F    non-selfconsistent MetaGGA calc.

 Electronic Relaxation 1
   ENCUT  =  520.0 eV  38.22 Ry    6.18 a.u.  12.84 12.84 43.59*2*pi/ulx,y,z
   ENINI  =  520.0     initial cutoff
   ENAUG  =  477.8 eV  augmentation charge cutoff
   NELM   =    400;   NELMIN=  2; NELMDL=  0     # of ELM steps
   EDIFF  = 0.1E-03   stopping-criterion for ELM
   LREAL  =      T    real-space projection
   NLSPLINE    = F    spline interpolate recip. space projectors
   LCOMPAT=      F    compatible to vasp.4.4
   GGA_COMPAT  = T    GGA compatible to vasp.4.4-vasp.4.6
   LMAXPAW     = -100 max onsite density
   LMAXMIX     =    2 max onsite mixed and CHGCAR
   VOSKOWN=      0    Vosko Wilk Nusair interpolation
   ROPT   =   -0.00025  -0.00025  -0.00025  -0.00025
 Ionic relaxation
   EDIFFG = 0.1E-02   stopping-criterion for IOM
   NSW    =     99    number of steps for IOM
   NBLOCK =      1;   KBLOCK =     99    inner block; outer block
   IBRION =      2    ionic relax: 0-MD 1-quasi-New 2-CG
   NFREE  =      1    steps in history (QN), initial steepest desc. (CG)
   ISIF   =      3    stress and relaxation
   IWAVPR =     11    prediction:  0-non 1-charg 2-wave 3-comb
   ISYM   =      2    0-nonsym 1-usesym 2-fastsym
   LCORR  =      T    Harris-Foulkes like correction to forces

   POTIM  = 0.5000    time-step for ionic-motion
   TEIN   =    0.0    initial temperature
   TEBEG  =    0.0;   TEEND  =   0.0 temperature during run
   SMASS  =  -3.00    Nose mass-parameter (am)
   estimated Nose-frequenzy (Omega)   =  0.10E-29 period in steps =****** mass=  -0.109E-26a.u.
   SCALEE = 1.0000    scale energy and forces
   NPACO  =    256;   APACO  = 16.0  distance and # of slots for P.C.
   PSTRESS=    0.0 pullay stress

  Mass of Ions in am
   POMASS =  58.93 72.61 30.97127.60
  Ionic Valenz
   ZVAL   =   9.00  4.00  5.00  6.00
  Atomic Wigner-Seitz radii
  virtual crystal weights
   VCA    =   1.00  1.00  1.00  1.00
   NELECT =      63.0000    total number of electrons
   NUPDOWN=      -1.0000    fix difference up-down

 DOS related values:
   EMIN   =  10.00;   EMAX   =-10.00  energy-range for DOS
   EFERMI =   0.00
   ISMEAR =    -5;   SIGMA  =   0.05  broadening in eV -4-tet -1-fermi 0-gaus

 Electronic relaxation 2 (details)
   IALGO  =     38    algorithm
   LDIAG  =      T    sub-space diagonalisation (order eigenvalues)
   LSUBROT=      F    optimize rotation matrix (better conditioning)
   TURBO    =      0    0=normal 1=particle mesh
   IRESTART =      0    0=no restart 2=restart with 2 vectors
   NREBOOT  =      0    no. of reboots
   NMIN     =      0    reboot dimension
   EREF     =   0.00    reference energy to select bands
   IMIX   =      4    mixing-type and parameters
     AMIX     =   0.40;   BMIX     =  1.00
     AMIX_MAG =   1.60;   BMIX_MAG =  1.00
     AMIN     =   0.01
     WC   =   100.;   INIMIX=   1;  MIXPRE=   1;  MAXMIX= -45

 Intra band minimization:
   WEIMIN = 0.0010     energy-eigenvalue tresh-hold
   EBREAK =  0.52E-06  absolut break condition
[...]
  E(xc)    -264.16256  -264.16262  -263.98727     0.00007     0.00002     0.00001
  Local  -20789.76591-20789.76528 20390.41625     0.00177     0.00033     0.00063
  n-local   660.52105   661.44668   675.62921     0.19431     0.37214     0.28591
  augment   -72.28065   -72.28042   -80.87286    -0.00005     0.00002     0.00005
  Kinetic   531.66474   524.66945   550.94342    -4.28559    -0.38270    -0.73384
  Fock        0.00000     0.00000     0.00000     0.00000     0.00000     0.00000
  Total      -8.52182    -8.52182   -12.04115     0.00000    -0.00000    -0.00000
  in kB     -14.09266   -14.09266   -19.91264     0.00000    -0.00000    -0.00000

 VOLUME and BASIS-vectors are now :
  energy-cutoff  :      520.00
  volume of cell :      968.84
      direct lattice vectors                 reciprocal lattice vectors
     6.907777000 -0.000000000  0.000000000     0.144764372 -0.083579742  0.000000000
     3.453888000  5.982310000  0.000000000     0.000000000  0.167159509 -0.000000000
     0.000000000  0.000000000 23.444588000    -0.000000000  0.000000000  0.042653767

[...]

 FORCES acting on ions
    electron-ion (+dipol)            ewald-force                    non-local-force                 convergence-correction
   0.178E-03 0.915E-04 0.890E+01   0.562E-03 0.337E-03 -.908E+01   -.694E-17 0.000E+00 0.224E+00   0.639E-08 0.215E-08 0.297E-01
   -.171E-03 -.916E-04 0.681E+01   -.562E-03 -.337E-03 -.698E+01   -.139E-16 0.000E+00 0.203E+00   -.174E-06 -.114E-06 0.335E-01
   -.387E-04 0.383E-05 0.192E+03   -.141E-03 -.779E-04 -.191E+03   0.000E+00 0.694E-17 0.211E+00   -.271E-07 -.143E-07 0.157E-01
   0.394E-04 0.173E-04 -.224E+03   0.176E-03 0.974E-04 0.224E+03   0.000E+00 0.000E+00 0.121E+00   0.233E-07 0.173E-07 0.153E-01
   -.134E+02 0.163E+00 -.405E+03   0.106E+02 -.146E+00 0.408E+03   0.260E+01 -.119E-01 -.504E+01   -.301E-02 -.117E-01 0.147E-01
   0.686E+01 0.116E+02 -.405E+03   -.542E+01 -.910E+01 0.408E+03   -.131E+01 -.225E+01 -.504E+01   -.867E-02 0.847E-02 0.147E-01
   0.658E+01 -.117E+02 -.405E+03   -.517E+01 0.925E+01 0.408E+03   -.129E+01 0.226E+01 -.504E+01   0.117E-01 0.327E-02 0.147E-01
   0.206E+02 -.145E+00 0.410E+03   -.172E+02 0.153E+00 -.414E+03   -.268E+01 0.844E-02 0.514E+01   0.287E-02 -.102E-01 0.277E-01
   -.104E+02 -.177E+02 0.410E+03   0.874E+01 0.148E+02 -.414E+03   0.135E+01 0.232E+01 0.514E+01   -.103E-01 0.261E-02 0.277E-01
   -.101E+02 0.179E+02 0.410E+03   0.847E+01 -.150E+02 -.414E+03   0.133E+01 -.233E+01 0.514E+01   0.739E-02 0.758E-02 0.277E-01
   0.110E-05 0.582E-04 -.127E+01   -.711E-14 0.178E-14 -.568E-13   0.000E+00 0.444E-15 0.105E+01   -.164E-06 -.104E-06 0.222E+00

 POSITION                                       TOTAL-FORCE (eV/Angst)
      3.45388      1.99410     11.72054         0.000000     -0.000000      0.075960
      6.90778      3.98821     11.72405         0.000000      0.000000      0.065661
      0.00000      0.00000     10.50824         0.000000      0.000000      0.403481
      0.00000      0.00000     12.93635         0.000000      0.000000      0.067930
      4.32819      0.00251     13.45138        -0.249259     -0.005354     -1.213327
      1.29198      2.23274     13.45138         0.119993      0.218542     -1.213327
      4.74152      3.74706     13.45138         0.129267     -0.213188     -1.213327
      6.03348      5.97980      9.99321         0.665675      0.005863      1.008983
      9.06969      3.74957      9.99321        -0.327760     -0.579423      1.008983
      5.62015      2.23525      9.99321        -0.337915      0.573560      1.008983
    total drift:                                0.000001      0.000058      0.001872

  FREE ENERGIE OF THE ION-ELECTRON SYSTEM (eV)
  free  energy   TOTEN  =       -35.59680286 eV

  energy  without entropy=      -35.59680286  energy(sigma->0) =      -35.59680286

[...]

 d Force = 0.1900398E-02[ 0.313E-02, 0.668E-03]  d Energy = 0.6389024E+00-0.637E+00
 d Force = 0.6699989E+00[ 0.700E+00, 0.640E+00]  d Ewald  =-0.1210373E+03 0.122E+03

 Steepest descent step on ions:
 trial-energy change:   -0.638902  1 .order   -0.585380   -1.400865    0.230106
  (g-gl).g = 0.140E+01      g.g   = 0.140E+01  gl.gl    = 0.000E+00
 g(Force)  = 0.709E-03   g(Stress)= 0.140E+01 ortho     = 0.000E+00
 gamma     =   0.00000
 trial     =   1.00000
 opt step  =   0.87975  (harmonic =   0.85891) maximal distance =0.00322385
 next E    =   -36.249448   (d E  =  -0.65265)

[...]

 d Force =-0.3787417E-03[-0.355E-03,-0.403E-03]  d Energy = 0.1838811E-01-0.188E-01
 d Force =-0.8959377E-01[-0.891E-01,-0.901E-01]  d Ewald  = 0.1412744E+02-0.142E+02

[...]

 d Force =-0.1400194E-03[-0.136E-03,-0.144E-03]  d Energy =-0.2176385E-02 0.204E-02
 d Force =-0.3614502E-01[-0.361E-01,-0.362E-01]  d Ewald  = 0.5807325E+01-0.584E+01

[...]

 d Force = 0.2698874E-01[ 0.295E-01, 0.244E-01]  d Energy = 0.1203690E+00-0.934E-01
 d Force = 0.7976454E+01[ 0.799E+01, 0.796E+01]  d Ewald  = 0.4170800E+03-0.409E+03

 Conjugate gradient step on ions:
 trial-energy change:   -0.120369  1 .order   -0.121016   -0.151724   -0.090308
  (g-gl).g = 0.725E-01      g.g   = 0.152E+00  gl.gl    = 0.140E+01
 g(Force)  = 0.256E-01   g(Stress)= 0.127E+00 ortho     = 0.797E-01
 gamma     =   0.05179
 trial     =   0.97018
 opt step  =   2.70142  (harmonic =   2.39673) maximal distance =0.09466147
 next E    =   -36.450244   (d E  =  -0.19727)

[...]

 Conjugate gradient step on ions:
 trial-energy change:   -0.057388  1 .order   -0.060197   -0.114252   -0.006142
  (g-gl).g = 0.109E+00      g.g   = 0.971E-01  gl.gl    = 0.152E+00
 g(Force)  = 0.731E-01   g(Stress)= 0.240E-01 ortho     =-0.145E-01
 gamma     =   0.71416
 trial     =   1.31642
 opt step  =   1.40616  (harmonic =   1.39122) maximal distance =0.11870242
 next E    =   -36.496692   (d E  =  -0.05760)

[...]

 d Force = 0.8808771E-03[ 0.663E-03, 0.110E-02]  d Energy = 0.1976426E-03 0.683E-03
 d Force = 0.1922011E+01[ 0.192E+01, 0.192E+01]  d Ewald  = 0.1192049E+02-0.100E+02

[...]

 d Force = 0.8015807E-03[ 0.376E-03, 0.123E-02]  d Energy = 0.1400010E-02-0.598E-03
 d Force = 0.1885112E+01[ 0.191E+01, 0.186E+01]  d Ewald  =-0.1356393E+03 0.138E+03

 Conjugate gradient step on ions:
 trial-energy change:   -0.001400  1 .order   -0.001028   -0.020128    0.018073
  (g-gl).g = 0.894E-03      g.g   = 0.151E-01  gl.gl    = 0.971E-01
 g(Force)  = 0.852E-03   g(Stress)= 0.142E-01 ortho     = 0.160E-02
 gamma     =   0.00920
 trial     =   1.33437
 opt step  =   0.70308  (harmonic =   0.70308) maximal distance =0.00365457
 next E    =   -36.501984   (d E  =  -0.00530)

[...]

 d Force =-0.2672359E-03[-0.357E-03,-0.178E-03]  d Energy = 0.3965837E-02-0.423E-02
 d Force =-0.8968511E+00[-0.892E+00,-0.902E+00]  d Ewald  = 0.6458799E+02-0.655E+02

[...]

 d Force = 0.2751962E-03[-0.396E-04, 0.590E-03]  d Energy = 0.1746273E-02-0.147E-02
 d Force = 0.1081237E+01[ 0.109E+01, 0.108E+01]  d Ewald  =-0.4989827E+02 0.510E+02

 Conjugate gradient step on ions:
 trial-energy change:   -0.001746  1 .order   -0.002169   -0.002633   -0.001705
  (g-gl).g = 0.335E-02      g.g   = 0.239E-02  gl.gl    = 0.151E-01
 g(Force)  = 0.361E-03   g(Stress)= 0.203E-02 ortho     =-0.958E-03
 gamma     =   0.22203
 trial     =   1.20811
 opt step  =   3.42797  (harmonic =   3.42797) maximal distance =0.01081035
 next E    =   -36.505783   (d E  =  -0.00374)

[...]

 d Force =-0.1119563E-02[-0.217E-02,-0.729E-04]  d Energy =-0.2909545E-02 0.179E-02
 d Force = 0.2017450E+01[ 0.203E+01, 0.200E+01]  d Ewald  =-0.9196213E+02 0.940E+02

[...]

 eigenvalue-minimisations  :  1072
 total energy-change (2. order) : 0.4125534E-03  (-0.8165048E-04)
 number of electron      63.0000014 magnetization       0.6656495
 augmentation part        2.0974347 magnetization       0.2406707

[...]

 Broyden mixing:
  rms(total) = 0.73467E-04    rms(broyden)= 0.73466E-04
  rms(prec ) = 0.10539E-03
  weight for this iteration     100.00

 eigenvalues of (default mixing * dielectric matrix)
  average eigenvalue GAMMA=   1.6347
  6.9857  3.0179  2.3009  1.6904  1.3260  0.2040  0.1373  0.9536  0.9536  0.7511
  0.6667  0.6288

[...]

--------------------------------------- Iteration     14(  14)  ---------------------------------------

[...]

 eigenvalue-minimisations  :   736
 total energy-change (2. order) :-0.5729072E-04  (-0.3129676E-05)
 number of electron      63.0000014 magnetization       0.6710603
 augmentation part        2.0995080 magnetization       0.2449411

 Free energy of the ion-electron system (eV)
  alpha Z        PSCENC =        22.21310767
  Ewald energy   TEWEN  =      6726.07520509
  -Hartree energ DENC   =     -9670.87543827
  -exchange      EXHF   =         0.00000000
  -V(xc)+E(xc)   XCENC  =      -147.01284513
  PAW double counting   =      2116.58379504    -1957.19468864
  entropy T*S    EENTRO =         0.00000000
  eigenvalues    EBANDS =      -389.01601158
  atomic energy  EATOM  =      3262.72306219
  Solvation  Ediel_sol  =         0.00000000
  free energy    TOTEN  =       -36.50381364 eV

  energy without entropy =      -36.50381364  energy(sigma->0) =      -36.50381364

 average (electrostatic) potential at core
  the test charge radii are     1.0452  1.1631  0.9587  1.1897
  (the norm of the test charge is              1.0000)
       1 -47.6677       2 -47.6678       3 -38.7330       4 -91.2039       5 -96.4204
       6 -96.4203       7 -96.4203       8 -96.2462       9 -96.2462      10 -96.2462

 E-fermi :  -1.3525     XC(G=0):  -3.8189     alpha+bet : -3.4421

[...]

 spin component 2

[...]

 k-point     5 :      -0.4000    0.2000    0.0000
  band No.  band energies     occupation
      1     -14.7533      1.00000
      2     -13.6983      1.00000
      3     -13.3753      1.00000
      4     -13.2315      1.00000
      5     -12.7734      1.00000
      6     -12.6547      1.00000
      7     -10.7805      1.00000
      8      -9.1171      1.00000
      9      -6.8417      1.00000
     10      -6.4237      1.00000
     11      -6.1090      1.00000
     12      -5.5330      1.00000
     13      -5.4988      1.00000
     14      -4.9647      1.00000
     15      -4.8864      1.00000
     16      -4.6382      1.00000
     17      -4.5308      1.00000
     18      -4.2855      1.00000
     19      -4.1912      1.00000
     20      -3.9840      1.00000
     21      -3.9770      1.00000
     22      -3.4662      1.00000
     23      -3.1952      1.00000
     24      -2.9324      1.00000
     25      -2.7516      1.00000
     26      -2.7280      1.00000
     27      -2.4694      1.00000
     28      -2.3550      1.00000
     29      -2.2642      1.00000
     30      -2.2403      1.00000
     31      -2.2217      1.00000
     32      -1.2599      0.00427
     33      -0.9016      0.00000
     34      -0.8862      0.00000
     35      -0.5280      0.00000
     36      -0.2532      0.00000
     37       0.0680      0.00000
     38       0.5071      0.00000
     39       0.9797      0.00000
     40       1.5135      0.00000
     41       1.8116      0.00000
     42       1.8325      0.00000
     43       2.9796      0.00000
     44       3.1945      0.00000
     45       3.1964      0.00000
     46       3.3739      0.00000
     47       3.3938      0.00000
     48       3.9919      0.00000

[...]

 soft charge-density along one line, spin component           2
         0         1         2         3         4         5         6         7         8         9
 total charge-density along one line

------------------------ aborting loop because EDIFF is reached ----------------------------------------

[...]

  FORCE on cell =-STRESS in cart. coord.  units (eV):
  Direction    XX          YY          ZZ          XY          YZ          ZX
  Alpha Z    22.21311    22.21311    22.21311
  Ewald    8658.56138  8658.55864-10591.04856    -0.00205    -0.00058    -0.00107
  Hartree  9230.00173  9230.00268 -8789.10872    -0.00026     0.00009     0.00014
  E(xc)    -267.15347  -267.15353  -267.09815     0.00009     0.00001     0.00002
  Local  -18774.55038-18774.54955 18453.35449     0.00199     0.00038     0.00072
  n-local   669.54081   670.23211   682.90226    -0.01146     0.56192     0.56523
  augment   -72.76834   -72.76828   -79.97363     0.00016    -0.00003     0.00009
  Kinetic   537.65445   530.44658   568.62095    -4.22217     0.51939    -0.26985
  Fock        0.00000     0.00000     0.00000     0.00000     0.00000     0.00000
  Total       0.24052     0.24052    -0.13825     0.00000    -0.00000    -0.00000
  in kB       0.46398     0.46398    -0.26669     0.00000    -0.00000    -0.00000

 VOLUME and BASIS-vectors are now :
  energy-cutoff  :      520.00
  volume of cell :      830.55
      direct lattice vectors                 reciprocal lattice vectors
     6.791030746 -0.000000106 -0.000000000     0.147253050 -0.085016584  0.000000000
     3.395514993  5.881204746 -0.000000000     0.000000003  0.170033188  0.000000000
    -0.000000000 -0.000000000 20.795234132     0.000000000  0.000000000  0.048087941

  length of vectors
     6.791030746  6.791030211 20.795234132     0.170033174  0.170033188  0.048087941

 FORCES acting on ions
    electron-ion (+dipol)            ewald-force                    non-local-force                 convergence-correction
   0.552E-04 0.345E-04 0.135E+02   0.648E-03 0.389E-03 -.138E+02   -.139E-16 -.841E-19 0.215E+00   -.125E-07 0.178E-07 0.395E-03
   -.664E-04 -.184E-04 0.110E+02   -.643E-03 -.386E-03 -.112E+02   -.139E-16 -.661E-19 0.169E+00   -.765E-08 0.183E-07 0.403E-03
   -.292E-04 -.270E-04 0.194E+03   -.143E-03 -.794E-04 -.193E+03   0.140E-16 0.711E-17 -.428E+00   -.178E-09 -.366E-09 0.902E-04
   0.396E-04 0.304E-04 -.259E+03   0.200E-03 0.111E-03 0.259E+03   0.141E-16 0.301E-18 -.767E+00   0.186E-09 -.257E-09 -.430E-04
   -.187E+02 0.128E+00 -.399E+03   0.152E+02 -.122E+00 0.403E+03   0.266E+01 -.152E-01 -.450E+01   -.817E-04 -.830E-04 0.345E-03
   0.944E+01 0.161E+02 -.399E+03   -.769E+01 -.131E+02 0.403E+03   -.134E+01 -.230E+01 -.450E+01   -.311E-04 0.112E-03 0.345E-03
   0.922E+01 -.162E+02 -.399E+03   -.748E+01 0.132E+02 0.403E+03   -.132E+01 0.231E+01 -.450E+01   0.113E-03 -.292E-04 0.345E-03
   0.286E+02 -.136E+00 0.412E+03   -.249E+02 0.131E+00 -.417E+03   -.288E+01 0.151E-01 0.476E+01   0.342E-04 -.703E-04 -.204E-03
   -.144E+02 -.247E+02 0.412E+03   0.126E+02 0.215E+02 -.417E+03   0.145E+01 0.248E+01 0.476E+01   -.780E-04 0.549E-05 -.204E-03
   -.142E+02 0.249E+02 0.412E+03   0.123E+02 -.216E+02 -.417E+03   0.142E+01 -.250E+01 0.476E+01   0.437E-04 0.648E-04 -.204E-03
   0.175E-04 0.123E-03 0.921E-02   -.355E-14 0.711E-14 0.568E-13   0.222E-15 0.000E+00 -.216E-01   -.209E-07 0.352E-07 0.127E-02

 POSITION                                       TOTAL-FORCE (eV/Angst)
      3.39551      1.96040     10.40155        -0.000000     -0.000000     -0.004088
      6.79103      3.92081     10.40574        -0.000000     -0.000000     -0.006097
     -0.00000     -0.00000      9.32076        -0.000000     -0.000000      0.254523
     -0.00000     -0.00000     11.69467        -0.000000     -0.000000     -0.117203
      4.25504      0.00247     11.93131        -0.832493     -0.008258      0.011187
      1.27014      2.19501     11.93131         0.409095      0.725089      0.011187
      4.66138      3.68373     11.93131         0.423398     -0.716831      0.011187
      5.93151      5.87873      8.86393         0.854954      0.009527     -0.053565
      8.91641      3.68620      8.86393        -0.419227     -0.745175     -0.053565
      5.52517      2.19747      8.86393        -0.435728      0.735649     -0.053565
    total drift:                                0.000017      0.000123     -0.011121

  FREE ENERGIE OF THE ION-ELECTRON SYSTEM (eV)
  free  energy   TOTEN  =       -36.50381364 eV

  energy  without entropy=      -36.50381364  energy(sigma->0) =      -36.50381364

 d Force = 0.9781295E-03[ 0.504E-03, 0.145E-02]  d Energy = 0.2929883E-02-0.195E-02
 d Force =-0.1356219E+01[-0.135E+01,-0.136E+01]  d Ewald  = 0.6240343E+02-0.638E+02

 reached required accuracy - stopping structural energy minimisation

 total charge

[...]

 magnetization (x)

# of ion       s       p       d       tot
    1        0.000   0.001   0.176   0.177
    2        0.000   0.001   0.176   0.177
    3        0.002   0.007   0.000   0.009
    4        0.019   0.004   0.000   0.023
    5        0.005   0.038   0.000   0.043
    6        0.003   0.030   0.001   0.034
    7        0.004   0.036   0.000   0.040
    8        0.003   0.002   0.000   0.005
    9        0.003   0.008   0.000   0.011
   10        0.002   0.002   0.000   0.004
tot          0.042   0.127   0.355   0.524

 BZINTS: Fermi energy: -1.352459; 63.000000 electrons
         Band energy:-389.016012;  BLOECHL correction: -0.021716