 vasp.5.4.4.18Apr17-6-g9f103f2a35 (build May  1 2020 15:48:39) complex
 executed on             LinuxGNU date 2020.06.14  18:49:53

 INCAR:
 POTCAR:   PAW_PBE Ni 06Sep2000
 POTCAR:   PAW_PBE Ge 05Jan2001
 POTCAR:   PAW_PBE Te 08Apr2002

 POTCAR:   PAW_PBE Ni 06Sep2000
   VRHFIN =Ni:

   TITEL  = PAW_PBE Ni 06Sep2000
   POMASS =   58.690; ZVAL   =   10.000    mass and valenz
   ENMAX  =  269.533; ENMIN  =  202.150 eV
   QCUT   =   -4.451; QGAM   =    8.902    optimization parameters

   Description
     l     E      TYP  RCUT    TYP  RCUT
     2   .000     23  2.300
     2   .000     23  2.300
     0   .000     23  2.300
     0   .000     23  2.300
     1  -.200     23  2.300
     1   .000     23  2.300
     3   .000      7   .000

 POTCAR:   PAW_PBE Ge 05Jan2001
   VRHFIN =Ge: s2p2

   TITEL  = PAW_PBE Ge 05Jan2001
   POMASS =   72.610; ZVAL   =    4.000    mass and valenz
   ENMAX  =  173.807; ENMIN  =  130.355 eV
   QCUT   =   -3.574; QGAM   =    7.148    optimization parameters

[...]

 POTCAR:   PAW_PBE Te 08Apr2002
   VRHFIN =Te: s2p4

   TITEL  = PAW_PBE Te 08Apr2002
   POMASS =  127.600; ZVAL   =    6.000    mass and valenz
   ENMAX  =  174.982; ENMIN  =  131.236 eV
   QCUT   =   -3.586; QGAM   =    7.172    optimization parameters

   Description
     l     E      TYP  RCUT    TYP  RCUT
     0   .000     23  2.300
     0   .000     23  2.300
     1   .000     23  2.300
     1   .000     23  2.300
     2   .000     23  2.300
     3  -.100     23  2.300

 Optimization of the real space projectors (new method)

 maximal supplied QI-value         = 16.25
 optimisation between [QCUT,QGAM] = [ 11.54, 23.24] = [ 37.28,151.24] Ry
 Optimized for a Real-space Cutoff    1.49 Angstroem

   l    n(q)    QCUT    max X(q) W(low)/X(q) W(high)/X(q)  e(spline)
   2      9    11.539     4.811    0.20E-04    0.14E-04    0.45E-07
   2      9    11.539    15.146    0.24E-03    0.12E-03    0.20E-06
   0     10    11.539    14.357    0.18E-04    0.12E-05    0.14E-07
   0     10    11.539    43.282    0.39E-04    0.17E-04    0.23E-06
   1     10    11.539     5.514    0.99E-05    0.13E-04    0.19E-07
   1     10    11.539     7.697    0.38E-04    0.79E-04    0.91E-07
 Optimization of the real space projectors (new method)

[...]

   l    n(q)    QCUT    max X(q) W(low)/X(q) W(high)/X(q)  e(spline)
   0      9    11.539     8.651    0.22E-04    0.16E-04    0.10E-07
   0      9    11.539    33.192    0.11E-03    0.16E-03    0.65E-07
   1      8    11.539     5.899    0.37E-04    0.28E-04    0.43E-07
   1      8    11.539    27.289    0.22E-03    0.28E-04    0.14E-06
   2      8    11.539     4.673    0.11E-03    0.18E-03    0.58E-07
 Optimization of the real space projectors (new method)

 maximal supplied QI-value         = 16.25
 optimisation between [QCUT,QGAM] = [ 11.54, 23.24] = [ 37.28,151.24] Ry
 Optimized for a Real-space Cutoff    1.36 Angstroem

   l    n(q)    QCUT    max X(q) W(low)/X(q) W(high)/X(q)  e(spline)
   0      9    11.539     7.090    0.13E-04    0.25E-05    0.51E-08
   0      9    11.539   101.654    0.53E-04    0.69E-04    0.12E-06
   1      9    11.539     5.276    0.20E-04    0.98E-05    0.24E-07
   1      9    11.539    81.891    0.24E-03    0.13E-04    0.15E-06
   2      9    11.539     5.599    0.30E-04    0.97E-04    0.54E-07

 PAW_PBE Ni 06Sep2000                   :
 PAW_PBE Ge 05Jan2001                   :
 PAW_PBE Te 08Apr2002                   :

 POSCAR: Ni2 Ge2 Te6
  positions in direct lattice
  velocities in cartesian coordinates
 exchange correlation table for  LEXCH =       42
   RHO(1)=    0.500       N(1)  =     2000
   RHO(2)=  100.500       N(2)  =     4000

 ion  position               nearest neighbor table
   1  0.333  0.333  0.500-   6 2.78   5 2.78   7 2.78   8 2.78  10 2.78   9 2.78
   2  0.667  0.667  0.500-   9 2.78   8 2.78  10 2.78   5 2.78   7 2.78   6 2.78
   3  0.000  0.000  0.448-   4 2.43   8 2.63  10 2.63   9 2.63
   4  0.000  0.000  0.552-   3 2.43   5 2.63   7 2.63   6 2.63
   5  0.626  0.000  0.574-   4 2.63   1 2.78   2 2.78
   6  0.000  0.373  0.574-   4 2.63   1 2.78   2 2.78
   7  0.373  0.626  0.574-   4 2.63   1 2.78   2 2.78
   8  0.374  1.000  0.426-   3 2.63   2 2.78   1 2.78
   9  1.000  0.627  0.426-   3 2.63   2 2.78   1 2.78
  10  0.627  0.374  0.426-   3 2.63   2 2.78   1 2.78

  LATTYP: Found a hexagonal cell.
 ALAT       =     6.9077769333
 C/A-ratio  =     3.3939410937

  Lattice vectors:

 A1 = (   3.4538890000,  -5.9823100000,   0.0000000000)
 A2 = (  -6.9077770000,   0.0000000000,   0.0000000000)
 A3 = (   0.0000000000,   0.0000000000, -23.4445880000)

Analysis of symmetry for initial positions (statically):
 Subroutine PRICEL returns:
 Original cell was already a primitive cell.

 Routine SETGRP: Setting up the symmetry group for a
 hexagonal supercell.

 Subroutine GETGRP returns: Found  6 space group operations
 (whereof  6 operations were pure point group operations)
 out of a pool of 24 trial point group operations.

The static configuration has the point symmetry S_6 .

Analysis of symmetry for dynamics (positions and initial velocities):
 Subroutine PRICEL returns:
 Original cell was already a primitive cell.

[...]

The dynamic configuration has the point symmetry S_6 .

Analysis of structural, dynamic, and magnetic symmetry:
 Subroutine PRICEL returns:
 Original cell was already a primitive cell.

 Routine SETGRP: Setting up the symmetry group for a
 hexagonal supercell.

 Subroutine GETGRP returns: Found  6 space group operations
 (whereof  6 operations were pure point group operations)
 out of a pool of 24 trial point group operations.

The magnetic configuration has the point symmetry S_6 .

 Subroutine INISYM returns: Found  6 space group operations
 (whereof  6 operations are pure point group operations),
 and found     1 'primitive' translations

 KPOINTS: Kpoints from vasprun.xml

Automatic generation of k-mesh.
Space group operators:
 irot       det(A)        alpha          n_x          n_y          n_z        tau_x        tau_y        tau_z
    1     1.000000     0.000000     1.000000     0.000000     0.000000     0.000000     0.000000     0.000000
    2    -1.000000     0.000000     1.000000     0.000000     0.000000     0.000000     0.000000     0.000000
    3     1.000000   120.000000     0.000000     0.000000     1.000000     0.000000     0.000000     0.000000
    4    -1.000000   120.000000     0.000000     0.000000     1.000000     0.000000     0.000000     0.000000
    5     1.000000   120.000000     0.000000     0.000000    -1.000000     0.000000     0.000000     0.000000
    6    -1.000000   120.000000     0.000000     0.000000    -1.000000     0.000000     0.000000     0.000000

 Subroutine IBZKPT returns following result:

 Found      5 irreducible k-points:

 Following reciprocal coordinates:
            Coordinates               Weight
  0.000000  0.000000  0.000000      1.000000
  0.200000  0.000000  0.000000      6.000000
  0.400000  0.000000  0.000000      6.000000
  0.400000  0.200000  0.000000      6.000000
 -0.400000  0.200000  0.000000      6.000000

 Following cartesian coordinates:
            Coordinates               Weight
  0.000000  0.000000  0.000000      1.000000
  0.028953 -0.016716  0.000000      6.000000
  0.057906 -0.033432  0.000000      6.000000
  0.057906  0.000000  0.000000      6.000000
 -0.057906  0.066864  0.000000      6.000000

 TETIRR: Found     15 inequivalent tetrahedra from      150

 SYSTEM =  unknown system
 POSCAR =  Ni2 Ge2 Te6

 Startparameter for this run:
   NWRITE =      2    write-flag & timer
   PREC   = accura    normal or accurate (medium, high low for compatibility)
   ISTART =      0    job   : 0-new  1-cont  2-samecut
   ICHARG =      2    charge: 1-file 2-atom 10-const
   ISPIN  =      2    spin polarized calculation?
   LNONCOLLINEAR =      F non collinear calculations
   LSORBIT =      F    spin-orbit coupling
   INIWAV =      1    electr: 0-lowe 1-rand  2-diag
   LASPH  =      F    aspherical Exc in radial PAW
   METAGGA=      F    non-selfconsistent MetaGGA calc.

 Electronic Relaxation 1
   ENCUT  =  520.0 eV  38.22 Ry    6.18 a.u.  12.84 12.84 43.59*2*pi/ulx,y,z
   ENINI  =  520.0     initial cutoff
   ENAUG  =  544.6 eV  augmentation charge cutoff
   NELM   =    400;   NELMIN=  2; NELMDL=  0     # of ELM steps
   EDIFF  = 0.1E-03   stopping-criterion for ELM
   LREAL  =      T    real-space projection
   NLSPLINE    = F    spline interpolate recip. space projectors
   LCOMPAT=      F    compatible to vasp.4.4
   GGA_COMPAT  = T    GGA compatible to vasp.4.4-vasp.4.6
   LMAXPAW     = -100 max onsite density
   LMAXMIX     =    2 max onsite mixed and CHGCAR
   VOSKOWN=      0    Vosko Wilk Nusair interpolation
   ROPT   =   -0.00025  -0.00025  -0.00025
 Ionic relaxation
   EDIFFG = 0.1E-02   stopping-criterion for IOM
   NSW    =     99    number of steps for IOM
   NBLOCK =      1;   KBLOCK =     99    inner block; outer block
   IBRION =      2    ionic relax: 0-MD 1-quasi-New 2-CG
   NFREE  =      1    steps in history (QN), initial steepest desc. (CG)
   ISIF   =      3    stress and relaxation
   IWAVPR =     11    prediction:  0-non 1-charg 2-wave 3-comb
   ISYM   =      2    0-nonsym 1-usesym 2-fastsym
   LCORR  =      T    Harris-Foulkes like correction to forces

   POTIM  = 0.5000    time-step for ionic-motion
   TEIN   =    0.0    initial temperature
   TEBEG  =    0.0;   TEEND  =   0.0 temperature during run
   SMASS  =  -3.00    Nose mass-parameter (am)
   estimated Nose-frequenzy (Omega)   =  0.10E-29 period in steps =****** mass=  -0.109E-26a.u.
   SCALEE = 1.0000    scale energy and forces
   NPACO  =    256;   APACO  = 16.0  distance and # of slots for P.C.
   PSTRESS=    0.0 pullay stress

  Mass of Ions in am
   POMASS =  58.69 72.61127.60
  Ionic Valenz
   ZVAL   =  10.00  4.00  6.00
  Atomic Wigner-Seitz radii
  virtual crystal weights
   VCA    =   1.00  1.00  1.00
   NELECT =      64.0000    total number of electrons
   NUPDOWN=      -1.0000    fix difference up-down

 DOS related values:
   EMIN   =  10.00;   EMAX   =-10.00  energy-range for DOS
   EFERMI =   0.00
   ISMEAR =    -5;   SIGMA  =   0.05  broadening in eV -4-tet -1-fermi 0-gaus

 Electronic relaxation 2 (details)
   IALGO  =     38    algorithm
   LDIAG  =      T    sub-space diagonalisation (order eigenvalues)
   LSUBROT=      F    optimize rotation matrix (better conditioning)
   TURBO    =      0    0=normal 1=particle mesh
   IRESTART =      0    0=no restart 2=restart with 2 vectors
   NREBOOT  =      0    no. of reboots
   NMIN     =      0    reboot dimension
   EREF     =   0.00    reference energy to select bands
   IMIX   =      4    mixing-type and parameters
     AMIX     =   0.40;   BMIX     =  1.00
     AMIX_MAG =   1.60;   BMIX_MAG =  1.00
     AMIN     =   0.01
     WC   =   100.;   INIMIX=   1;  MIXPRE=   1;  MAXMIX= -45

 Intra band minimization:
   WEIMIN = 0.0010     energy-eigenvalue tresh-hold
   EBREAK =  0.52E-06  absolut break condition
   DEPER  =   0.30     relativ break condition

   TIME   =   0.40     timestep for ELM

  volume/ion in A,a.u.               =      96.88       653.80
[...]
    9        1.400   1.915   0.033   3.348
   10        1.405   1.883   0.033   3.321
tot         11.483  14.276  17.016  42.775

 magnetization (x)

[...]

  FORCE on cell =-STRESS in cart. coord.  units (eV):
  Direction    XX          YY          ZZ          XY          YZ          ZX
  Alpha Z    21.34835    21.34835    21.34835
  Ewald   10003.16019 10003.15816-11941.28445    -0.00208    -0.00052    -0.00095
  Hartree 10763.80203 10763.80313-10092.73460    -0.00045     0.00008     0.00014
  E(xc)    -280.45816  -280.45833  -280.02583     0.00018     0.00005    -0.00001
  Local  -21601.24550-21601.24542 21174.25216     0.00234     0.00034     0.00065
  n-local   627.65202   627.30045   635.32583    -0.38455     0.36461     0.23404
  augment   -52.34061   -52.34046   -58.60915     0.00001    -0.00009     0.00011
  Kinetic   517.88429   509.25792   537.09559    -4.75523    -0.99224    -1.28425
  Fock        0.00000     0.00000     0.00000     0.00000     0.00000     0.00000
  Total      -4.68678    -4.68678    -4.63210    -0.00000     0.00000     0.00000
  in kB      -7.75061    -7.75061    -7.66018    -0.00000     0.00000     0.00000

 VOLUME and BASIS-vectors are now :
  energy-cutoff  :      520.00
  volume of cell :      968.84
      direct lattice vectors                 reciprocal lattice vectors
     6.907777000 -0.000000000  0.000000000     0.144764372 -0.083579742  0.000000000
     3.453888000  5.982310000  0.000000000     0.000000000  0.167159509 -0.000000000
     0.000000000  0.000000000 23.444588000    -0.000000000  0.000000000  0.042653767

[...]

 FORCES acting on ions
    electron-ion (+dipol)            ewald-force                    non-local-force                 convergence-correction
   0.238E-03 0.115E-03 0.117E+01   0.643E-03 0.389E-03 -.118E+01   0.000E+00 -.278E-16 0.160E-01   -.381E-05 -.219E-05 -.286E-03
   -.238E-03 -.115E-03 -.117E+01   -.643E-03 -.389E-03 0.118E+01   0.000E+00 0.278E-16 -.160E-01   0.381E-05 0.219E-05 0.286E-03
   -.200E-04 -.221E-04 0.188E+03   -.141E-03 -.779E-04 -.186E+03   0.347E-17 0.347E-17 -.164E+01   0.297E-06 0.148E-06 -.141E-01
   0.200E-04 0.221E-04 -.188E+03   0.141E-03 0.779E-04 0.186E+03   0.347E-17 -.104E-16 0.164E+01   -.297E-06 -.148E-06 0.141E-01
   -.267E+02 0.158E+00 -.421E+03   0.233E+02 -.155E+00 0.425E+03   0.303E+01 -.871E-02 -.463E+01   0.458E-02 -.662E-04 0.400E-01
   0.135E+02 0.231E+02 -.421E+03   -.118E+02 -.201E+02 0.425E+03   -.152E+01 -.262E+01 -.463E+01   -.235E-02 -.394E-02 0.400E-01
   0.132E+02 -.232E+02 -.421E+03   -.115E+02 0.202E+02 0.425E+03   -.151E+01 0.263E+01 -.463E+01   -.224E-02 0.400E-02 0.400E-01
   0.267E+02 -.158E+00 0.421E+03   -.233E+02 0.155E+00 -.425E+03   -.303E+01 0.871E-02 0.463E+01   -.458E-02 0.662E-04 -.400E-01
   -.135E+02 -.231E+02 0.421E+03   0.118E+02 0.201E+02 -.425E+03   0.152E+01 0.262E+01 0.463E+01   0.235E-02 0.394E-02 -.400E-01
   -.132E+02 0.232E+02 0.421E+03   0.115E+02 -.202E+02 -.425E+03   0.151E+01 -.263E+01 0.463E+01   0.224E-02 -.400E-02 -.400E-01
   -.363E-09 -.121E-09 0.605E-09   0.355E-14 0.000E+00 -.171E-12   0.444E-15 0.000E+00 -.888E-15   0.863E-14 -.240E-13 0.115E-11

 POSITION                                       TOTAL-FORCE (eV/Angst)
      3.45388      1.99410     11.72054         0.000000      0.000000      0.003903
      6.90778      3.98821     11.72405         0.000000     -0.000000     -0.003903
      0.00000      0.00000     10.50824         0.000000      0.000000     -0.345246
      0.00000      0.00000     12.93635         0.000000     -0.000000      0.345246
      4.32819      0.00251     13.45138        -0.433039     -0.005832     -0.557780
      1.29198      2.23274     13.45138         0.211469      0.377939     -0.557780
      4.74152      3.74706     13.45138         0.221570     -0.372107     -0.557780
      6.03348      5.97980      9.99321         0.433039      0.005832      0.557780
      9.06969      3.74957      9.99321        -0.211469     -0.377939      0.557780
      5.62015      2.23525      9.99321        -0.221570      0.372107      0.557780
    total drift:                               -0.000000     -0.000000      0.000000

  FREE ENERGIE OF THE ION-ELECTRON SYSTEM (eV)
  free  energy   TOTEN  =       -31.44361322 eV

  energy  without entropy=      -31.44361322  energy(sigma->0) =      -31.44361322

[...]

 d Force = 0.1398753E+00[ 0.127E+00, 0.152E+00]  d Energy = 0.2909320E+00-0.151E+00
 d Force =-0.6549046E+02[-0.671E+02,-0.639E+02]  d Ewald  =-0.2568563E+03 0.191E+03

 Steepest descent step on ions:
 trial-energy change:   -0.290932  1 .order   -0.265013   -0.471297   -0.058730
  (g-gl).g = 0.471E+00      g.g   = 0.471E+00  gl.gl    = 0.000E+00
 g(Force)  = 0.156E+00   g(Stress)= 0.315E+00 ortho     = 0.000E+00
 gamma     =   0.00000
 trial     =   1.00000
 opt step  =   1.10061  (harmonic =   1.14235) maximal distance =0.02961613
 next E    =   -31.737526   (d E  =  -0.29391)

[...]

 d Force = 0.1273781E-01[ 0.124E-01, 0.131E-01]  d Energy = 0.1377084E-02 0.114E-01
 d Force =-0.6902092E+01[-0.692E+01,-0.689E+01]  d Ewald  =-0.2667557E+02 0.198E+02

[...]

 d Force = 0.1770919E+00[ 0.128E+00, 0.226E+00]  d Energy = 0.1616511E+00 0.154E-01
 d Force =-0.4947739E+02[-0.496E+02,-0.493E+02]  d Ewald  = 0.1697358E+03-0.219E+03

 Conjugate gradient step on ions:
 trial-energy change:   -0.161651  1 .order   -0.187225   -0.246526   -0.127924
  (g-gl).g = 0.244E+00      g.g   = 0.243E+00  gl.gl    = 0.471E+00
 g(Force)  = 0.158E+00   g(Stress)= 0.843E-01 ortho     =-0.163E-02
 gamma     =   0.51803
 trial     =   1.02012
 opt step  =   2.12043  (harmonic =   2.12043) maximal distance =0.08962625
 next E    =   -31.992137   (d E  =  -0.25621)

[...]

 d Force = 0.8387372E-01[ 0.298E-01, 0.138E+00]  d Energy = 0.6790769E-01 0.160E-01
 d Force =-0.5358489E+02[-0.537E+02,-0.534E+02]  d Ewald  = 0.1815672E+03-0.235E+03

[...]

 d Force = 0.1199189E-01[-0.122E-01, 0.362E-01]  d Energy = 0.1128616E-01 0.706E-03
 d Force = 0.3011882E+02[ 0.295E+02, 0.307E+02]  d Ewald  = 0.2548648E+03-0.225E+03

 Conjugate gradient step on ions:
 trial-energy change:   -0.011286  1 .order   -0.022704   -0.182926    0.137518
  (g-gl).g = 0.309E-01      g.g   = 0.146E+00  gl.gl    = 0.243E+00
 g(Force)  = 0.253E-01   g(Stress)= 0.121E+00 ortho     = 0.102E-01
 gamma     =   0.12722
 trial     =   1.24018
 opt step  =   0.64176  (harmonic =   0.70796) maximal distance =0.00951710
 next E    =   -32.011228   (d E  =  -0.04575)

[...]

 d Force = 0.7569667E-03[-0.428E-02, 0.579E-02]  d Energy = 0.3531195E-01-0.346E-01
 d Force =-0.1413999E+02[-0.143E+02,-0.140E+02]  d Ewald  =-0.1211921E+03 0.107E+03

[...]

 d Force = 0.2005260E-02[ 0.168E-02, 0.233E-02]  d Energy = 0.2898489E-02-0.893E-03
 d Force = 0.1746068E+01[ 0.175E+01, 0.174E+01]  d Ewald  =-0.2450537E+02 0.263E+02

[...]

 d Force = 0.2215397E-02[ 0.118E-02, 0.325E-02]  d Energy = 0.3066702E-02-0.851E-03
 d Force = 0.3408006E+01[ 0.342E+01, 0.340E+01]  d Ewald  =-0.4767958E+02 0.511E+02

[...]

 d Force = 0.3631331E-03[-0.275E-03, 0.100E-02]  d Energy =-0.6752867E-03 0.104E-02
 d Force =-0.2888135E+00[-0.289E+00,-0.289E+00]  d Ewald  = 0.5204096E+01-0.549E+01

 Conjugate gradient step on ions:
 trial-energy change:    0.000675  1 .order    0.000924   -0.002392    0.004239
  (g-gl).g = 0.152E-02      g.g   = 0.141E-02  gl.gl    = 0.250E-02
 g(Force)  = 0.316E-03   g(Stress)= 0.109E-02 ortho     = 0.229E-03
 gamma     =   0.61011
 trial     =   1.54384
 opt step  =   0.55687  (harmonic =   0.55687) maximal distance =0.00211744
 next E    =   -32.018476   (d E  =  -0.00043)

[...]

 eigenvalue-minimisations  :   960
 total energy-change (2. order) : 0.8153229E-01  (-0.3190452E-01)
 number of electron      63.9999970 magnetization      -0.0000125
 augmentation part        3.8797906 magnetization       0.0000992

[...]

 Broyden mixing:
  rms(total) = 0.24047E-02    rms(broyden)= 0.24040E-02
  rms(prec ) = 0.26662E-02
  weight for this iteration     100.00

 eigenvalues of (default mixing * dielectric matrix)
  average eigenvalue GAMMA=   1.2309
  0.2453  2.1828  0.9607  1.5349

[...]

--------------------------------------- Iteration     11(   6)  ---------------------------------------

[...]

 eigenvalue-minimisations  :   744
 total energy-change (2. order) :-0.4199902E-04  (-0.1051833E-04)
 number of electron      63.9999969 magnetization      -0.0000045
 augmentation part        3.9008474 magnetization       0.0000085

 Free energy of the ion-electron system (eV)
  alpha Z        PSCENC =        22.85385703
  Ewald energy   TEWEN  =      7933.90123224
  -Hartree energ DENC   =    -11307.03422713
  -exchange      EXHF   =         0.00000000
  -V(xc)+E(xc)   XCENC  =      -129.06011475
  PAW double counting   =      2577.64222674    -2443.02225408
  entropy T*S    EENTRO =         0.00000000
  eigenvalues    EBANDS =      -409.64030850
  atomic energy  EATOM  =      3722.34104111
  Solvation  Ediel_sol  =         0.00000000
  free energy    TOTEN  =       -32.01854733 eV

  energy without entropy =      -32.01854733  energy(sigma->0) =      -32.01854733

 average (electrostatic) potential at core
  the test charge radii are     0.9791  1.1631  1.1897
  (the norm of the test charge is              1.0000)
       1 -49.2045       2 -49.2045       3 -38.7489       4 -38.7489       5 -96.6335
       6 -96.6335       7 -96.6335       8 -96.6335       9 -96.6335      10 -96.6335

 E-fermi :  -1.7000     XC(G=0):  -3.7519     alpha+bet : -3.1206

[...]

 spin component 2

[...]

 k-point     5 :      -0.4000    0.2000    0.0000
  band No.  band energies     occupation
      1     -13.9503      1.00000
      2     -13.9324      1.00000
      3     -13.4327      1.00000
      4     -13.1053      1.00000
      5     -13.0683      1.00000
      6     -12.8550      1.00000
      7     -10.3120      1.00000
      8      -8.8727      1.00000
      9      -6.7747      1.00000
     10      -6.2661      1.00000
     11      -6.1540      1.00000
     12      -5.7341      1.00000
     13      -5.4624      1.00000
     14      -5.4547      1.00000
     15      -5.2339      1.00000
     16      -4.9327      1.00000
     17      -4.7444      1.00000
     18      -4.6449      1.00000
     19      -4.5921      1.00000
     20      -4.5052      1.00000
     21      -4.4057      1.00000
     22      -4.1144      1.00000
     23      -3.7728      1.00000
     24      -3.6243      1.00000
     25      -3.5708      1.00000
     26      -3.4017      1.00000
     27      -3.3464      1.00000
     28      -3.1757      1.00000
     29      -3.1156      1.00000
     30      -3.0106      1.00000
     31      -2.8680      1.00000
     32      -1.8075      1.00000
     33      -1.7202      0.36899
     34      -1.6603      0.00000
     35      -1.3030      0.00000
     36      -1.0288      0.00000
     37      -0.4570      0.00000
     38       0.4595      0.00000
     39       0.6081      0.00000
     40       1.2688      0.00000
     41       1.3628      0.00000
     42       1.6774      0.00000
     43       2.4711      0.00000
     44       2.7915      0.00000
     45       2.8228      0.00000
     46       2.8989      0.00000
     47       3.1403      0.00000
     48       3.6033      0.00000

[...]

 soft charge-density along one line, spin component           2
         0         1         2         3         4         5         6         7         8         9
 total charge-density along one line

------------------------ aborting loop because EDIFF is reached ----------------------------------------

[...]

  FORCE on cell =-STRESS in cart. coord.  units (eV):
  Direction    XX          YY          ZZ          XY          YZ          ZX
  Alpha Z    22.85386    22.85386    22.85386
  Ewald    9889.88791  9889.88633-11845.87608    -0.00262    -0.00051    -0.00094
  Hartree 10620.93988 10620.94118 -9934.03143    -0.00060     0.00008     0.00013
  E(xc)    -281.51201  -281.51203  -281.15935     0.00006     0.00002     0.00001
  Local  -21348.41257-21348.41304 20915.80460     0.00293     0.00034     0.00064
  n-local   629.43391   631.39821   638.77500     1.16464     1.43182     1.40494
  augment   -52.46972   -52.46959   -58.40293     0.00001    -0.00007     0.00011
  Kinetic   522.70846   513.77256   541.83471    -5.26033    -0.29807    -0.45398
  Fock        0.00000     0.00000     0.00000     0.00000     0.00000     0.00000
  Total      -0.05641    -0.05641    -0.20162    -0.00000     0.00000    -0.00000
  in kB      -0.09986    -0.09986    -0.35694    -0.00000     0.00000    -0.00000

 VOLUME and BASIS-vectors are now :
  energy-cutoff  :      520.00
  volume of cell :      905.01
      direct lattice vectors                 reciprocal lattice vectors
     6.824876855  0.000000139  0.000000000     0.146522792 -0.084594963  0.000000000
     3.412437827  5.910516453  0.000000000    -0.000000003  0.169189955 -0.000000000
     0.000000000  0.000000000 22.435431309    -0.000000000 -0.000000000  0.044572355

  length of vectors
     6.824876855  6.824876311 22.435431309     0.169189941  0.169189955  0.044572355

 FORCES acting on ions
    electron-ion (+dipol)            ewald-force                    non-local-force                 convergence-correction
   0.146E-03 0.664E-04 0.457E+00   0.682E-03 0.419E-03 -.463E+00   0.347E-17 0.203E-20 0.100E-01   0.377E-06 0.779E-07 -.284E-03
   -.146E-03 -.664E-04 -.457E+00   -.682E-03 -.419E-03 0.463E+00   -.347E-17 -.203E-20 -.100E-01   -.377E-06 -.779E-07 0.284E-03
   -.458E-04 0.936E-05 0.205E+03   -.141E-03 -.782E-04 -.205E+03   -.174E-16 -.142E-18 -.700E+00   -.379E-07 -.237E-07 -.416E-02
   0.458E-04 -.936E-05 -.205E+03   0.141E-03 0.782E-04 0.205E+03   -.344E-17 0.142E-18 0.700E+00   0.379E-07 0.237E-07 0.416E-02
   -.357E+02 -.425E-02 -.431E+03   0.335E+02 0.668E-02 0.435E+03   0.216E+01 -.400E-02 -.399E+01   -.578E-03 0.165E-04 0.770E-02
   0.179E+02 0.309E+02 -.431E+03   -.168E+02 -.291E+02 0.435E+03   -.108E+01 -.187E+01 -.399E+01   0.303E-03 0.492E-03 0.770E-02
   0.179E+02 -.309E+02 -.431E+03   -.168E+02 0.290E+02 0.435E+03   -.108E+01 0.187E+01 -.399E+01   0.275E-03 -.509E-03 0.770E-02
   0.357E+02 0.425E-02 0.431E+03   -.335E+02 -.668E-02 -.435E+03   -.216E+01 0.400E-02 0.399E+01   0.578E-03 -.165E-04 -.770E-02
   -.179E+02 -.309E+02 0.431E+03   0.168E+02 0.291E+02 -.435E+03   0.108E+01 0.187E+01 0.399E+01   -.303E-03 -.492E-03 -.770E-02
   -.179E+02 0.309E+02 0.431E+03   0.168E+02 -.290E+02 -.435E+03   0.108E+01 -.187E+01 0.399E+01   -.275E-03 0.509E-03 -.770E-02
   0.124E-09 0.298E-09 0.523E-09   0.178E-13 0.711E-14 0.114E-12   0.222E-15 0.222E-15 0.133E-14   -.578E-13 -.169E-12 0.198E-10

 POSITION                                       TOTAL-FORCE (eV/Angst)
      3.41243      1.97017     11.21681        -0.000000     -0.000000      0.003572
      6.82488      3.94035     11.21862        -0.000000     -0.000000     -0.003572
      0.00000      0.00000      9.95050        -0.000000     -0.000000      0.033740
      0.00000      0.00000     12.48493        -0.000000     -0.000000     -0.033740
      4.13850      0.00059     12.80774        -0.013427     -0.001018     -0.015272
      1.34371      2.32618     12.80774         0.005832      0.012137     -0.015272
      4.75512      3.58375     12.80774         0.007595     -0.011119     -0.015272
      6.09881      5.90992      9.62769         0.013427      0.001018      0.015272
      8.89361      3.58434      9.62769        -0.005832     -0.012137      0.015272
      5.48220      2.32677      9.62769        -0.007595      0.011119      0.015272
    total drift:                                0.000000      0.000000      0.000000

  FREE ENERGIE OF THE ION-ELECTRON SYSTEM (eV)
  free  energy   TOTEN  =       -32.01854733 eV

  energy  without entropy=      -32.01854733  energy(sigma->0) =      -32.01854733

 d Force =-0.7440864E-04[-0.324E-03, 0.175E-03]  d Energy = 0.1178209E-02-0.125E-02
 d Force = 0.1846957E+00[ 0.185E+00, 0.185E+00]  d Ewald  =-0.3327821E+01 0.351E+01

 reached required accuracy - stopping structural energy minimisation

 total charge

[...]

 magnetization (x)

# of ion       s       p       d       tot
    1        0.000   0.000   0.000   0.000
    2        0.000   0.000   0.000   0.000
    3       -0.000  -0.000   0.000  -0.000
    4       -0.000  -0.000   0.000  -0.000
    5       -0.000  -0.000   0.000  -0.000
    6       -0.000  -0.000   0.000  -0.000
    7       -0.000  -0.000   0.000  -0.000
    8       -0.000  -0.000   0.000  -0.000
    9       -0.000  -0.000   0.000  -0.000
   10       -0.000  -0.000   0.000  -0.000
tot         -0.000  -0.000   0.000   0.000

 BZINTS: Fermi energy: -1.699977; 64.000000 electrons
         Band energy:-409.640308;  BLOECHL correction: -0.021308