 vasp.5.4.4.18Apr17-6-g9f103f2a35 (build May  1 2020 15:48:39) complex
 executed on             LinuxGNU date 2020.06.26  09:38:36

 INCAR:
 POTCAR:   PAW_PBE Ni 06Sep2000
 POTCAR:   PAW_PBE Ge 05Jan2001
 POTCAR:    PAW_PBE P 17Jan2003
 POTCAR:   PAW_PBE Te 08Apr2002

 POTCAR:   PAW_PBE Ni 06Sep2000
   VRHFIN =Ni:

   TITEL  = PAW_PBE Ni 06Sep2000
   POMASS =   58.690; ZVAL   =   10.000    mass and valenz
   ENMAX  =  269.533; ENMIN  =  202.150 eV
   QCUT   =   -4.451; QGAM   =    8.902    optimization parameters

   Description
     l     E      TYP  RCUT    TYP  RCUT
     2   .000     23  2.300
     2   .000     23  2.300
     0   .000     23  2.300
     0   .000     23  2.300
     1  -.200     23  2.300
     1   .000     23  2.300
     3   .000      7   .000

 POTCAR:   PAW_PBE Ge 05Jan2001
   VRHFIN =Ge: s2p2

   TITEL  = PAW_PBE Ge 05Jan2001
   POMASS =   72.610; ZVAL   =    4.000    mass and valenz
   ENMAX  =  173.807; ENMIN  =  130.355 eV
   QCUT   =   -3.574; QGAM   =    7.148    optimization parameters

[...]

 POTCAR:    PAW_PBE P 17Jan2003
   VRHFIN =P : s2p3

   TITEL  = PAW_PBE P 17Jan2003
   POMASS =   30.974; ZVAL   =    5.000    mass and valenz
   ENMAX  =  270.000; ENMIN  =  191.280 eV
   QCUT   =   -4.330; QGAM   =    8.659    optimization parameters

[...]

 POTCAR:   PAW_PBE Te 08Apr2002
   VRHFIN =Te: s2p4

   TITEL  = PAW_PBE Te 08Apr2002
   POMASS =  127.600; ZVAL   =    6.000    mass and valenz
   ENMAX  =  174.982; ENMIN  =  131.236 eV
   QCUT   =   -3.586; QGAM   =    7.172    optimization parameters

   Description
     l     E      TYP  RCUT    TYP  RCUT
     0   .000     23  2.300
     0   .000     23  2.300
     1   .000     23  2.300
     1   .000     23  2.300
     2   .000     23  2.300
     3  -.100     23  2.300

 Optimization of the real space projectors (new method)

 maximal supplied QI-value         = 16.25
 optimisation between [QCUT,QGAM] = [ 11.54, 23.24] = [ 37.28,151.24] Ry
 Optimized for a Real-space Cutoff    1.49 Angstroem

   l    n(q)    QCUT    max X(q) W(low)/X(q) W(high)/X(q)  e(spline)
   2      9    11.539     4.811    0.20E-04    0.14E-04    0.45E-07
   2      9    11.539    15.146    0.24E-03    0.12E-03    0.20E-06
   0     10    11.539    14.357    0.18E-04    0.12E-05    0.14E-07
   0     10    11.539    43.282    0.39E-04    0.17E-04    0.23E-06
   1     10    11.539     5.514    0.99E-05    0.13E-04    0.19E-07
   1     10    11.539     7.697    0.38E-04    0.79E-04    0.91E-07
 Optimization of the real space projectors (new method)

[...]

   l    n(q)    QCUT    max X(q) W(low)/X(q) W(high)/X(q)  e(spline)
   0      8    11.508     6.651    0.19E-04    0.31E-05    0.49E-08
   0      8    11.508    90.285    0.95E-04    0.17E-03    0.51E-07
   1      8    11.508     4.328    0.14E-04    0.32E-04    0.22E-07
   1      8    11.508    54.583    0.16E-03    0.71E-04    0.89E-07
 Optimization of the real space projectors (new method)

 maximal supplied QI-value         = 16.25
 optimisation between [QCUT,QGAM] = [ 11.54, 23.24] = [ 37.28,151.24] Ry
 Optimized for a Real-space Cutoff    1.36 Angstroem

   l    n(q)    QCUT    max X(q) W(low)/X(q) W(high)/X(q)  e(spline)
   0      9    11.539     7.090    0.13E-04    0.25E-05    0.51E-08
   0      9    11.539   101.654    0.53E-04    0.69E-04    0.12E-06
   1      9    11.539     5.276    0.20E-04    0.98E-05    0.24E-07
   1      9    11.539    81.891    0.24E-03    0.13E-04    0.15E-06
   2      9    11.539     5.599    0.30E-04    0.97E-04    0.54E-07

 PAW_PBE Ni 06Sep2000                   :
 PAW_PBE Ge 05Jan2001                   :
  PAW_PBE P 17Jan2003                   :
 PAW_PBE Te 08Apr2002                   :

 POSCAR: Ni2 Ge P Te6
  positions in direct lattice
  velocities in cartesian coordinates
 exchange correlation table for  LEXCH =       42
   RHO(1)=    0.500       N(1)  =     2000
   RHO(2)=  100.500       N(2)  =     4000

 ion  position               nearest neighbor table
   1  0.333  0.333  0.500-   6 2.78   5 2.78   7 2.78   8 2.78  10 2.78   9 2.78
   2  0.667  0.667  0.500-   9 2.78   8 2.78  10 2.78   5 2.78   7 2.78   6 2.78
   3  0.000  0.000  0.448-   4 2.43   8 2.63  10 2.63   9 2.63
   4  0.000  0.000  0.552-   3 2.43   5 2.63   7 2.63   6 2.63
   5  0.626  0.000  0.574-   4 2.63   1 2.78   2 2.78
   6  0.000  0.373  0.574-   4 2.63   1 2.78   2 2.78
   7  0.373  0.626  0.574-   4 2.63   1 2.78   2 2.78
   8  0.374  1.000  0.426-   3 2.63   2 2.78   1 2.78
   9  1.000  0.627  0.426-   3 2.63   2 2.78   1 2.78
  10  0.627  0.374  0.426-   3 2.63   2 2.78   1 2.78

  LATTYP: Found a hexagonal cell.
 ALAT       =     6.9077769333
 C/A-ratio  =     3.3939410937

  Lattice vectors:

 A1 = (   3.4538890000,  -5.9823100000,   0.0000000000)
 A2 = (  -6.9077770000,   0.0000000000,   0.0000000000)
 A3 = (   0.0000000000,   0.0000000000, -23.4445880000)

Analysis of symmetry for initial positions (statically):
 Subroutine PRICEL returns:
 Original cell was already a primitive cell.

 Routine SETGRP: Setting up the symmetry group for a
 hexagonal supercell.

 Subroutine GETGRP returns: Found  3 space group operations
 (whereof  3 operations were pure point group operations)
 out of a pool of 24 trial point group operations.

The static configuration has the point symmetry C_3 .

Analysis of symmetry for dynamics (positions and initial velocities):
 Subroutine PRICEL returns:
 Original cell was already a primitive cell.

[...]

The dynamic configuration has the point symmetry C_3 .

Analysis of constrained symmetry for selective dynamics:
 Subroutine PRICEL returns:
 Original cell was already a primitive cell.

[...]

The constrained configuration has the point symmetry C_3 .

Analysis of structural, dynamic, and magnetic symmetry:
 Subroutine PRICEL returns:
 Original cell was already a primitive cell.

 Routine SETGRP: Setting up the symmetry group for a
 hexagonal supercell.

 Subroutine GETGRP returns: Found  3 space group operations
 (whereof  3 operations were pure point group operations)
 out of a pool of 24 trial point group operations.

The magnetic configuration has the point symmetry C_3 .

 Subroutine INISYM returns: Found  3 space group operations
 (whereof  3 operations are pure point group operations),
 and found     1 'primitive' translations

 KPOINTS: Kpoints from vasprun.xml

Automatic generation of k-mesh.
Space group operators:
 irot       det(A)        alpha          n_x          n_y          n_z        tau_x        tau_y        tau_z
    1     1.000000     0.000000     1.000000     0.000000     0.000000     0.000000     0.000000     0.000000
    2     1.000000   120.000000     0.000000     0.000000     1.000000     0.000000     0.000000     0.000000
    3     1.000000   120.000000     0.000000     0.000000    -1.000000     0.000000     0.000000     0.000000

 Subroutine IBZKPT returns following result:

 Found      5 irreducible k-points:

 Following reciprocal coordinates:
            Coordinates               Weight
  0.000000  0.000000  0.000000      1.000000
  0.200000  0.000000  0.000000      6.000000
  0.400000  0.000000  0.000000      6.000000
  0.400000  0.200000  0.000000      6.000000
 -0.400000  0.200000  0.000000      6.000000

 Following cartesian coordinates:
            Coordinates               Weight
  0.000000  0.000000  0.000000      1.000000
  0.028953 -0.016716  0.000000      6.000000
  0.057906 -0.033432  0.000000      6.000000
  0.057906  0.000000  0.000000      6.000000
 -0.057906  0.066864  0.000000      6.000000

 TETIRR: Found     15 inequivalent tetrahedra from      150

 SYSTEM =  unknown system
 POSCAR =  Ni2 Ge P Te6

 Startparameter for this run:
   NWRITE =      2    write-flag & timer
   PREC   = accura    normal or accurate (medium, high low for compatibility)
   ISTART =      0    job   : 0-new  1-cont  2-samecut
   ICHARG =      2    charge: 1-file 2-atom 10-const
   ISPIN  =      2    spin polarized calculation?
   LNONCOLLINEAR =      F non collinear calculations
   LSORBIT =      F    spin-orbit coupling
   INIWAV =      1    electr: 0-lowe 1-rand  2-diag
   LASPH  =      F    aspherical Exc in radial PAW
   METAGGA=      F    non-selfconsistent MetaGGA calc.

 Electronic Relaxation 1
   ENCUT  =  520.0 eV  38.22 Ry    6.18 a.u.  12.84 12.84 43.59*2*pi/ulx,y,z
   ENINI  =  520.0     initial cutoff
   ENAUG  =  544.6 eV  augmentation charge cutoff
   NELM   =    400;   NELMIN=  2; NELMDL=  0     # of ELM steps
   EDIFF  = 0.1E-03   stopping-criterion for ELM
   LREAL  =      T    real-space projection
   NLSPLINE    = F    spline interpolate recip. space projectors
   LCOMPAT=      F    compatible to vasp.4.4
   GGA_COMPAT  = T    GGA compatible to vasp.4.4-vasp.4.6
   LMAXPAW     = -100 max onsite density
   LMAXMIX     =    2 max onsite mixed and CHGCAR
   VOSKOWN=      0    Vosko Wilk Nusair interpolation
   ROPT   =   -0.00025  -0.00025  -0.00025  -0.00025
 Ionic relaxation
   EDIFFG = 0.1E-02   stopping-criterion for IOM
   NSW    =     99    number of steps for IOM
   NBLOCK =      1;   KBLOCK =     99    inner block; outer block
   IBRION =      2    ionic relax: 0-MD 1-quasi-New 2-CG
   NFREE  =      1    steps in history (QN), initial steepest desc. (CG)
   ISIF   =      3    stress and relaxation
   IWAVPR =     11    prediction:  0-non 1-charg 2-wave 3-comb
   ISYM   =      2    0-nonsym 1-usesym 2-fastsym
   LCORR  =      T    Harris-Foulkes like correction to forces

   POTIM  = 0.5000    time-step for ionic-motion
   TEIN   =    0.0    initial temperature
   TEBEG  =    0.0;   TEEND  =   0.0 temperature during run
   SMASS  =  -3.00    Nose mass-parameter (am)
   estimated Nose-frequenzy (Omega)   =  0.10E-29 period in steps =****** mass=  -0.109E-26a.u.
   SCALEE = 1.0000    scale energy and forces
   NPACO  =    256;   APACO  = 16.0  distance and # of slots for P.C.
   PSTRESS=    0.0 pullay stress

  Mass of Ions in am
   POMASS =  58.69 72.61 30.97127.60
  Ionic Valenz
   ZVAL   =  10.00  4.00  5.00  6.00
  Atomic Wigner-Seitz radii
  virtual crystal weights
   VCA    =   1.00  1.00  1.00  1.00
   NELECT =      65.0000    total number of electrons
   NUPDOWN=      -1.0000    fix difference up-down

 DOS related values:
   EMIN   =  10.00;   EMAX   =-10.00  energy-range for DOS
   EFERMI =   0.00
   ISMEAR =    -5;   SIGMA  =   0.05  broadening in eV -4-tet -1-fermi 0-gaus

 Electronic relaxation 2 (details)
   IALGO  =     38    algorithm
   LDIAG  =      T    sub-space diagonalisation (order eigenvalues)
   LSUBROT=      F    optimize rotation matrix (better conditioning)
   TURBO    =      0    0=normal 1=particle mesh
   IRESTART =      0    0=no restart 2=restart with 2 vectors
   NREBOOT  =      0    no. of reboots
   NMIN     =      0    reboot dimension
   EREF     =   0.00    reference energy to select bands
   IMIX   =      4    mixing-type and parameters
     AMIX     =   0.40;   BMIX     =  1.00
     AMIX_MAG =   1.60;   BMIX_MAG =  1.00
     AMIN     =   0.01
     WC   =   100.;   INIMIX=   1;  MIXPRE=   1;  MAXMIX= -45

 Intra band minimization:
   WEIMIN = 0.0010     energy-eigenvalue tresh-hold
   EBREAK =  0.52E-06  absolut break condition
[...]
  Fock        0.00000     0.00000     0.00000     0.00000     0.00000     0.00000
  Total      -7.01105    -7.01105    -6.21754    -0.00000    -0.00000     0.00000
  in kB     -11.59428   -11.59428   -10.28205    -0.00000    -0.00000     0.00000

 VOLUME and BASIS-vectors are now :
  energy-cutoff  :      520.00
  volume of cell :      968.84
      direct lattice vectors                 reciprocal lattice vectors
     6.907777000 -0.000000000  0.000000000     0.144764372 -0.083579742  0.000000000
     3.453888000  5.982310000  0.000000000     0.000000000  0.167159509 -0.000000000
     0.000000000  0.000000000 23.444588000    -0.000000000  0.000000000  0.042653767

[...]

 FORCES acting on ions
    electron-ion (+dipol)            ewald-force                    non-local-force                 convergence-correction
   0.237E-03 0.109E-03 0.977E+01   0.658E-03 0.396E-03 -.101E+02   -.139E-16 0.000E+00 0.329E+00   -.157E-05 -.933E-06 0.328E-02
   -.223E-03 -.130E-03 0.741E+01   -.658E-03 -.396E-03 -.773E+01   0.000E+00 0.000E+00 0.303E+00   0.162E-05 0.902E-06 0.285E-02
   -.220E-04 -.427E-04 0.199E+03   -.141E-03 -.779E-04 -.199E+03   -.694E-17 -.694E-17 -.916E-02   0.270E-07 0.467E-09 -.100E-01
   0.171E-04 0.428E-04 -.234E+03   0.176E-03 0.974E-04 0.233E+03   -.139E-16 0.000E+00 0.149E+01   -.258E-07 -.262E-08 0.173E-01
   -.183E+02 0.148E+00 -.426E+03   0.153E+02 -.146E+00 0.429E+03   0.314E+01 -.675E-02 -.407E+01   0.654E-02 0.134E-02 0.295E-01
   0.930E+01 0.158E+02 -.426E+03   -.778E+01 -.132E+02 0.429E+03   -.157E+01 -.271E+01 -.407E+01   -.211E-02 -.633E-02 0.295E-01
   0.904E+01 -.160E+02 -.426E+03   -.752E+01 0.133E+02 0.429E+03   -.156E+01 0.272E+01 -.407E+01   -.443E-02 0.499E-02 0.295E-01
   0.254E+02 -.158E+00 0.431E+03   -.219E+02 0.154E+00 -.435E+03   -.303E+01 0.958E-02 0.422E+01   -.533E-02 0.126E-02 -.273E-01
   -.128E+02 -.219E+02 0.431E+03   0.111E+02 0.189E+02 -.435E+03   0.152E+01 0.262E+01 0.422E+01   0.376E-02 0.399E-02 -.273E-01
   -.125E+02 0.220E+02 0.431E+03   0.108E+02 -.191E+02 -.435E+03   0.151E+01 -.263E+01 0.422E+01   0.158E-02 -.525E-02 -.273E-01
   0.722E-04 -.165E-04 -.261E+01   0.000E+00 0.355E-14 0.568E-13   0.666E-15 -.444E-15 0.259E+01   0.631E-07 -.244E-07 0.201E-01

 POSITION                                       TOTAL-FORCE (eV/Angst)
      3.45388      1.99410     11.72054        -0.000000      0.000000     -0.009729
      6.90778      3.98821     11.72405        -0.000000      0.000000     -0.015991
      0.00000      0.00000     10.50824        -0.000000     -0.000000      0.266814
      0.00000      0.00000     12.93635        -0.000000      0.000000      0.086875
      4.32819      0.00251     13.45138         0.100117     -0.003657     -0.655880
      1.29198      2.23274     13.45138        -0.053226     -0.084875     -0.655880
      4.74152      3.74706     13.45138        -0.046891      0.088532     -0.655880
      6.03348      5.97980      9.99321         0.405034      0.006361      0.546557
      9.06969      3.74957      9.99321        -0.197009     -0.353950      0.546557
      5.62015      2.23525      9.99321        -0.208025      0.347590      0.546557
    total drift:                                0.000072     -0.000017      0.002857

  FREE ENERGIE OF THE ION-ELECTRON SYSTEM (eV)
  free  energy   TOTEN  =       -32.31906880 eV

  energy  without entropy=      -32.31906880  energy(sigma->0) =      -32.31906880

[...]

 d Force = 0.1251285E-02[ 0.213E-02, 0.370E-03]  d Energy = 0.2970755E+00-0.296E+00
 d Force = 0.9928210E+00[ 0.103E+01, 0.958E+00]  d Ewald  =-0.3414681E+03 0.342E+03

 Steepest descent step on ions:
 trial-energy change:   -0.297076  1 .order   -0.237233   -0.661149    0.186682
  (g-gl).g = 0.661E+00      g.g   = 0.661E+00  gl.gl    = 0.000E+00
 g(Force)  = 0.381E-03   g(Stress)= 0.661E+00 ortho     = 0.000E+00
 gamma     =   0.00000
 trial     =   1.00000
 opt step  =   0.83746  (harmonic =   0.77981) maximal distance =0.00350987
 next E    =   -32.631059   (d E  =  -0.31199)

[...]

 d Force =-0.3460706E-03[-0.333E-03,-0.359E-03]  d Energy = 0.1187152E-01-0.122E-01
 d Force =-0.1721249E+00[-0.171E+00,-0.173E+00]  d Ewald  = 0.5735190E+02-0.575E+02

[...]

 d Force = 0.1156018E-01[ 0.119E-01, 0.112E-01]  d Energy = 0.4206658E-01-0.305E-01
 d Force = 0.5663194E+01[ 0.568E+01, 0.564E+01]  d Ewald  = 0.2264799E+03-0.221E+03

 Conjugate gradient step on ions:
 trial-energy change:   -0.042067  1 .order   -0.043551   -0.047374   -0.039728
  (g-gl).g = 0.533E-01      g.g   = 0.493E-01  gl.gl    = 0.661E+00
 g(Force)  = 0.116E-01   g(Stress)= 0.377E-01 ortho     =-0.403E-02
 gamma     =   0.08065
 trial     =   0.96749
 opt step  =   3.86997  (harmonic =   5.99433) maximal distance =0.09267413
 next E    =   -32.774774   (d E  =  -0.14676)

[...]

 d Force = 0.3979788E-01[ 0.448E-01, 0.348E-01]  d Energy = 0.7856924E-01-0.388E-01
 d Force = 0.1674783E+02[ 0.169E+02, 0.166E+02]  d Ewald  = 0.6676568E+03-0.651E+03

[...]

 d Force = 0.9548374E-02[ 0.975E-02, 0.934E-02]  d Energy =-0.5474321E-02 0.150E-01
 d Force = 0.3532794E+01[ 0.354E+01, 0.353E+01]  d Ewald  = 0.1328238E+03-0.129E+03

[...]

 d Force = 0.2023919E-01[ 0.211E-01, 0.193E-01]  d Energy =-0.1730961E-01 0.375E-01
 d Force = 0.7041404E+01[ 0.707E+01, 0.702E+01]  d Ewald  = 0.2635869E+03-0.257E+03

[...]

 d Force =-0.1202299E-01[-0.117E-01,-0.124E-01]  d Energy = 0.1397111E-01-0.260E-01
 d Force =-0.4126517E+01[-0.412E+01,-0.413E+01]  d Ewald  =-0.1498904E+03 0.146E+03

[...]

 d Force =-0.4247422E-02[-0.421E-02,-0.429E-02]  d Energy = 0.2495725E-02-0.674E-02
 d Force =-0.1511323E+01[-0.151E+01,-0.151E+01]  d Ewald  =-0.5560245E+02 0.541E+02

[...]

 d Force = 0.1790344E-01[-0.302E-02, 0.388E-01]  d Energy = 0.2558356E-01-0.768E-02
 d Force = 0.1393529E+02[ 0.140E+02, 0.139E+02]  d Ewald  =-0.6654399E+02 0.805E+02

 Steepest descent step on ions:
 trial-energy change:   -0.025584  1 .order   -0.054295   -0.090886   -0.017704
  (g-gl).g = 0.580E-01      g.g   = 0.579E-01  gl.gl    = 0.493E-01
 g(Force)  = 0.243E-01   g(Stress)= 0.336E-01 ortho     =-0.102E-01
 gamma     =   0.00000
 trial     =   1.56960
 opt step  =   1.94932  (harmonic =   1.94932) maximal distance =0.06659080
 next E    =   -32.798771   (d E  =  -0.05644)

[...]

 d Force =-0.1748883E-02[-0.278E-02,-0.722E-03]  d Energy =-0.1898395E-01 0.172E-01
 d Force = 0.3349584E+01[ 0.335E+01, 0.334E+01]  d Ewald  =-0.1566242E+02 0.190E+02

[...]

 d Force = 0.9868684E-03[ 0.828E-03, 0.115E-02]  d Energy = 0.5847931E-02-0.486E-02
 d Force =-0.1383231E+01[-0.138E+01,-0.138E+01]  d Ewald  = 0.6483960E+01-0.787E+01

[...]

 d Force = 0.4530233E-03[-0.629E-04, 0.969E-03]  d Energy = 0.8721408E-02-0.827E-02
 d Force =-0.1641431E+01[-0.166E+01,-0.162E+01]  d Ewald  =-0.9981983E+02 0.982E+02

 Steepest descent step on ions:
 trial-energy change:   -0.008721  1 .order   -0.023206   -0.093458    0.047045
  (g-gl).g = 0.167E+00      g.g   = 0.110E+00  gl.gl    = 0.579E-01
 g(Force)  = 0.115E-02   g(Stress)= 0.108E+00 ortho     =-0.580E-01
 gamma     =   0.00000
 trial     =   0.85333
 opt step  =   0.43571  (harmonic =   0.56760) maximal distance =0.00002725
 next E    =   -32.776713   (d E  =  -0.02193)

[...]

 d Force =-0.1055843E-03[-0.242E-03, 0.313E-04]  d Energy = 0.8080712E-02-0.819E-02
 d Force = 0.8205460E+00[ 0.816E+00, 0.825E+00]  d Ewald  = 0.4917683E+02-0.484E+02

[...]

 d Force =-0.1113218E-03[-0.132E-03,-0.905E-04]  d Energy =-0.4142137E-02 0.403E-02
 d Force = 0.3043307E+00[ 0.304E+00, 0.305E+00]  d Ewald  = 0.1826693E+02-0.180E+02

[...]

 eigenvalue-minimisations  :  1072
 total energy-change (2. order) : 0.1061003E-02  (-0.3375371E-03)
 number of electron      65.0000005 magnetization       0.0052097
 augmentation part        4.0763672 magnetization       0.0009921

[...]

 Broyden mixing:
  rms(total) = 0.31103E-02    rms(broyden)= 0.31067E-02
  rms(prec ) = 0.37220E-02
  weight for this iteration     100.00

 eigenvalues of (default mixing * dielectric matrix)
  average eigenvalue GAMMA=   0.7733
  1.7752  1.0522  0.6665  0.2511  0.1215

[...]

--------------------------------------- Iteration     16(   7)  ---------------------------------------

[...]

 eigenvalue-minimisations  :   720
 total energy-change (2. order) :-0.2854768E-04  (-0.6903683E-05)
 number of electron      65.0000005 magnetization       0.0046841
 augmentation part        4.0923744 magnetization       0.0046753

 Free energy of the ion-electron system (eV)
  alpha Z        PSCENC =        21.98426961
  Ewald energy   TEWEN  =      7655.32650819
  -Hartree energ DENC   =    -11099.53437710
  -exchange      EXHF   =         0.00000000
  -V(xc)+E(xc)   XCENC  =      -118.14826943
  PAW double counting   =      2567.14734341    -2438.38663429
  entropy T*S    EENTRO =         0.00000000
  eigenvalues    EBANDS =      -414.19526263
  atomic energy  EATOM  =      3793.03632354
  Solvation  Ediel_sol  =         0.00000000
  free energy    TOTEN  =       -32.77009871 eV

  energy without entropy =      -32.77009871  energy(sigma->0) =      -32.77009871

 average (electrostatic) potential at core
  the test charge radii are     0.9791  1.1631  0.9587  1.1897
  (the norm of the test charge is              1.0000)
       1 -48.9206       2 -48.9210       3 -38.9612       4 -91.4977       5 -96.6526
       6 -96.6526       7 -96.6525       8 -96.4446       9 -96.4446      10 -96.4446

 E-fermi :  -1.5990     XC(G=0):  -3.8667     alpha+bet : -3.2486

[...]

 spin component 2

[...]

 k-point     5 :      -0.4000    0.2000    0.0000
  band No.  band energies     occupation
      1     -14.8020      1.00000
      2     -13.7856      1.00000
      3     -13.5074      1.00000
      4     -13.3768      1.00000
      5     -12.9998      1.00000
      6     -12.8508      1.00000
      7     -10.9751      1.00000
      8      -9.3057      1.00000
      9      -6.9731      1.00000
     10      -6.5480      1.00000
     11      -6.2912      1.00000
     12      -5.7509      1.00000
     13      -5.7002      1.00000
     14      -5.2142      1.00000
     15      -5.0857      1.00000
     16      -4.9209      1.00000
     17      -4.8347      1.00000
     18      -4.6633      1.00000
     19      -4.5857      1.00000
     20      -4.3925      1.00000
     21      -4.2933      1.00000
     22      -3.9099      1.00000
     23      -3.6489      1.00000
     24      -3.5132      1.00000
     25      -3.4774      1.00000
     26      -3.3751      1.00000
     27      -3.2397      1.00000
     28      -3.1184      1.00000
     29      -3.0677      1.00000
     30      -3.0169      1.00000
     31      -2.8394      1.00000
     32      -1.8938      1.00000
     33      -1.7256      1.01429
     34      -1.5714      0.00000
     35      -1.1676      0.00000
     36      -1.0129      0.00000
     37      -0.4439      0.00000
     38       0.1131      0.00000
     39       0.5520      0.00000
     40       1.1948      0.00000
     41       1.3946      0.00000
     42       1.4921      0.00000
     43       2.5298      0.00000
     44       2.8759      0.00000
     45       2.8913      0.00000
     46       3.0254      0.00000
     47       3.0564      0.00000
     48       3.5855      0.00000

[...]

 soft charge-density along one line, spin component           2
         0         1         2         3         4         5         6         7         8         9
 total charge-density along one line

------------------------ aborting loop because EDIFF is reached ----------------------------------------

[...]

  FORCE on cell =-STRESS in cart. coord.  units (eV):
  Direction    XX          YY          ZZ          XY          YZ          ZX
  Alpha Z    21.98427    21.98427    21.98427
  Ewald    9712.90600  9712.90341-11770.48723    -0.00225    -0.00059    -0.00108
  Hartree 10453.82373 10453.82487 -9806.19255    -0.00040     0.00009     0.00015
  E(xc)    -284.75009  -284.75019  -284.61173     0.00012     0.00001     0.00002
  Local  -21041.99867-21041.99817 20665.63392     0.00238     0.00038     0.00072
  n-local   666.87715   666.76635   678.60808    -0.33151     0.64257     0.60118
  augment   -64.58397   -64.58324   -71.80936    -0.00045    -0.00047     0.00037
  Kinetic   539.56153   530.90819   565.94109    -5.03556    -0.51635    -0.80053
  Fock        0.00000     0.00000     0.00000     0.00000     0.00000     0.00000
  Total      -0.56229    -0.56229    -0.93352    -0.00000     0.00000     0.00000
  in kB      -1.03134    -1.03134    -1.71224    -0.00000     0.00000     0.00000

 VOLUME and BASIS-vectors are now :
  energy-cutoff  :      520.00
  volume of cell :      873.52
      direct lattice vectors                 reciprocal lattice vectors
     6.813241087  0.000000155  0.000000000     0.146773026 -0.084739435 -0.000000000
     3.406619932  5.900439592  0.000000000    -0.000000004  0.169478900  0.000000000
     0.000000000 -0.000000000 21.728732750    -0.000000000 -0.000000000  0.046022012

  length of vectors
     6.813241087  6.813240546 21.728732750     0.169478887  0.169478900  0.046022012

 FORCES acting on ions
    electron-ion (+dipol)            ewald-force                    non-local-force                 convergence-correction
   0.102E-03 0.453E-04 0.139E+02   0.719E-03 0.433E-03 -.143E+02   0.530E-20 -.139E-16 0.323E+00   0.406E-06 0.205E-06 -.430E-02
   -.109E-03 -.459E-04 0.114E+02   -.715E-03 -.431E-03 -.117E+02   0.694E-17 -.312E-19 0.275E+00   -.383E-06 -.222E-06 -.334E-02
   -.315E-04 -.185E-04 0.200E+03   -.144E-03 -.795E-04 -.199E+03   -.347E-17 0.147E-19 -.130E+00   0.754E-08 0.114E-07 -.103E-01
   0.470E-04 0.186E-04 -.260E+03   0.196E-03 0.109E-03 0.261E+03   0.139E-16 0.278E-16 -.375E+00   -.900E-08 0.621E-08 0.123E-01
   -.207E+02 0.160E+00 -.424E+03   0.182E+02 -.163E+00 0.428E+03   0.211E+01 -.598E-02 -.371E+01   -.448E-02 0.466E-02 0.131E-01
   0.105E+02 0.179E+02 -.424E+03   -.926E+01 -.157E+02 0.428E+03   -.106E+01 -.182E+01 -.371E+01   0.628E-02 0.155E-02 0.131E-01
   0.102E+02 -.180E+02 -.424E+03   -.898E+01 0.159E+02 0.428E+03   -.105E+01 0.183E+01 -.371E+01   -.180E-02 -.621E-02 0.131E-01
   0.306E+02 -.179E+00 0.436E+03   -.274E+02 0.172E+00 -.440E+03   -.270E+01 0.105E-01 0.409E+01   0.375E-02 0.476E-02 -.158E-01
   -.154E+02 -.264E+02 0.436E+03   0.138E+02 0.236E+02 -.440E+03   0.136E+01 0.233E+01 0.409E+01   0.225E-02 -.563E-02 -.158E-01
   -.151E+02 0.266E+02 0.436E+03   0.135E+02 -.238E+02 -.440E+03   0.134E+01 -.234E+01 0.409E+01   -.600E-02 0.865E-03 -.158E-01
   0.705E-04 0.194E-05 -.124E+01   0.000E+00 -.355E-14 -.568E-13   -.222E-15 0.444E-15 0.122E+01   0.535E-07 0.825E-08 -.138E-01

 POSITION                                       TOTAL-FORCE (eV/Angst)
      3.40662      1.96681     10.86738        -0.000000      0.000000     -0.005500
      6.81324      3.93363     10.87072        -0.000000      0.000000     -0.004962
      0.00000     -0.00000      9.73917        -0.000000     -0.000000      0.256432
     -0.00000     -0.00000     12.16122        -0.000000      0.000000     -0.098564
      4.26895      0.00248     12.46690        -0.393522     -0.003529     -0.072536
      1.27429      2.20219     12.46690         0.193705      0.342564     -0.072536
      4.67663      3.69578     12.46690         0.199817     -0.339035     -0.072536
      5.95091      5.89796      9.26183         0.512743      0.006938      0.023401
      8.94557      3.69825      9.26183        -0.250363     -0.447517      0.023401
      5.54324      2.20466      9.26183        -0.262380      0.440579      0.023401
    total drift:                                0.000071      0.000002     -0.035340

  FREE ENERGIE OF THE ION-ELECTRON SYSTEM (eV)
  free  energy   TOTEN  =       -32.77009871 eV

  energy  without entropy=      -32.77009871  energy(sigma->0) =      -32.77009871

 d Force = 0.6265314E-04[ 0.583E-04, 0.670E-04]  d Energy = 0.2656636E-02-0.259E-02
 d Force =-0.1542515E+00[-0.154E+00,-0.154E+00]  d Ewald  =-0.9283919E+01 0.913E+01

 reached required accuracy - stopping structural energy minimisation

 total charge

[...]

 magnetization (x)

# of ion       s       p       d       tot
    1       -0.000   0.001  -0.247  -0.247
    2        0.000  -0.001   0.248   0.247
    3       -0.000  -0.000   0.000  -0.000
    4        0.000   0.000   0.000   0.000
    5        0.001   0.011  -0.000   0.012
    6        0.000  -0.001   0.000  -0.001
    7       -0.001  -0.010   0.000  -0.011
    8       -0.000   0.006   0.000   0.006
    9       -0.000   0.003   0.000   0.003
   10        0.000  -0.008  -0.000  -0.008
tot          0.000   0.000   0.000   0.001

 BZINTS: Fermi energy: -1.599048; 65.000000 electrons
         Band energy:-414.195263;  BLOECHL correction: -0.025108