 vasp.5.4.4.18Apr17-6-g9f103f2a35 (build May  1 2020 15:48:39) complex
 executed on             LinuxGNU date 2020.07.10  09:19:07

 INCAR:
 POTCAR:   PAW_PBE Mn 06Sep2000
 POTCAR:   PAW_PBE Ge 05Jan2001
 POTCAR:   PAW_PBE Si 05Jan2001
 POTCAR:    PAW_PBE S 17Jan2003

 POTCAR:   PAW_PBE Mn 06Sep2000
   VRHFIN =Mn: d6 s1

   TITEL  = PAW_PBE Mn 06Sep2000
   POMASS =   54.938; ZVAL   =    7.000    mass and valenz
   ENMAX  =  269.865; ENMIN  =  202.399 eV
   QCUT   =   -4.454; QGAM   =    8.907    optimization parameters

   Description
     l     E      TYP  RCUT    TYP  RCUT
     2   .000     23  2.300
     2   .000     23  2.300
     0   .000     23  2.300
     0   .000     23  2.300
     1  -.200     23  2.300
     1  1.500     23  2.300
     3   .000      7   .000

 POTCAR:   PAW_PBE Ge 05Jan2001
   VRHFIN =Ge: s2p2

   TITEL  = PAW_PBE Ge 05Jan2001
   POMASS =   72.610; ZVAL   =    4.000    mass and valenz
   ENMAX  =  173.807; ENMIN  =  130.355 eV
   QCUT   =   -3.574; QGAM   =    7.148    optimization parameters

[...]

 POTCAR:   PAW_PBE Si 05Jan2001
   VRHFIN =Si: s2p2

[...]

 POTCAR:    PAW_PBE S 17Jan2003
   VRHFIN =S : s2p4

   TITEL  = PAW_PBE S 17Jan2003
   POMASS =   32.066; ZVAL   =    6.000    mass and valenz
   ENMAX  =  280.000; ENMIN  =  194.016 eV
   QCUT   =   -4.360; QGAM   =    8.721    optimization parameters

   Description
     l     E      TYP  RCUT    TYP  RCUT
     0   .000     23  1.900
     0   .000     23  1.900
     1   .000     23  1.900
     1   .000     23  1.900
     2   .000     23  1.900

 Optimization of the real space projectors (new method)

 maximal supplied QI-value         = 16.25
 optimisation between [QCUT,QGAM] = [ 11.54, 23.24] = [ 37.28,151.24] Ry
 Optimized for a Real-space Cutoff    1.53 Angstroem

   l    n(q)    QCUT    max X(q) W(low)/X(q) W(high)/X(q)  e(spline)
   2     10    11.539     4.144    0.87E-05    0.14E-04    0.48E-07
   2     10    11.539    35.116    0.12E-03    0.13E-03    0.25E-06
   0     11    11.539    20.431    0.20E-04    0.18E-05    0.19E-07
   0     11    11.539    61.159    0.37E-04    0.19E-04    0.29E-06
   1     10    11.539     6.695    0.11E-04    0.24E-05    0.29E-07
   1     10    11.539     8.642    0.41E-04    0.18E-04    0.11E-06
 Optimization of the real space projectors (new method)

[...]

   l    n(q)    QCUT    max X(q) W(low)/X(q) W(high)/X(q)  e(spline)
   0      8    11.508     8.708    0.18E-04    0.44E-05    0.47E-08
   0      8    11.508   106.241    0.70E-04    0.15E-03    0.51E-07
   1      8    11.508     5.901    0.63E-05    0.23E-04    0.21E-07
   1      8    11.508    73.241    0.15E-03    0.36E-04    0.79E-07
 Optimization of the real space projectors (new method)

 maximal supplied QI-value         = 19.84
 optimisation between [QCUT,QGAM] = [ 11.51, 23.22] = [ 37.09,150.92] Ry
 Optimized for a Real-space Cutoff    1.21 Angstroem

   l    n(q)    QCUT    max X(q) W(low)/X(q) W(high)/X(q)  e(spline)
   0      8    11.508     5.487    0.18E-04    0.22E-05    0.47E-08
   0      8    11.508    85.627    0.96E-04    0.18E-03    0.54E-07
   1      8    11.508     3.530    0.17E-04    0.28E-04    0.21E-07
   1      8    11.508    42.714    0.18E-03    0.63E-04    0.92E-07

 PAW_PBE Mn 06Sep2000                   :
 PAW_PBE Ge 05Jan2001                   :
 PAW_PBE Si 05Jan2001                   :
  PAW_PBE S 17Jan2003                   :

 POSCAR: Mn2 Ge Si S6
  positions in direct lattice
  velocities in cartesian coordinates
 exchange correlation table for  LEXCH =       42
   RHO(1)=    0.500       N(1)  =     2000
   RHO(2)=  100.500       N(2)  =     4000

 ion  position               nearest neighbor table
   1  0.333  0.333  0.500-   6 2.78   5 2.78   7 2.78   8 2.78  10 2.78   9 2.78
   2  0.667  0.667  0.500-   9 2.78   8 2.78  10 2.78   5 2.78   7 2.78   6 2.78
   3  0.000  0.000  0.448-   4 2.43   8 2.63  10 2.63   9 2.63
   4  0.000  0.000  0.552-   3 2.43   5 2.63   7 2.63   6 2.63
   5  0.626  0.000  0.574-   4 2.63   1 2.78   2 2.78
   6  0.000  0.373  0.574-   4 2.63   1 2.78   2 2.78
   7  0.373  0.626  0.574-   4 2.63   1 2.78   2 2.78
   8  0.374  1.000  0.426-   3 2.63   2 2.78   1 2.78
   9  1.000  0.627  0.426-   3 2.63   2 2.78   1 2.78
  10  0.627  0.374  0.426-   3 2.63   2 2.78   1 2.78

  LATTYP: Found a hexagonal cell.
 ALAT       =     6.9077769333
 C/A-ratio  =     3.3939410937

  Lattice vectors:

 A1 = (   3.4538890000,  -5.9823100000,   0.0000000000)
 A2 = (  -6.9077770000,   0.0000000000,   0.0000000000)
 A3 = (   0.0000000000,   0.0000000000, -23.4445880000)

Analysis of symmetry for initial positions (statically):
 Subroutine PRICEL returns:
 Original cell was already a primitive cell.

 Routine SETGRP: Setting up the symmetry group for a
 hexagonal supercell.

 Subroutine GETGRP returns: Found  3 space group operations
 (whereof  3 operations were pure point group operations)
 out of a pool of 24 trial point group operations.

The static configuration has the point symmetry C_3 .

Analysis of symmetry for dynamics (positions and initial velocities):
 Subroutine PRICEL returns:
 Original cell was already a primitive cell.

[...]

The dynamic configuration has the point symmetry C_3 .

Analysis of constrained symmetry for selective dynamics:
 Subroutine PRICEL returns:
 Original cell was already a primitive cell.

[...]

The constrained configuration has the point symmetry C_3 .

Analysis of structural, dynamic, and magnetic symmetry:
 Subroutine PRICEL returns:
 Original cell was already a primitive cell.

 Routine SETGRP: Setting up the symmetry group for a
 hexagonal supercell.

 Subroutine GETGRP returns: Found  3 space group operations
 (whereof  3 operations were pure point group operations)
 out of a pool of 24 trial point group operations.

The magnetic configuration has the point symmetry C_3 .

 Subroutine INISYM returns: Found  3 space group operations
 (whereof  3 operations are pure point group operations),
 and found     1 'primitive' translations

 KPOINTS: Kpoints from vasprun.xml

Automatic generation of k-mesh.
Space group operators:
 irot       det(A)        alpha          n_x          n_y          n_z        tau_x        tau_y        tau_z
    1     1.000000     0.000000     1.000000     0.000000     0.000000     0.000000     0.000000     0.000000
    2     1.000000   120.000000     0.000000     0.000000     1.000000     0.000000     0.000000     0.000000
    3     1.000000   120.000000     0.000000     0.000000    -1.000000     0.000000     0.000000     0.000000

 Subroutine IBZKPT returns following result:

 Found      5 irreducible k-points:

 Following reciprocal coordinates:
            Coordinates               Weight
  0.000000  0.000000  0.000000      1.000000
  0.200000  0.000000  0.000000      6.000000
  0.400000  0.000000  0.000000      6.000000
  0.400000  0.200000  0.000000      6.000000
 -0.400000  0.200000  0.000000      6.000000

 Following cartesian coordinates:
            Coordinates               Weight
  0.000000  0.000000  0.000000      1.000000
  0.028953 -0.016716  0.000000      6.000000
  0.057906 -0.033432  0.000000      6.000000
  0.057906  0.000000  0.000000      6.000000
 -0.057906  0.066864  0.000000      6.000000

 TETIRR: Found     15 inequivalent tetrahedra from      150

 SYSTEM =  unknown system
 POSCAR =  Mn2 Ge Si S6

 Startparameter for this run:
   NWRITE =      2    write-flag & timer
   PREC   = accura    normal or accurate (medium, high low for compatibility)
   ISTART =      0    job   : 0-new  1-cont  2-samecut
   ICHARG =      2    charge: 1-file 2-atom 10-const
   ISPIN  =      2    spin polarized calculation?
   LNONCOLLINEAR =      F non collinear calculations
   LSORBIT =      F    spin-orbit coupling
   INIWAV =      1    electr: 0-lowe 1-rand  2-diag
   LASPH  =      F    aspherical Exc in radial PAW
   METAGGA=      F    non-selfconsistent MetaGGA calc.

 Electronic Relaxation 1
   ENCUT  =  520.0 eV  38.22 Ry    6.18 a.u.  12.84 12.84 43.59*2*pi/ulx,y,z
   ENINI  =  520.0     initial cutoff
   ENAUG  =  500.7 eV  augmentation charge cutoff
   NELM   =    400;   NELMIN=  2; NELMDL=  0     # of ELM steps
   EDIFF  = 0.1E-03   stopping-criterion for ELM
   LREAL  =      T    real-space projection
   NLSPLINE    = F    spline interpolate recip. space projectors
   LCOMPAT=      F    compatible to vasp.4.4
   GGA_COMPAT  = T    GGA compatible to vasp.4.4-vasp.4.6
   LMAXPAW     = -100 max onsite density
   LMAXMIX     =    2 max onsite mixed and CHGCAR
   VOSKOWN=      0    Vosko Wilk Nusair interpolation
   ROPT   =   -0.00025  -0.00025  -0.00025  -0.00025
 Ionic relaxation
   EDIFFG = 0.1E-02   stopping-criterion for IOM
   NSW    =     99    number of steps for IOM
   NBLOCK =      1;   KBLOCK =     99    inner block; outer block
   IBRION =      2    ionic relax: 0-MD 1-quasi-New 2-CG
   NFREE  =      1    steps in history (QN), initial steepest desc. (CG)
   ISIF   =      3    stress and relaxation
   IWAVPR =     11    prediction:  0-non 1-charg 2-wave 3-comb
   ISYM   =      2    0-nonsym 1-usesym 2-fastsym
   LCORR  =      T    Harris-Foulkes like correction to forces

   POTIM  = 0.5000    time-step for ionic-motion
   TEIN   =    0.0    initial temperature
   TEBEG  =    0.0;   TEEND  =   0.0 temperature during run
   SMASS  =  -3.00    Nose mass-parameter (am)
   estimated Nose-frequenzy (Omega)   =  0.10E-29 period in steps =****** mass=  -0.109E-26a.u.
   SCALEE = 1.0000    scale energy and forces
   NPACO  =    256;   APACO  = 16.0  distance and # of slots for P.C.
   PSTRESS=    0.0 pullay stress

  Mass of Ions in am
   POMASS =  54.94 72.61 28.09 32.07
  Ionic Valenz
   ZVAL   =   7.00  4.00  4.00  6.00
  Atomic Wigner-Seitz radii
  virtual crystal weights
   VCA    =   1.00  1.00  1.00  1.00
   NELECT =      58.0000    total number of electrons
   NUPDOWN=      -1.0000    fix difference up-down

 DOS related values:
   EMIN   =  10.00;   EMAX   =-10.00  energy-range for DOS
   EFERMI =   0.00
   ISMEAR =    -5;   SIGMA  =   0.05  broadening in eV -4-tet -1-fermi 0-gaus

 Electronic relaxation 2 (details)
   IALGO  =     38    algorithm
   LDIAG  =      T    sub-space diagonalisation (order eigenvalues)
   LSUBROT=      F    optimize rotation matrix (better conditioning)
   TURBO    =      0    0=normal 1=particle mesh
   IRESTART =      0    0=no restart 2=restart with 2 vectors
   NREBOOT  =      0    no. of reboots
   NMIN     =      0    reboot dimension
   EREF     =   0.00    reference energy to select bands
   IMIX   =      4    mixing-type and parameters
     AMIX     =   0.40;   BMIX     =  1.00
     AMIX_MAG =   1.60;   BMIX_MAG =  1.00
     AMIN     =   0.01
     WC   =   100.;   INIMIX=   1;  MIXPRE=   1;  MAXMIX= -45

 Intra band minimization:
   WEIMIN = 0.0010     energy-eigenvalue tresh-hold
   EBREAK =  0.52E-06  absolut break condition
   DEPER  =   0.30     relativ break condition

   TIME   =   0.40     timestep for ELM

  volume/ion in A,a.u.               =      96.88       653.80
  Fermi-wavevector in a.u.,A,eV,Ry     =   0.640424  1.210226  5.580332  0.410143
  Thomas-Fermi vector in A             =   1.706427

 Write flags
[...]
     48       2.0965      0.00000

[...]

 soft charge-density along one line, spin component           1
         0         1         2         3         4         5         6         7         8         9
 total charge-density along one line

[...]

------------------------ aborting loop because EDIFF is reached ----------------------------------------

 total charge

# of ion       s       p       d       tot
    1        0.207   0.167   4.809   5.183
    2        0.207   0.167   4.808   5.182
    3        1.192   0.873   0.058   2.123
    4        0.820   0.610   0.000   1.430
    5        1.379   2.179   0.000   3.558
    6        1.377   2.214   0.000   3.591
    7        1.378   2.189   0.000   3.567
    8        1.380   2.184   0.000   3.563
    9        1.377   2.217   0.000   3.594
   10        1.379   2.193   0.000   3.572
tot         10.696  14.992   9.675  35.364

 magnetization (x)

[...]

  FORCE on cell =-STRESS in cart. coord.  units (eV):
  Direction    XX          YY          ZZ          XY          YZ          ZX
  Alpha Z    21.83953    21.83953    21.83953
  Ewald    8032.18009  8032.17807 -9574.01225    -0.00129    -0.00041    -0.00075
  Hartree  8555.11233  8555.11279 -8221.23152    -0.00016     0.00005     0.00007
  E(xc)    -218.50847  -218.50851  -218.14585     0.00004    -0.00000     0.00001
  Local  -17440.13777-17440.13717 16910.19843     0.00120     0.00024     0.00045
  n-local   434.00086   435.93022   445.83785     0.85386     0.06721    -0.22127
  augment   -45.65329   -45.65315   -49.06799    -0.00007    -0.00002     0.00004
  Kinetic   634.99459   631.77888   671.38673    -1.94904    -0.53576    -1.34450
  Fock        0.00000     0.00000     0.00000     0.00000     0.00000     0.00000
  Total     -26.81574   -26.81573   -13.19507     0.00000     0.00000     0.00000
  in kB     -44.34560   -44.34559   -21.82090     0.00000     0.00000     0.00000

 VOLUME and BASIS-vectors are now :
  energy-cutoff  :      520.00
  volume of cell :      968.84
      direct lattice vectors                 reciprocal lattice vectors
     6.907777000 -0.000000000  0.000000000     0.144764372 -0.083579742  0.000000000
     3.453888000  5.982310000  0.000000000     0.000000000  0.167159509 -0.000000000
     0.000000000  0.000000000 23.444588000    -0.000000000  0.000000000  0.042653767

[...]

 FORCES acting on ions
    electron-ion (+dipol)            ewald-force                    non-local-force                 convergence-correction
   0.195E-03 0.922E-04 0.703E+00   0.380E-03 0.228E-03 -.767E+00   0.173E-17 -.867E-18 0.318E-01   0.430E-05 0.247E-05 -.728E-03
   -.193E-03 -.109E-03 -.863E+00   -.380E-03 -.228E-03 0.767E+00   -.867E-18 0.000E+00 0.541E-01   -.437E-05 -.252E-05 -.807E-03
   -.300E-04 0.111E-04 0.167E+03   -.141E-03 -.779E-04 -.165E+03   -.173E-17 -.347E-17 -.307E+01   -.793E-06 -.402E-06 0.166E-01
   0.247E-04 0.110E-04 -.170E+03   0.141E-03 0.779E-04 0.165E+03   0.000E+00 0.000E+00 0.614E+01   0.770E-06 0.419E-06 -.152E-01
   -.121E+02 0.168E+00 -.360E+03   0.914E+01 -.153E+00 0.363E+03   0.445E+01 -.131E-01 -.461E+01   -.924E-02 -.788E-02 -.384E-01
   0.618E+01 0.104E+02 -.360E+03   -.470E+01 -.784E+01 0.363E+03   -.224E+01 -.385E+01 -.461E+01   -.221E-02 0.119E-01 -.384E-01
   0.589E+01 -.105E+02 -.360E+03   -.444E+01 0.800E+01 0.363E+03   -.221E+01 0.386E+01 -.461E+01   0.114E-01 -.406E-02 -.384E-01
   0.120E+02 -.149E+00 0.360E+03   -.914E+01 0.153E+00 -.363E+03   -.382E+01 0.917E-02 0.455E+01   0.103E-01 -.778E-02 0.406E-01
   -.610E+01 -.103E+02 0.360E+03   0.470E+01 0.784E+01 -.363E+03   0.192E+01 0.331E+01 0.455E+01   -.119E-01 -.507E-02 0.406E-01
   -.584E+01 0.104E+02 0.360E+03   0.444E+01 -.800E+01 -.363E+03   0.190E+01 -.331E+01 0.455E+01   0.157E-02 0.128E-01 0.406E-01
   0.672E-05 0.234E-04 -.296E+01   -.622E-14 0.115E-13 -.568E-13   -.888E-15 -.444E-15 0.295E+01   -.806E-07 -.165E-07 0.650E-02

 POSITION                                       TOTAL-FORCE (eV/Angst)
      3.45388      1.99410     11.72054         0.000000     -0.000000     -0.033028
      6.90778      3.98821     11.72405         0.000000     -0.000000     -0.042740
      0.00000      0.00000     10.50824         0.000000      0.000000     -0.589239
      0.00000      0.00000     12.93635         0.000000      0.000000      0.880927
      4.32819      0.00251     13.45138         1.513538     -0.005176     -1.455379
      1.29198      2.23274     13.45138        -0.761252     -1.308174     -1.455379
      4.74152      3.74706     13.45138        -0.752286      1.313351     -1.455379
      6.03348      5.97980      9.99321        -1.005030      0.003833      1.383405
      9.06969      3.74957      9.99321         0.505835      0.868465      1.383405
      5.62015      2.23525      9.99321         0.499195     -0.872298      1.383405
    total drift:                                0.000007      0.000023      0.000569

  FREE ENERGIE OF THE ION-ELECTRON SYSTEM (eV)
  free  energy   TOTEN  =       -46.84436701 eV

  energy  without entropy=      -46.84436701  energy(sigma->0) =      -46.84436701

[...]

 d Force = 0.5640240E+00[ 0.131E+00, 0.998E+00]  d Energy = 0.5756260E+01-0.519E+01
 d Force =-0.1529865E+03[-0.176E+03,-0.130E+03]  d Ewald  =-0.1967975E+04 0.181E+04

 Steepest descent step on ions:
 trial-energy change:   -5.756260  1 .order   -4.777746   -8.876902   -0.678591
  (g-gl).g = 0.888E+01      g.g   = 0.888E+01  gl.gl    = 0.000E+00
 g(Force)  = 0.110E+01   g(Stress)= 0.778E+01 ortho     = 0.000E+00
 gamma     =   0.00000
 trial     =   1.00000
 opt step  =   1.04730  (harmonic =   1.08277) maximal distance =0.07647067
 next E    =   -52.616779   (d E  =  -5.77241)

[...]

 d Force =-0.4419384E-03[-0.526E-03,-0.358E-03]  d Energy =-0.3550942E-03-0.868E-04
 d Force = 0.1608942E+01[ 0.161E+01, 0.161E+01]  d Ewald  = 0.2077685E+02-0.192E+02

[...]

 d Force = 0.7680933E-01[ 0.459E-01, 0.108E+00]  d Energy = 0.7682964E-01-0.203E-04
 d Force =-0.3895445E-01[-0.295E+00, 0.217E+00]  d Ewald  =-0.2393287E+01 0.235E+01

 Conjugate gradient step on ions:
 trial-energy change:   -0.076830  1 .order   -0.076505   -0.107481   -0.045529
  (g-gl).g = 0.136E+00      g.g   = 0.107E+00  gl.gl    = 0.888E+01
 g(Force)  = 0.106E+00   g(Stress)= 0.107E-02 ortho     =-0.285E-01
 gamma     =   0.01528
 trial     =   1.00777
 opt step  =   1.74839  (harmonic =   1.74839) maximal distance =0.05294581
 next E    =   -52.703442   (d E  =  -0.09324)

[...]

 d Force = 0.1671558E-01[-0.281E-03, 0.337E-01]  d Energy = 0.1700894E-01-0.293E-03
 d Force =-0.3578558E+00[-0.499E+00,-0.217E+00]  d Ewald  =-0.2088995E+01 0.173E+01

[...]

 d Force = 0.6194672E-02[-0.271E-03, 0.127E-01]  d Energy = 0.7482692E-02-0.129E-02
 d Force = 0.1167110E+01[ 0.117E+01, 0.116E+01]  d Ewald  = 0.1234645E+03-0.122E+03

[...]

 d Force =-0.2516300E-03[-0.563E-03, 0.595E-04]  d Energy = 0.9015628E-03-0.115E-02
 d Force =-0.2631542E+00[-0.263E+00,-0.263E+00]  d Ewald  =-0.2740976E+02 0.271E+02

[...]

 d Force = 0.4106777E-03[ 0.328E-03, 0.494E-03]  d Energy = 0.8489994E-03-0.438E-03
 d Force =-0.9320447E+00[-0.929E+00,-0.935E+00]  d Ewald  =-0.1523454E+02 0.143E+02

 Conjugate gradient step on ions:
 trial-energy change:   -0.000849  1 .order   -0.000945   -0.001032   -0.000858
  (g-gl).g = 0.206E-02      g.g   = 0.166E-02  gl.gl    = 0.202E-02
 g(Force)  = 0.467E-03   g(Stress)= 0.119E-02 ortho     =-0.298E-03
 gamma     =   1.02152
 trial     =   0.76136
 opt step  =   3.04542  (harmonic =   4.52955) maximal distance =0.01166481
 next E    =   -52.717052   (d E  =  -0.00307)

[...]

 eigenvalue-minimisations  :   880
 total energy-change (2. order) :-0.1125804E-03  (-0.1100226E-04)
 number of electron      57.9999998 magnetization       6.8303129
 augmentation part        0.6383913 magnetization       4.6921157

 Broyden mixing:
  rms(total) = 0.18100E-02    rms(broyden)= 0.18098E-02
  rms(prec ) = 0.28909E-02
  weight for this iteration     100.00

 eigenvalues of (default mixing * dielectric matrix)
  average eigenvalue GAMMA=   0.8579
  1.9951  1.0458  0.9234  0.6739  0.3681  0.1409

[...]

--------------------------------------- Iteration     12(   8)  ---------------------------------------

[...]

 eigenvalue-minimisations  :   816
 total energy-change (2. order) : 0.3273950E-04  (-0.5268791E-05)
 number of electron      57.9999998 magnetization       6.8303129
 augmentation part        0.6383913 magnetization       4.6921157

 Free energy of the ion-electron system (eV)
  alpha Z        PSCENC =        31.01898118
  Ewald energy   TEWEN  =      8540.71068465
  -Hartree energ DENC   =    -10979.61984497
  -exchange      EXHF   =         0.00000000
  -V(xc)+E(xc)   XCENC  =        34.89068090
  PAW double counting   =      1399.23341276    -1315.74571220
  entropy T*S    EENTRO =         0.00000000
  eigenvalues    EBANDS =      -476.71711105
  atomic energy  EATOM  =      2713.51399804
  Solvation  Ediel_sol  =         0.00000000
  free energy    TOTEN  =       -52.71491070 eV

  energy without entropy =      -52.71491070  energy(sigma->0) =      -52.71491070

 average (electrostatic) potential at core
  the test charge radii are     1.0210  1.1631  0.9892  0.9698
  (the norm of the test charge is              1.0000)
       1 -53.0151       2 -53.0135       3 -39.7177       4 -92.8204       5 -94.2385
       6 -94.2385       7 -94.2385       8 -94.4044       9 -94.4044      10 -94.4044

 E-fermi :  -2.6021     XC(G=0):  -3.6102     alpha+bet : -2.9518

[...]

 spin component 2

[...]

 k-point     5 :      -0.4000    0.2000    0.0000
  band No.  band energies     occupation
      1     -16.6729      1.00000
      2     -16.1487      1.00000
      3     -15.9682      1.00000
      4     -15.7768      1.00000
      5     -15.5995      1.00000
      6     -15.4498      1.00000
      7     -11.2141      1.00000
      8      -9.6308      1.00000
      9      -8.0299      1.00000
     10      -7.6195      1.00000
     11      -7.5220      1.00000
     12      -7.0725      1.00000
     13      -6.9659      1.00000
     14      -6.4737      1.00000
     15      -6.1197      1.00000
     16      -5.9075      1.00000
     17      -5.8641      1.00000
     18      -5.6400      1.00000
     19      -5.6360      1.00000
     20      -5.4166      1.00000
     21      -5.2434      1.00000
     22      -4.7727      1.00000
     23      -4.6183      1.00000
     24      -4.4389      1.00000
     25      -3.8386      1.00000
     26      -2.8257      1.01450
     27      -2.3308      0.00000
     28      -2.3127      0.00000
     29      -1.8332      0.00000
     30      -1.6654      0.00000
     31      -1.6235      0.00000
     32      -1.1437      0.00000
     33      -1.0521      0.00000
     34      -0.8378      0.00000
     35      -0.6764      0.00000
     36      -0.5493      0.00000
     37       0.8198      0.00000
     38       0.9897      0.00000
     39       1.1768      0.00000
     40       1.9836      0.00000
     41       2.1075      0.00000
     42       2.2012      0.00000
     43       2.9134      0.00000
     44       3.0485      0.00000
     45       3.1601      0.00000
     46       3.2250      0.00000
     47       3.4982      0.00000
     48       4.0036      0.00000

[...]

 soft charge-density along one line, spin component           2
         0         1         2         3         4         5         6         7         8         9
 total charge-density along one line

------------------------ aborting loop because EDIFF is reached ----------------------------------------

[...]

  FORCE on cell =-STRESS in cart. coord.  units (eV):
  Direction    XX          YY          ZZ          XY          YZ          ZX
  Alpha Z    31.01898    31.01898    31.01898
  Ewald   10317.02598 10317.02348-12093.34075    -0.00138    -0.00047    -0.00084
  Hartree 10730.51979 10730.52021-10479.03902    -0.00013     0.00004     0.00006
  E(xc)    -224.86023  -224.86028  -224.52839     0.00006     0.00000     0.00001
  Local  -21925.54466-21925.54397 21662.32633     0.00109     0.00024     0.00045
  n-local   449.95916   451.79039   451.86035     1.03953     0.84541     0.79922
  augment   -46.07529   -46.07513   -48.47927    -0.00008     0.00002     0.00002
  Kinetic   671.05639   662.99290   700.35393    -4.69101    -1.83517    -1.50532
  Fock        0.00000     0.00000     0.00000     0.00000     0.00000     0.00000
  Total      -0.01665    -0.01665     0.17217    -0.00000     0.00000     0.00000
  in kB      -0.03911    -0.03911     0.40438    -0.00000     0.00000     0.00000

 VOLUME and BASIS-vectors are now :
  energy-cutoff  :      520.00
  volume of cell :      682.13
      direct lattice vectors                 reciprocal lattice vectors
     5.991780628  0.000000091 -0.000000000     0.166895297 -0.096357036  0.000000000
     2.995889936  5.189034065 -0.000000000    -0.000000003  0.192714096 -0.000000000
    -0.000000000  0.000000000 21.939322650     0.000000000  0.000000000  0.045580259

  length of vectors
     5.991780628  5.991780289 21.939322650     0.192714085  0.192714096  0.045580259

 FORCES acting on ions
    electron-ion (+dipol)            ewald-force                    non-local-force                 convergence-correction
   -.131E-03 -.328E-04 -.818E+01   0.499E-03 0.294E-03 0.786E+01   -.386E-17 0.325E-18 0.487E+00   -.302E-06 -.147E-06 -.353E-01
   0.862E-04 0.101E-03 -.811E+01   -.490E-03 -.289E-03 0.779E+01   -.732E-17 0.321E-18 0.480E+00   -.704E-07 -.248E-07 -.340E-01
   -.337E-04 -.137E-04 0.233E+03   -.200E-03 -.112E-03 -.228E+03   0.139E-16 0.110E-16 -.437E+01   0.156E-06 0.888E-07 -.421E-01
   0.294E-04 0.337E-04 -.227E+03   0.215E-03 0.120E-03 0.222E+03   -.184E-16 -.101E-16 0.569E+01   0.220E-06 0.125E-06 0.662E-02
   0.190E+01 -.168E-01 -.483E+03   -.465E+01 0.199E-01 0.486E+03   0.272E+01 0.196E-02 -.351E+01   -.710E-03 -.483E-02 0.237E-01
   -.966E+00 -.164E+01 -.483E+03   0.234E+01 0.402E+01 0.486E+03   -.136E+01 -.235E+01 -.351E+01   -.383E-02 0.303E-02 0.237E-01
   -.939E+00 0.165E+01 -.483E+03   0.231E+01 -.404E+01 0.486E+03   -.136E+01 0.235E+01 -.351E+01   0.454E-02 0.180E-02 0.237E-01
   0.144E+02 0.686E-01 0.486E+03   -.109E+02 -.648E-01 -.489E+03   -.349E+01 0.172E-03 0.341E+01   -.269E-03 -.506E-02 -.727E-01
   -.715E+01 -.125E+02 0.486E+03   0.541E+01 0.950E+01 -.489E+03   0.175E+01 0.303E+01 0.341E+01   -.425E-02 0.276E-02 -.727E-01
   -.727E+01 0.125E+02 0.486E+03   0.552E+01 -.944E+01 -.489E+03   0.175E+01 -.303E+01 0.341E+01   0.452E-02 0.230E-02 -.727E-01
   -.487E-05 0.116E-03 -.168E+01   0.115E-13 0.124E-13 0.171E-12   0.444E-15 -.444E-15 0.197E+01   -.166E-06 -.721E-07 -.252E+00

 POSITION                                       TOTAL-FORCE (eV/Angst)
      2.99589      1.72968     10.96166         0.000000      0.000000      0.128360
      5.99178      3.45936     10.96188         0.000000      0.000000      0.124783
     -0.00000      0.00000      9.83356         0.000000     -0.000000     -0.287003
     -0.00000      0.00000     12.13729         0.000000      0.000000      0.122635
      3.88664     -0.00010     12.53216        -0.035213      0.001215     -0.063115
      1.05248      1.82317     12.53216         0.018659      0.029888     -0.063115
      4.04856      3.36598     12.53216         0.016554     -0.031103     -0.063115
      2.25553      0.00029      9.43052        -0.010454     -0.001987      0.033523
      1.86838      3.23553      9.43052         0.003506      0.010047      0.033523
      4.86375      1.95320      9.43052         0.006947     -0.008060      0.033523
    total drift:                               -0.000005      0.000116      0.037367

  FREE ENERGIE OF THE ION-ELECTRON SYSTEM (eV)
  free  energy   TOTEN  =       -52.71491070 eV

  energy  without entropy=      -52.71491070  energy(sigma->0) =      -52.71491070

 d Force =-0.3937220E-03[-0.177E-02, 0.986E-03]  d Energy = 0.7965136E-04-0.473E-03
 d Force =-0.2763297E+01[-0.273E+01,-0.279E+01]  d Ewald  =-0.4565403E+02 0.429E+02

 reached required accuracy - stopping structural energy minimisation

 total charge

[...]

 magnetization (x)

# of ion       s       p       d       tot
    1        0.027   0.027   3.260   3.315
    2        0.027   0.027   3.262   3.317
    3       -0.007   0.023   0.001   0.016
    4        0.000   0.013   0.000   0.013
    5        0.006  -0.045   0.000  -0.039
    6        0.005  -0.015   0.000  -0.010
    7        0.005  -0.034   0.000  -0.030
    8        0.006  -0.061   0.000  -0.055
    9        0.005  -0.034   0.000  -0.029
   10        0.005  -0.053   0.000  -0.048
tot          0.078  -0.152   6.523   6.450

 BZINTS: Fermi energy: -2.602051; 58.000000 electrons
         Band energy:-476.717111;  BLOECHL correction: -0.030340