 vasp.5.4.4.18Apr17-6-g9f103f2a35 (build May  1 2020 15:48:39) complex
 executed on             LinuxGNU date 2020.07.01  05:17:15

 INCAR:
 POTCAR:   PAW_PBE Cr 06Sep2000
 POTCAR:   PAW_PBE Ge 05Jan2001
 POTCAR:   PAW_PBE Si 05Jan2001
 POTCAR:   PAW_PBE Te 08Apr2002

 POTCAR:   PAW_PBE Cr 06Sep2000
   VRHFIN =Cr : d5 s1

   TITEL  = PAW_PBE Cr 06Sep2000
   POMASS =   51.996; ZVAL   =    6.000    mass and valenz
   ENMAX  =  227.082; ENMIN  =  170.311 eV
   QCUT   =   -4.085; QGAM   =    8.171    optimization parameters

   Description
     l     E      TYP  RCUT    TYP  RCUT
     2   .000     23  2.500
     2   .000     23  2.500
     0   .000     23  2.500
     0   .000     23  2.500
     1  -.400     23  2.500
     1  2.000     23  2.500
     3   .000      7   .000

 POTCAR:   PAW_PBE Ge 05Jan2001
   VRHFIN =Ge: s2p2

   TITEL  = PAW_PBE Ge 05Jan2001
   POMASS =   72.610; ZVAL   =    4.000    mass and valenz
   ENMAX  =  173.807; ENMIN  =  130.355 eV
   QCUT   =   -3.574; QGAM   =    7.148    optimization parameters

[...]

 POTCAR:   PAW_PBE Si 05Jan2001
   VRHFIN =Si: s2p2

   TITEL  = PAW_PBE Si 05Jan2001
   POMASS =   28.085; ZVAL   =    4.000    mass and valenz
   ENMAX  =  245.345; ENMIN  =  184.009 eV
   QCUT   =   -4.246; QGAM   =    8.493    optimization parameters

[...]

 POTCAR:   PAW_PBE Te 08Apr2002
   VRHFIN =Te: s2p4

   TITEL  = PAW_PBE Te 08Apr2002
   POMASS =  127.600; ZVAL   =    6.000    mass and valenz
   ENMAX  =  174.982; ENMIN  =  131.236 eV
   QCUT   =   -3.586; QGAM   =    7.172    optimization parameters

   Description
     l     E      TYP  RCUT    TYP  RCUT
     0   .000     23  2.300
     0   .000     23  2.300
     1   .000     23  2.300
     1   .000     23  2.300
     2   .000     23  2.300
     3  -.100     23  2.300

 Optimization of the real space projectors (new method)

 maximal supplied QI-value         = 15.12
 optimisation between [QCUT,QGAM] = [ 11.64, 23.28] = [ 37.95,151.78] Ry
 Optimized for a Real-space Cutoff    1.49 Angstroem

   l    n(q)    QCUT    max X(q) W(low)/X(q) W(high)/X(q)  e(spline)
   2      9    11.641     4.777    0.25E-04    0.21E-05    0.63E-07
   2      9    11.641    31.132    0.13E-03    0.22E-03    0.64E-06
   0     10    11.641    20.416    0.11E-04    0.74E-05    0.19E-07
   0     10    11.641    45.408    0.10E-03    0.85E-04    0.30E-06
   1     10    11.641     7.848    0.22E-04    0.23E-04    0.56E-07
   1     10    11.641     9.895    0.85E-04    0.54E-04    0.16E-06
 Optimization of the real space projectors (new method)

[...]

   l    n(q)    QCUT    max X(q) W(low)/X(q) W(high)/X(q)  e(spline)
   0      8    11.508     8.708    0.18E-04    0.44E-05    0.47E-08
   0      8    11.508   106.241    0.70E-04    0.15E-03    0.51E-07
   1      8    11.508     5.901    0.63E-05    0.23E-04    0.21E-07
   1      8    11.508    73.241    0.15E-03    0.36E-04    0.79E-07
 Optimization of the real space projectors (new method)

 maximal supplied QI-value         = 16.25
 optimisation between [QCUT,QGAM] = [ 11.54, 23.24] = [ 37.28,151.24] Ry
 Optimized for a Real-space Cutoff    1.36 Angstroem

   l    n(q)    QCUT    max X(q) W(low)/X(q) W(high)/X(q)  e(spline)
   0      9    11.539     7.090    0.13E-04    0.25E-05    0.51E-08
   0      9    11.539   101.654    0.53E-04    0.69E-04    0.12E-06
   1      9    11.539     5.276    0.20E-04    0.98E-05    0.24E-07
   1      9    11.539    81.891    0.24E-03    0.13E-04    0.15E-06
   2      9    11.539     5.599    0.30E-04    0.97E-04    0.54E-07

 PAW_PBE Cr 06Sep2000                   :
 PAW_PBE Ge 05Jan2001                   :
 PAW_PBE Si 05Jan2001                   :
 PAW_PBE Te 08Apr2002                   :

 POSCAR: Cr2 Ge Si Te6
  positions in direct lattice
  velocities in cartesian coordinates
 exchange correlation table for  LEXCH =       42
   RHO(1)=    0.500       N(1)  =     2000
   RHO(2)=  100.500       N(2)  =     4000

 ion  position               nearest neighbor table
   1  0.333  0.333  0.500-   6 2.78   5 2.78   7 2.78   8 2.78  10 2.78   9 2.78
   2  0.667  0.667  0.500-   9 2.78   8 2.78  10 2.78   5 2.78   7 2.78   6 2.78
   3  0.000  0.000  0.448-   4 2.43   8 2.63  10 2.63   9 2.63
   4  0.000  0.000  0.552-   3 2.43   5 2.63   7 2.63   6 2.63
   5  0.626  0.000  0.574-   4 2.63   1 2.78   2 2.78
   6  0.000  0.373  0.574-   4 2.63   1 2.78   2 2.78
   7  0.373  0.626  0.574-   4 2.63   1 2.78   2 2.78
   8  0.374  1.000  0.426-   3 2.63   2 2.78   1 2.78
   9  1.000  0.627  0.426-   3 2.63   2 2.78   1 2.78
  10  0.627  0.374  0.426-   3 2.63   2 2.78   1 2.78

  LATTYP: Found a hexagonal cell.
 ALAT       =     6.9077769333
 C/A-ratio  =     3.3939410937

  Lattice vectors:

 A1 = (   3.4538890000,  -5.9823100000,   0.0000000000)
 A2 = (  -6.9077770000,   0.0000000000,   0.0000000000)
 A3 = (   0.0000000000,   0.0000000000, -23.4445880000)

Analysis of symmetry for initial positions (statically):
 Subroutine PRICEL returns:
 Original cell was already a primitive cell.

 Routine SETGRP: Setting up the symmetry group for a
 hexagonal supercell.

 Subroutine GETGRP returns: Found  3 space group operations
 (whereof  3 operations were pure point group operations)
 out of a pool of 24 trial point group operations.

The static configuration has the point symmetry C_3 .

Analysis of symmetry for dynamics (positions and initial velocities):
 Subroutine PRICEL returns:
 Original cell was already a primitive cell.

[...]

The dynamic configuration has the point symmetry C_3 .

Analysis of constrained symmetry for selective dynamics:
 Subroutine PRICEL returns:
 Original cell was already a primitive cell.

[...]

The constrained configuration has the point symmetry C_3 .

Analysis of structural, dynamic, and magnetic symmetry:
 Subroutine PRICEL returns:
 Original cell was already a primitive cell.

 Routine SETGRP: Setting up the symmetry group for a
 hexagonal supercell.

 Subroutine GETGRP returns: Found  3 space group operations
 (whereof  3 operations were pure point group operations)
 out of a pool of 24 trial point group operations.

The magnetic configuration has the point symmetry C_3 .

 Subroutine INISYM returns: Found  3 space group operations
 (whereof  3 operations are pure point group operations),
 and found     1 'primitive' translations

 KPOINTS: Kpoints from vasprun.xml

Automatic generation of k-mesh.
Space group operators:
 irot       det(A)        alpha          n_x          n_y          n_z        tau_x        tau_y        tau_z
    1     1.000000     0.000000     1.000000     0.000000     0.000000     0.000000     0.000000     0.000000
    2     1.000000   120.000000     0.000000     0.000000     1.000000     0.000000     0.000000     0.000000
    3     1.000000   120.000000     0.000000     0.000000    -1.000000     0.000000     0.000000     0.000000

 Subroutine IBZKPT returns following result:

 Found      5 irreducible k-points:

 Following reciprocal coordinates:
            Coordinates               Weight
  0.000000  0.000000  0.000000      1.000000
  0.200000  0.000000  0.000000      6.000000
  0.400000  0.000000  0.000000      6.000000
  0.400000  0.200000  0.000000      6.000000
 -0.400000  0.200000  0.000000      6.000000

 Following cartesian coordinates:
            Coordinates               Weight
  0.000000  0.000000  0.000000      1.000000
  0.028953 -0.016716  0.000000      6.000000
  0.057906 -0.033432  0.000000      6.000000
  0.057906  0.000000  0.000000      6.000000
 -0.057906  0.066864  0.000000      6.000000

 TETIRR: Found     15 inequivalent tetrahedra from      150

 SYSTEM =  unknown system
 POSCAR =  Cr2 Ge Si Te6

 Startparameter for this run:
   NWRITE =      2    write-flag & timer
   PREC   = accura    normal or accurate (medium, high low for compatibility)
   ISTART =      0    job   : 0-new  1-cont  2-samecut
   ICHARG =      2    charge: 1-file 2-atom 10-const
   ISPIN  =      2    spin polarized calculation?
   LNONCOLLINEAR =      F non collinear calculations
   LSORBIT =      F    spin-orbit coupling
   INIWAV =      1    electr: 0-lowe 1-rand  2-diag
   LASPH  =      F    aspherical Exc in radial PAW
   METAGGA=      F    non-selfconsistent MetaGGA calc.

 Electronic Relaxation 1
   ENCUT  =  520.0 eV  38.22 Ry    6.18 a.u.  12.84 12.84 43.59*2*pi/ulx,y,z
   ENINI  =  520.0     initial cutoff
   ENAUG  =  402.1 eV  augmentation charge cutoff
   NELM   =    400;   NELMIN=  2; NELMDL=  0     # of ELM steps
   EDIFF  = 0.1E-03   stopping-criterion for ELM
   LREAL  =      T    real-space projection
   NLSPLINE    = F    spline interpolate recip. space projectors
   LCOMPAT=      F    compatible to vasp.4.4
   GGA_COMPAT  = T    GGA compatible to vasp.4.4-vasp.4.6
   LMAXPAW     = -100 max onsite density
   LMAXMIX     =    2 max onsite mixed and CHGCAR
   VOSKOWN=      0    Vosko Wilk Nusair interpolation
   ROPT   =   -0.00025  -0.00025  -0.00025  -0.00025
 Ionic relaxation
   EDIFFG = 0.1E-02   stopping-criterion for IOM
   NSW    =     99    number of steps for IOM
   NBLOCK =      1;   KBLOCK =     99    inner block; outer block
   IBRION =      2    ionic relax: 0-MD 1-quasi-New 2-CG
   NFREE  =      1    steps in history (QN), initial steepest desc. (CG)
   ISIF   =      3    stress and relaxation
   IWAVPR =     11    prediction:  0-non 1-charg 2-wave 3-comb
   ISYM   =      2    0-nonsym 1-usesym 2-fastsym
   LCORR  =      T    Harris-Foulkes like correction to forces

   POTIM  = 0.5000    time-step for ionic-motion
   TEIN   =    0.0    initial temperature
   TEBEG  =    0.0;   TEEND  =   0.0 temperature during run
   SMASS  =  -3.00    Nose mass-parameter (am)
   estimated Nose-frequenzy (Omega)   =  0.10E-29 period in steps =****** mass=  -0.109E-26a.u.
   SCALEE = 1.0000    scale energy and forces
   NPACO  =    256;   APACO  = 16.0  distance and # of slots for P.C.
   PSTRESS=    0.0 pullay stress

  Mass of Ions in am
   POMASS =  52.00 72.61 28.09127.60
  Ionic Valenz
   ZVAL   =   6.00  4.00  4.00  6.00
  Atomic Wigner-Seitz radii
  virtual crystal weights
   VCA    =   1.00  1.00  1.00  1.00
   NELECT =      56.0000    total number of electrons
   NUPDOWN=      -1.0000    fix difference up-down

 DOS related values:
   EMIN   =  10.00;   EMAX   =-10.00  energy-range for DOS
   EFERMI =   0.00
   ISMEAR =    -5;   SIGMA  =   0.05  broadening in eV -4-tet -1-fermi 0-gaus

 Electronic relaxation 2 (details)
   IALGO  =     38    algorithm
   LDIAG  =      T    sub-space diagonalisation (order eigenvalues)
   LSUBROT=      F    optimize rotation matrix (better conditioning)
   TURBO    =      0    0=normal 1=particle mesh
   IRESTART =      0    0=no restart 2=restart with 2 vectors
   NREBOOT  =      0    no. of reboots
   NMIN     =      0    reboot dimension
   EREF     =   0.00    reference energy to select bands
   IMIX   =      4    mixing-type and parameters
     AMIX     =   0.40;   BMIX     =  1.00
     AMIX_MAG =   1.60;   BMIX_MAG =  1.00
     AMIN     =   0.01
     WC   =   100.;   INIMIX=   1;  MIXPRE=   1;  MAXMIX= -45

 Intra band minimization:
   WEIMIN = 0.0010     energy-eigenvalue tresh-hold
   EBREAK =  0.63E-06  absolut break condition
[...]

 k-point     1 :       0.0000    0.0000    0.0000
  band No.  band energies     occupation
      1     -14.6449      1.00000
      2     -13.7577      1.00000
      3     -12.7660      1.00000
      4     -12.7659      1.00000
      5     -12.7023      1.00000
      6     -12.7022      1.00000
      7     -10.7578      1.00000
      8      -8.6271      1.00000
      9      -6.7004      1.00000
     10      -6.6385      1.00000
     11      -6.6385      1.00000
     12      -6.5263      1.00000
     13      -6.2239      1.00000
     14      -6.2239      1.00000
     15      -5.4282      1.00000
     16      -4.5941      1.00000
     17      -4.5941      1.00000
     18      -4.2937      1.00000
     19      -4.2936      1.00000
     20      -4.1598      1.00000
     21      -3.6087      1.00000
     22      -3.6087      1.00000
     23      -3.5982      1.00000
     24      -3.3394      1.00000
     25      -3.3394      1.00000
     26      -3.3269      1.00000
     27      -3.2547      1.00000
     28      -3.2547      1.00000
     29      -2.9564      1.00000
     30      -2.3138      1.00000
     31      -2.3138      1.00000
     32      -1.2609      0.00000
     33      -1.2609      0.00000
     34      -0.6720      0.00000
     35      -0.5620      0.00000
     36      -0.5620      0.00000
     37      -0.4135      0.00000
     38       0.9308      0.00000
     39       0.9308      0.00000
     40       1.6411      0.00000

[...]

 soft charge-density along one line, spin component           1
         0         1         2         3         4         5         6         7         8         9
 total charge-density along one line

[...]

------------------------ aborting loop because EDIFF is reached ----------------------------------------

 total charge

# of ion       s       p       d       tot
    1        0.333   0.405   4.238   4.976
    2        0.333   0.405   4.238   4.976
    3        1.168   1.136   0.074   2.378
    4        0.793   0.778   0.000   1.571
    5        1.390   1.969   0.033   3.392
    6        1.385   1.971   0.033   3.388
    7        1.389   1.967   0.033   3.389
    8        1.392   1.974   0.033   3.399
    9        1.386   1.972   0.032   3.390
   10        1.391   1.970   0.033   3.394
tot         10.959  14.547   8.747  34.252

 magnetization (x)

[...]

  FORCE on cell =-STRESS in cart. coord.  units (eV):
  Direction    XX          YY          ZZ          XY          YZ          ZX
  Alpha Z    12.70886    12.70886    12.70886
  Ewald    7419.63051  7419.62857 -8853.36149    -0.00107    -0.00038    -0.00069
  Hartree  7723.91049  7723.91089 -7581.90597    -0.00004     0.00005     0.00008
  E(xc)    -223.23994  -223.23994  -223.04272     0.00004     0.00002     0.00001
  Local  -15988.02181-15988.02107 15561.55148     0.00086     0.00024     0.00044
  n-local   700.84505   702.83735   712.87525     0.84854     0.84064     0.93409
  augment  -103.68321  -103.68309  -109.89624     0.00001     0.00002     0.00002
  Kinetic   457.89990   452.26519   479.95145    -4.12523     0.70843     0.73792
  Fock        0.00000     0.00000     0.00000     0.00000     0.00000     0.00000
  Total      -1.77169    -1.77169    -1.11938     0.00000     0.00000     0.00000
  in kB      -2.92987    -2.92987    -1.85114     0.00000     0.00000     0.00000

 VOLUME and BASIS-vectors are now :
  energy-cutoff  :      520.00
  volume of cell :      968.84
      direct lattice vectors                 reciprocal lattice vectors
     6.907777000 -0.000000000  0.000000000     0.144764372 -0.083579742  0.000000000
     3.453888000  5.982310000  0.000000000     0.000000000  0.167159509 -0.000000000
     0.000000000  0.000000000 23.444588000    -0.000000000  0.000000000  0.042653767

[...]

 FORCES acting on ions
    electron-ion (+dipol)            ewald-force                    non-local-force                 convergence-correction
   -.245E-04 -.205E-04 0.548E+00   0.306E-03 0.183E-03 -.640E+00   0.000E+00 0.000E+00 0.462E-01   0.258E-05 0.149E-05 0.581E-03
   0.240E-04 0.184E-04 -.727E+00   -.306E-03 -.183E-03 0.640E+00   0.694E-17 0.000E+00 0.487E-01   -.257E-05 -.149E-05 0.671E-03
   -.230E-04 -.281E-04 0.161E+03   -.141E-03 -.779E-04 -.158E+03   0.104E-16 -.694E-17 -.203E+01   -.533E-06 -.282E-06 -.298E-01
   0.274E-04 0.217E-04 -.162E+03   0.141E-03 0.779E-04 0.158E+03   -.416E-16 -.139E-16 0.396E+01   0.532E-06 0.289E-06 0.303E-01
   -.815E+01 0.157E+00 -.338E+03   0.444E+01 -.152E+00 0.342E+03   0.422E+01 -.156E-01 -.457E+01   0.194E-03 0.107E-02 0.721E-01
   0.421E+01 0.697E+01 -.338E+03   -.235E+01 -.377E+01 0.342E+03   -.212E+01 -.365E+01 -.457E+01   0.826E-03 -.704E-03 0.721E-01
   0.393E+01 -.713E+01 -.338E+03   -.209E+01 0.392E+01 0.342E+03   -.210E+01 0.366E+01 -.457E+01   -.102E-02 -.366E-03 0.721E-01
   0.822E+01 -.160E+00 0.338E+03   -.444E+01 0.152E+00 -.342E+03   -.366E+01 0.152E-01 0.454E+01   -.346E-03 0.105E-02 -.710E-01
   -.425E+01 -.704E+01 0.338E+03   0.235E+01 0.377E+01 -.342E+03   0.184E+01 0.316E+01 0.454E+01   0.108E-02 -.222E-03 -.710E-01
   -.397E+01 0.720E+01 0.338E+03   0.209E+01 -.392E+01 -.342E+03   0.182E+01 -.318E+01 0.454E+01   -.733E-03 -.822E-03 -.710E-01
   0.138E-04 0.228E-04 -.195E+01   0.155E-13 0.799E-14 -.171E-12   -.111E-14 -.444E-15 0.194E+01   0.814E-08 0.684E-08 0.510E-02

 POSITION                                       TOTAL-FORCE (eV/Angst)
      3.45388      1.99410     11.72054        -0.000000      0.000000     -0.044659
      6.90778      3.98821     11.72405        -0.000000      0.000000     -0.038126
      0.00000      0.00000     10.50824        -0.000000      0.000000      0.660397
      0.00000      0.00000     12.93635        -0.000000      0.000000     -0.300131
      4.32819      0.00251     13.45138         0.513498     -0.008875     -0.067204
      1.29198      2.23274     13.45138        -0.264435     -0.440265     -0.067204
      4.74152      3.74706     13.45138        -0.249064      0.449140     -0.067204
      6.03348      5.97980      9.99321         0.119532      0.007815     -0.025290
      9.06969      3.74957      9.99321        -0.052997     -0.107425     -0.025290
      5.62015      2.23525      9.99321        -0.066534      0.099610     -0.025290
    total drift:                                0.000014      0.000023      0.001402

  FREE ENERGIE OF THE ION-ELECTRON SYSTEM (eV)
  free  energy   TOTEN  =       -42.79668263 eV

  energy  without entropy=      -42.79668263  energy(sigma->0) =      -42.79668263

[...]

 d Force = 0.3038338E-02[ 0.175E-02, 0.432E-02]  d Energy = 0.1449045E-01-0.115E-01
 d Force =-0.2284218E+01[-0.230E+01,-0.227E+01]  d Ewald  =-0.8224583E+02 0.800E+02

 Steepest descent step on ions:
 trial-energy change:   -0.014490  1 .order   -0.015840   -0.040676    0.008996
  (g-gl).g = 0.407E-01      g.g   = 0.407E-01  gl.gl    = 0.000E+00
 g(Force)  = 0.435E-02   g(Stress)= 0.363E-01 ortho     = 0.000E+00
 gamma     =   0.00000
 trial     =   1.00000
 opt step  =   0.79204  (harmonic =   0.81889) maximal distance =0.00000000
 next E    =   -42.812121   (d E  =  -0.01544)

[...]

 eigenvalue-minimisations  :  1152
 total energy-change (2. order) : 0.4820921E-04  (-0.2135060E-03)
 number of electron      55.9999998 magnetization       6.0029724
 augmentation part       -2.7555381 magnetization       4.2489910

[...]

 d Force =-0.4202713E-03[-0.473E-03,-0.367E-03]  d Energy = 0.2524776E-02-0.295E-02
 d Force = 0.4799769E+00[ 0.479E+00, 0.480E+00]  d Ewald  = 0.1726234E+02-0.168E+02

[...]

 eigenvalues of (default mixing * dielectric matrix)
  average eigenvalue GAMMA=   0.6198
  0.6198

[...]

 d Force = 0.8252674E-03[ 0.490E-03, 0.116E-02]  d Energy = 0.1062682E-02-0.237E-03
 d Force =-0.1172992E+01[-0.117E+01,-0.118E+01]  d Ewald  = 0.7523866E+01-0.870E+01

 Conjugate gradient step on ions:
 trial-energy change:   -0.001063  1 .order   -0.000914   -0.001257   -0.000572
  (g-gl).g = 0.388E-03      g.g   = 0.130E-02  gl.gl    = 0.407E-01
 g(Force)  = 0.119E-02   g(Stress)= 0.113E-03 ortho     = 0.914E-03
 gamma     =   0.00954
 trial     =   0.95841
 opt step  =   1.75894  (harmonic =   1.75894) maximal distance =0.00000000
 next E    =   -42.814851   (d E  =  -0.00115)

[...]

 Broyden mixing:
  rms(total) = 0.42086E-02    rms(broyden)= 0.42080E-02
  rms(prec ) = 0.46824E-02
  weight for this iteration     100.00

[...]

--------------------------------------- Iteration      5(   2)  ---------------------------------------

[...]

 eigenvalue-minimisations  :  1104
 total energy-change (2. order) :-0.6001794E-04  (-0.6533084E-04)
 number of electron      55.9999998 magnetization       6.0016726
 augmentation part       -2.7523748 magnetization       4.2492994

 Free energy of the ion-electron system (eV)
  alpha Z        PSCENC =        12.92798495
  Ewald energy   TEWEN  =      6037.07896448
  -Hartree energ DENC   =     -7916.99108268
  -exchange      EXHF   =         0.00000000
  -V(xc)+E(xc)   XCENC  =      -228.68278972
  PAW double counting   =      1230.84825211     -917.30406936
  entropy T*S    EENTRO =         0.00000000
  eigenvalues    EBANDS =      -372.86453905
  atomic energy  EATOM  =      2112.17225906
  Solvation  Ediel_sol  =         0.00000000
  free energy    TOTEN  =       -42.81502023 eV

  energy without entropy =      -42.81502023  energy(sigma->0) =      -42.81502023

 average (electrostatic) potential at core
  the test charge radii are     1.1394  1.1631  0.9892  1.1897
  (the norm of the test charge is              1.0000)
       1 -50.6082       2 -50.6055       3 -39.0250       4 -92.2177       5 -96.3895
       6 -96.3895       7 -96.3895       8 -96.3919       9 -96.3919      10 -96.3919

 E-fermi :  -2.1476     XC(G=0):  -3.5168     alpha+bet : -3.1256

[...]

 spin component 2

[...]

 k-point     5 :      -0.4000    0.2000    0.0000
  band No.  band energies     occupation
      1     -14.0018      1.00000
      2     -13.5849      1.00000
      3     -13.2836      1.00000
      4     -13.2103      1.00000
      5     -13.0523      1.00000
      6     -12.8861      1.00000
      7     -10.1844      1.00000
      8      -8.4979      1.00000
      9      -6.4271      1.00000
     10      -6.0228      1.00000
     11      -5.9163      1.00000
     12      -5.5264      1.00000
     13      -5.3440      1.00000
     14      -5.0448      1.00000
     15      -4.6551      1.00000
     16      -4.4661      1.00000
     17      -4.2793      1.00000
     18      -4.1700      1.00000
     19      -4.0037      1.00000
     20      -3.8918      1.00000
     21      -3.6479      1.00000
     22      -3.3016      1.00000
     23      -3.1608      1.00000
     24      -3.1474      1.00000
     25      -3.0542      1.00000
     26      -1.7633      0.00000
     27      -0.9964      0.00000
     28      -0.8899      0.00000
     29      -0.8776      0.00000
     30      -0.3669      0.00000
     31      -0.3021      0.00000
     32      -0.2956      0.00000
     33       0.0651      0.00000
     34       0.0836      0.00000
     35       0.4393      0.00000
     36       0.5149      0.00000
     37       0.6943      0.00000
     38       0.8650      0.00000
     39       1.2274      0.00000
     40       1.7409      0.00000

[...]

 soft charge-density along one line, spin component           2
         0         1         2         3         4         5         6         7         8         9
 total charge-density along one line

------------------------ aborting loop because EDIFF is reached ----------------------------------------

[...]

  FORCE on cell =-STRESS in cart. coord.  units (eV):
  Direction    XX          YY          ZZ          XY          YZ          ZX
  Alpha Z    12.92798    12.92798    12.92798
  Ewald    7478.64350  7478.64154 -8920.20802    -0.00107    -0.00038    -0.00069
  Hartree  7777.45389  7777.45429 -7637.56451    -0.00004     0.00005     0.00008
  E(xc)    -223.69622  -223.69620  -223.51997     0.00002     0.00002     0.00002
  Local  -16101.69739-16101.69665 15682.59964     0.00086     0.00024     0.00044
  n-local   702.37794   704.29055   714.68065     0.81850     0.85899     0.95043
  augment  -103.78541  -103.78531  -110.04745     0.00002    -0.00003     0.00005
  Kinetic   459.68108   453.77069   481.20022    -4.29485     0.71352     0.73457
  Fock        0.00000     0.00000     0.00000     0.00000     0.00000     0.00000
  Total      -0.09387    -0.09387     0.06854     0.00000    -0.00000     0.00000
  in kB      -0.15792    -0.15792     0.11530     0.00000    -0.00000     0.00000

 VOLUME and BASIS-vectors are now :
  energy-cutoff  :      520.00
  volume of cell :      952.41
      direct lattice vectors                 reciprocal lattice vectors
     6.865799567 -0.000000046  0.000000000     0.145649460 -0.084090749 -0.000000000
     3.432899333  5.945956461  0.000000000     0.000000001  0.168181520 -0.000000000
     0.000000000  0.000000000 23.329897876    -0.000000000 -0.000000000  0.042863454

  length of vectors
     6.865799567  6.865799011 23.329897876     0.168181506  0.168181520  0.042863454

 FORCES acting on ions
    electron-ion (+dipol)            ewald-force                    non-local-force                 convergence-correction
   -.258E-04 -.151E-04 0.231E+00   0.309E-03 0.185E-03 -.295E+00   -.693E-17 0.139E-16 0.322E-01   0.155E-07 -.327E-08 -.182E-02
   0.285E-04 0.190E-04 -.106E+01   -.309E-03 -.185E-03 0.999E+00   0.110E-19 0.139E-16 0.349E-01   -.808E-07 -.627E-07 -.153E-02
   -.248E-04 -.257E-04 0.163E+03   -.143E-03 -.789E-04 -.160E+03   -.699E-18 -.746E-17 -.223E+01   0.129E-08 -.174E-07 0.594E-02
   0.285E-04 0.277E-04 -.162E+03   0.141E-03 0.777E-04 0.158E+03   0.136E-17 0.149E-16 0.434E+01   0.138E-07 -.308E-07 0.116E-02
   -.836E+01 0.170E+00 -.343E+03   0.470E+01 -.154E+00 0.347E+03   0.419E+01 -.133E-01 -.449E+01   -.545E-02 -.962E-02 -.294E-01
   0.433E+01 0.716E+01 -.343E+03   -.248E+01 -.399E+01 0.347E+03   -.211E+01 -.362E+01 -.449E+01   -.560E-02 0.953E-02 -.294E-01
   0.403E+01 -.733E+01 -.343E+03   -.221E+01 0.414E+01 0.347E+03   -.208E+01 0.364E+01 -.449E+01   0.111E-01 0.844E-04 -.294E-01
   0.815E+01 -.150E+00 0.342E+03   -.432E+01 0.154E+00 -.347E+03   -.368E+01 0.140E-01 0.442E+01   0.929E-02 -.955E-02 0.331E-01
   -.420E+01 -.698E+01 0.342E+03   0.229E+01 0.366E+01 -.347E+03   0.185E+01 0.318E+01 0.442E+01   -.129E-01 -.327E-02 0.331E-01
   -.394E+01 0.713E+01 0.342E+03   0.203E+01 -.381E+01 -.347E+03   0.183E+01 -.319E+01 0.442E+01   0.363E-02 0.128E-01 0.331E-01
   0.385E-04 -.829E-05 -.199E+01   -.844E-14 0.115E-13 0.000E+00   0.222E-15 0.000E+00 0.198E+01   -.742E-07 -.124E-06 0.148E-01

 POSITION                                       TOTAL-FORCE (eV/Angst)
      3.43290      1.98198     11.66320         0.000000     -0.000000     -0.034398
      6.86580      3.96397     11.66670         0.000000     -0.000000     -0.025636
      0.00000      0.00000     10.45683         0.000000      0.000000      0.420966
      0.00000      0.00000     12.84811         0.000000      0.000000      0.015820
      4.30188      0.00250     13.38558         0.519284     -0.006288      0.012576
      1.28412      2.21917     13.38558        -0.265088     -0.446569      0.012576
      4.71270      3.72429     13.38558        -0.254196      0.452858      0.012576
      5.99682      5.94346      9.94432         0.161962      0.007025     -0.138160
      9.01457      3.72678      9.94432        -0.074897     -0.143775     -0.138160
      5.58600      2.22166      9.94432        -0.087065      0.136750     -0.138160
    total drift:                                0.000038     -0.000008      0.004560

  FREE ENERGIE OF THE ION-ELECTRON SYSTEM (eV)
  free  energy   TOTEN  =       -42.81502023 eV

  energy  without entropy=      -42.81502023  energy(sigma->0) =      -42.81502023

 d Force = 0.1560332E-03[-0.976E-04, 0.410E-03]  d Energy = 0.2596888E-03-0.104E-03
 d Force =-0.9762887E+00[-0.975E+00,-0.978E+00]  d Ewald  = 0.6280211E+01-0.726E+01

 reached required accuracy - stopping structural energy minimisation

 total charge

[...]

 magnetization (x)

# of ion       s       p       d       tot
    1        0.042   0.047   3.020   3.109
    2        0.042   0.047   3.019   3.109
    3        0.003   0.043  -0.003   0.043
    4        0.003   0.034   0.000   0.037
    5       -0.001  -0.095   0.005  -0.091
    6       -0.002  -0.083   0.006  -0.079
    7       -0.001  -0.091   0.005  -0.087
    8       -0.001  -0.099   0.005  -0.096
    9       -0.002  -0.085   0.006  -0.081
   10       -0.001  -0.095   0.005  -0.091
tot          0.081  -0.375   6.069   5.774

 BZINTS: Fermi energy: -2.147584; 56.000000 electrons
         Band energy:-372.864539;  BLOECHL correction:  0.000000