 vasp.5.4.4.18Apr17-6-g9f103f2a35 (build May  1 2020 15:48:39) complex
 executed on             LinuxGNU date 2020.06.29  17:49:22

 INCAR:
 POTCAR:   PAW_PBE Co 06Sep2000
 POTCAR:   PAW_PBE Si 05Jan2001
 POTCAR:    PAW_PBE P 17Jan2003
 POTCAR:    PAW_PBE S 17Jan2003

 POTCAR:   PAW_PBE Co 06Sep2000
   VRHFIN =Co: d8 s1

   TITEL  = PAW_PBE Co 06Sep2000
   POMASS =   58.933; ZVAL   =    9.000    mass and valenz
   ENMAX  =  267.969; ENMIN  =  200.977 eV
   QCUT   =   -4.438; QGAM   =    8.876    optimization parameters

   Description
     l     E      TYP  RCUT    TYP  RCUT
     2   .000     23  2.300
     2   .000     23  2.300
     0   .000     23  2.300
     0   .000     23  2.300
     1  -.200     23  2.300
     1   .000     23  2.300
     3   .000      7   .000

 POTCAR:   PAW_PBE Si 05Jan2001
   VRHFIN =Si: s2p2

   TITEL  = PAW_PBE Si 05Jan2001
   POMASS =   28.085; ZVAL   =    4.000    mass and valenz
   ENMAX  =  245.345; ENMIN  =  184.009 eV
   QCUT   =   -4.246; QGAM   =    8.493    optimization parameters

[...]

 POTCAR:    PAW_PBE P 17Jan2003
   VRHFIN =P : s2p3

[...]

 POTCAR:    PAW_PBE S 17Jan2003
   VRHFIN =S : s2p4

   TITEL  = PAW_PBE S 17Jan2003
   POMASS =   32.066; ZVAL   =    6.000    mass and valenz
   ENMAX  =  280.000; ENMIN  =  194.016 eV
   QCUT   =   -4.360; QGAM   =    8.721    optimization parameters

   Description
     l     E      TYP  RCUT    TYP  RCUT
     0   .000     23  1.900
     0   .000     23  1.900
     1   .000     23  1.900
     1   .000     23  1.900
     2   .000     23  1.900

 Optimization of the real space projectors (new method)

 maximal supplied QI-value         = 16.25
 optimisation between [QCUT,QGAM] = [ 11.54, 23.24] = [ 37.28,151.24] Ry
 Optimized for a Real-space Cutoff    1.53 Angstroem

   l    n(q)    QCUT    max X(q) W(low)/X(q) W(high)/X(q)  e(spline)
   2     10    11.539     4.599    0.83E-05    0.15E-04    0.45E-07
   2     10    11.539    18.158    0.10E-03    0.14E-03    0.24E-06
   0     11    11.539    15.740    0.19E-04    0.12E-05    0.17E-07
   0     11    11.539    47.662    0.48E-04    0.15E-04    0.31E-06
   1     10    11.539     5.777    0.11E-04    0.46E-05    0.25E-07
   1     10    11.539     8.007    0.46E-04    0.29E-04    0.11E-06
 Optimization of the real space projectors (new method)

[...]

   l    n(q)    QCUT    max X(q) W(low)/X(q) W(high)/X(q)  e(spline)
   0      8    11.508     6.651    0.19E-04    0.31E-05    0.49E-08
   0      8    11.508    90.285    0.95E-04    0.17E-03    0.51E-07
   1      8    11.508     4.328    0.14E-04    0.32E-04    0.22E-07
   1      8    11.508    54.583    0.16E-03    0.71E-04    0.89E-07
 Optimization of the real space projectors (new method)

 maximal supplied QI-value         = 19.84
 optimisation between [QCUT,QGAM] = [ 11.51, 23.22] = [ 37.09,150.92] Ry
 Optimized for a Real-space Cutoff    1.21 Angstroem

   l    n(q)    QCUT    max X(q) W(low)/X(q) W(high)/X(q)  e(spline)
   0      8    11.508     5.487    0.18E-04    0.22E-05    0.47E-08
   0      8    11.508    85.627    0.96E-04    0.18E-03    0.54E-07
   1      8    11.508     3.530    0.17E-04    0.28E-04    0.21E-07
   1      8    11.508    42.714    0.18E-03    0.63E-04    0.92E-07

 PAW_PBE Co 06Sep2000                   :
 PAW_PBE Si 05Jan2001                   :
  PAW_PBE P 17Jan2003                   :
  PAW_PBE S 17Jan2003                   :

 POSCAR: Co2 Si P S6
  positions in direct lattice
  velocities in cartesian coordinates
 exchange correlation table for  LEXCH =       42
   RHO(1)=    0.500       N(1)  =     2000
   RHO(2)=  100.500       N(2)  =     4000

 ion  position               nearest neighbor table
   1  0.333  0.333  0.500-   6 2.78   5 2.78   7 2.78   8 2.78  10 2.78   9 2.78
   2  0.667  0.667  0.500-   9 2.78   8 2.78  10 2.78   5 2.78   7 2.78   6 2.78
   3  0.000  0.000  0.448-   4 2.43   8 2.63  10 2.63   9 2.63
   4  0.000  0.000  0.552-   3 2.43   5 2.63   7 2.63   6 2.63
   5  0.626  0.000  0.574-   4 2.63   1 2.78   2 2.78
   6  0.000  0.373  0.574-   4 2.63   1 2.78   2 2.78
   7  0.373  0.626  0.574-   4 2.63   1 2.78   2 2.78
   8  0.374  1.000  0.426-   3 2.63   2 2.78   1 2.78
   9  1.000  0.627  0.426-   3 2.63   2 2.78   1 2.78
  10  0.627  0.374  0.426-   3 2.63   2 2.78   1 2.78

  LATTYP: Found a hexagonal cell.
 ALAT       =     6.9077769333
 C/A-ratio  =     3.3939410937

  Lattice vectors:

 A1 = (   3.4538890000,  -5.9823100000,   0.0000000000)
 A2 = (  -6.9077770000,   0.0000000000,   0.0000000000)
 A3 = (   0.0000000000,   0.0000000000, -23.4445880000)

Analysis of symmetry for initial positions (statically):
 Subroutine PRICEL returns:
 Original cell was already a primitive cell.

 Routine SETGRP: Setting up the symmetry group for a
 hexagonal supercell.

 Subroutine GETGRP returns: Found  3 space group operations
 (whereof  3 operations were pure point group operations)
 out of a pool of 24 trial point group operations.

The static configuration has the point symmetry C_3 .

Analysis of symmetry for dynamics (positions and initial velocities):
 Subroutine PRICEL returns:
 Original cell was already a primitive cell.

[...]

The dynamic configuration has the point symmetry C_3 .

Analysis of constrained symmetry for selective dynamics:
 Subroutine PRICEL returns:
 Original cell was already a primitive cell.

[...]

The constrained configuration has the point symmetry C_3 .

Analysis of structural, dynamic, and magnetic symmetry:
 Subroutine PRICEL returns:
 Original cell was already a primitive cell.

 Routine SETGRP: Setting up the symmetry group for a
 hexagonal supercell.

 Subroutine GETGRP returns: Found  3 space group operations
 (whereof  3 operations were pure point group operations)
 out of a pool of 24 trial point group operations.

The magnetic configuration has the point symmetry C_3 .

 Subroutine INISYM returns: Found  3 space group operations
 (whereof  3 operations are pure point group operations),
 and found     1 'primitive' translations

 KPOINTS: Kpoints from vasprun.xml

Automatic generation of k-mesh.
Space group operators:
 irot       det(A)        alpha          n_x          n_y          n_z        tau_x        tau_y        tau_z
    1     1.000000     0.000000     1.000000     0.000000     0.000000     0.000000     0.000000     0.000000
    2     1.000000   120.000000     0.000000     0.000000     1.000000     0.000000     0.000000     0.000000
    3     1.000000   120.000000     0.000000     0.000000    -1.000000     0.000000     0.000000     0.000000

 Subroutine IBZKPT returns following result:

 Found      5 irreducible k-points:

 Following reciprocal coordinates:
            Coordinates               Weight
  0.000000  0.000000  0.000000      1.000000
  0.200000  0.000000  0.000000      6.000000
  0.400000  0.000000  0.000000      6.000000
  0.400000  0.200000  0.000000      6.000000
 -0.400000  0.200000  0.000000      6.000000

 Following cartesian coordinates:
            Coordinates               Weight
  0.000000  0.000000  0.000000      1.000000
  0.028953 -0.016716  0.000000      6.000000
  0.057906 -0.033432  0.000000      6.000000
  0.057906  0.000000  0.000000      6.000000
 -0.057906  0.066864  0.000000      6.000000

 TETIRR: Found     15 inequivalent tetrahedra from      150

 SYSTEM =  unknown system
 POSCAR =  Co2 Si P S6

 Startparameter for this run:
   NWRITE =      2    write-flag & timer
   PREC   = accura    normal or accurate (medium, high low for compatibility)
   ISTART =      0    job   : 0-new  1-cont  2-samecut
   ICHARG =      2    charge: 1-file 2-atom 10-const
   ISPIN  =      2    spin polarized calculation?
   LNONCOLLINEAR =      F non collinear calculations
   LSORBIT =      F    spin-orbit coupling
   INIWAV =      1    electr: 0-lowe 1-rand  2-diag
   LASPH  =      F    aspherical Exc in radial PAW
   METAGGA=      F    non-selfconsistent MetaGGA calc.

 Electronic Relaxation 1
   ENCUT  =  520.0 eV  38.22 Ry    6.18 a.u.  12.84 12.84 43.59*2*pi/ulx,y,z
   ENINI  =  520.0     initial cutoff
   ENAUG  =  477.8 eV  augmentation charge cutoff
   NELM   =    400;   NELMIN=  2; NELMDL=  0     # of ELM steps
   EDIFF  = 0.1E-03   stopping-criterion for ELM
   LREAL  =      T    real-space projection
   NLSPLINE    = F    spline interpolate recip. space projectors
   LCOMPAT=      F    compatible to vasp.4.4
   GGA_COMPAT  = T    GGA compatible to vasp.4.4-vasp.4.6
   LMAXPAW     = -100 max onsite density
   LMAXMIX     =    2 max onsite mixed and CHGCAR
   VOSKOWN=      0    Vosko Wilk Nusair interpolation
   ROPT   =   -0.00025  -0.00025  -0.00025  -0.00025
 Ionic relaxation
   EDIFFG = 0.1E-02   stopping-criterion for IOM
   NSW    =     99    number of steps for IOM
   NBLOCK =      1;   KBLOCK =     99    inner block; outer block
   IBRION =      2    ionic relax: 0-MD 1-quasi-New 2-CG
   NFREE  =      1    steps in history (QN), initial steepest desc. (CG)
   ISIF   =      3    stress and relaxation
   IWAVPR =     11    prediction:  0-non 1-charg 2-wave 3-comb
   ISYM   =      2    0-nonsym 1-usesym 2-fastsym
   LCORR  =      T    Harris-Foulkes like correction to forces

   POTIM  = 0.5000    time-step for ionic-motion
   TEIN   =    0.0    initial temperature
   TEBEG  =    0.0;   TEEND  =   0.0 temperature during run
   SMASS  =  -3.00    Nose mass-parameter (am)
   estimated Nose-frequenzy (Omega)   =  0.10E-29 period in steps =****** mass=  -0.109E-26a.u.
   SCALEE = 1.0000    scale energy and forces
   NPACO  =    256;   APACO  = 16.0  distance and # of slots for P.C.
   PSTRESS=    0.0 pullay stress

  Mass of Ions in am
   POMASS =  58.93 28.09 30.97 32.07
  Ionic Valenz
   ZVAL   =   9.00  4.00  5.00  6.00
  Atomic Wigner-Seitz radii
  virtual crystal weights
   VCA    =   1.00  1.00  1.00  1.00
   NELECT =      63.0000    total number of electrons
   NUPDOWN=      -1.0000    fix difference up-down

 DOS related values:
   EMIN   =  10.00;   EMAX   =-10.00  energy-range for DOS
   EFERMI =   0.00
   ISMEAR =    -5;   SIGMA  =   0.05  broadening in eV -4-tet -1-fermi 0-gaus

 Electronic relaxation 2 (details)
   IALGO  =     38    algorithm
   LDIAG  =      T    sub-space diagonalisation (order eigenvalues)
   LSUBROT=      F    optimize rotation matrix (better conditioning)
   TURBO    =      0    0=normal 1=particle mesh
   IRESTART =      0    0=no restart 2=restart with 2 vectors
   NREBOOT  =      0    no. of reboots
   NMIN     =      0    reboot dimension
   EREF     =   0.00    reference energy to select bands
   IMIX   =      4    mixing-type and parameters
     AMIX     =   0.40;   BMIX     =  1.00
     AMIX_MAG =   1.60;   BMIX_MAG =  1.00
     AMIN     =   0.01
     WC   =   100.;   INIMIX=   1;  MIXPRE=   1;  MAXMIX= -45

 Intra band minimization:
   WEIMIN = 0.0010     energy-eigenvalue tresh-hold
   EBREAK =  0.52E-06  absolut break condition
   DEPER  =   0.30     relativ break condition

   TIME   =   0.40     timestep for ELM

  volume/ion in A,a.u.               =      96.88       653.80
  Fermi-wavevector in a.u.,A,eV,Ry     =   0.658322  1.244048  5.896601  0.433388
  Thomas-Fermi vector in A             =   1.730108

 Write flags
[...]
  n-local   450.90304   452.00116   471.28631     0.54137    -0.07420    -0.26723
  augment   -21.00799   -21.00782   -32.78150    -0.00005     0.00006     0.00002
  Kinetic   663.80182   661.97625   702.50108    -1.02619     0.17347    -0.27947
  Fock        0.00000     0.00000     0.00000     0.00000     0.00000     0.00000
  Total     -31.28814   -31.28814   -19.04446     0.00000     0.00000    -0.00000
  in kB     -51.74168   -51.74167   -31.49412     0.00001     0.00000    -0.00000

 VOLUME and BASIS-vectors are now :
  energy-cutoff  :      520.00
  volume of cell :      968.84
      direct lattice vectors                 reciprocal lattice vectors
     6.907777000 -0.000000000  0.000000000     0.144764372 -0.083579742  0.000000000
     3.453888000  5.982310000  0.000000000     0.000000000  0.167159509 -0.000000000
     0.000000000  0.000000000 23.444588000    -0.000000000  0.000000000  0.042653767

[...]

 FORCES acting on ions
    electron-ion (+dipol)            ewald-force                    non-local-force                 convergence-correction
   0.157E-03 0.792E-04 0.903E+01   0.562E-03 0.337E-03 -.908E+01   0.130E-17 -.173E-17 0.882E-01   0.171E-06 0.758E-07 0.760E-04
   -.160E-03 -.794E-04 0.690E+01   -.562E-03 -.337E-03 -.698E+01   -.694E-17 0.347E-17 0.117E+00   -.170E-06 -.913E-07 -.465E-03
   -.249E-04 0.297E-06 0.193E+03   -.141E-03 -.779E-04 -.191E+03   0.694E-17 -.139E-16 -.179E+01   -.881E-09 -.369E-08 0.790E-01
   0.320E-04 0.191E-04 -.225E+03   0.176E-03 0.974E-04 0.224E+03   0.104E-16 0.000E+00 0.163E+01   -.223E-08 0.300E-08 -.988E-01
   -.131E+02 0.150E+00 -.405E+03   0.106E+02 -.146E+00 0.408E+03   0.385E+01 -.831E-02 -.473E+01   -.467E-01 -.347E-03 -.222E+00
   0.667E+01 0.113E+02 -.405E+03   -.542E+01 -.910E+01 0.408E+03   -.193E+01 -.333E+01 -.473E+01   0.230E-01 0.406E-01 -.222E+00
   0.641E+01 -.114E+02 -.405E+03   -.517E+01 0.925E+01 0.408E+03   -.192E+01 0.334E+01 -.473E+01   0.236E-01 -.402E-01 -.222E+00
   0.201E+02 -.157E+00 0.410E+03   -.172E+02 0.153E+00 -.414E+03   -.451E+01 0.112E-01 0.485E+01   0.462E-01 -.367E-03 0.224E+00
   -.102E+02 -.173E+02 0.410E+03   0.874E+01 0.148E+02 -.414E+03   0.227E+01 0.390E+01 0.485E+01   -.234E-01 -.398E-01 0.224E+00
   -.992E+01 0.175E+02 0.410E+03   0.847E+01 -.150E+02 -.414E+03   0.225E+01 -.391E+01 0.485E+01   -.228E-01 0.402E-01 0.224E+00
   0.164E-04 0.225E-04 -.398E+00   -.711E-14 0.178E-14 -.568E-13   0.178E-14 0.000E+00 0.413E+00   0.695E-08 -.109E-07 -.150E-01

 POSITION                                       TOTAL-FORCE (eV/Angst)
      3.45388      1.99410     11.72054         0.000000     -0.000000      0.042687
      6.90778      3.98821     11.72405         0.000000     -0.000000      0.032371
      0.00000      0.00000     10.50824         0.000000     -0.000000     -0.097947
      0.00000      0.00000     12.93635         0.000000     -0.000000      0.161396
      4.32819      0.00251     13.45138         1.321885     -0.002936     -1.714078
      1.29198      2.23274     13.45138        -0.663485     -1.143318     -1.714078
      4.74152      3.74706     13.45138        -0.658400      1.146254     -1.714078
      6.03348      5.97980      9.99321        -1.553144      0.005228      1.667909
      9.06969      3.74957      9.99321         0.781099      1.342448      1.667909
      5.62015      2.23525      9.99321         0.772044     -1.347676      1.667909
    total drift:                                0.000016      0.000022     -0.000431

  FREE ENERGIE OF THE ION-ELECTRON SYSTEM (eV)
  free  energy   TOTEN  =       -38.81720105 eV

  energy  without entropy=      -38.81720105  energy(sigma->0) =      -38.81720105

[...]

 d Force = 0.8041099E+00[ 0.344E+00, 0.126E+01]  d Energy = 0.9696159E+01-0.889E+01
 d Force =-0.2117654E+03[-0.248E+03,-0.175E+03]  d Ewald  =-0.2573634E+04 0.236E+04

 Steepest descent step on ions:
 trial-energy change:   -9.696159  1 .order   -7.693902  -12.626847   -2.760956
  (g-gl).g = 0.126E+02      g.g   = 0.126E+02  gl.gl    = 0.000E+00
 g(Force)  = 0.143E+01   g(Stress)= 0.112E+02 ortho     = 0.000E+00
 gamma     =   0.00000
 trial     =   1.00000
 opt step  =   1.11848  (harmonic =   1.27985) maximal distance =0.08999793
 next E    =   -48.680252   (d E  =  -9.86305)

[...]

 d Force = 0.2063909E-01[-0.341E-02, 0.447E-01]  d Energy = 0.1663134E+00-0.146E+00
 d Force =-0.3270610E+02[-0.335E+02,-0.320E+02]  d Ewald  =-0.3961242E+03 0.363E+03

[...]

 d Force = 0.4824951E-04[-0.323E-03, 0.420E-03]  d Energy = 0.2554146E-02-0.251E-02
 d Force = 0.3925705E+01[ 0.392E+01, 0.394E+01]  d Ewald  = 0.4726037E+02-0.433E+02

[...]

 d Force = 0.3693547E-01[ 0.201E-01, 0.538E-01]  d Energy = 0.4887157E-01-0.119E-01
 d Force =-0.4259666E+02[-0.425E+02,-0.427E+02]  d Ewald  = 0.1702937E+03-0.213E+03

 Conjugate gradient step on ions:
 trial-energy change:   -0.048872  1 .order   -0.051091   -0.076506   -0.025677
  (g-gl).g = 0.720E-01      g.g   = 0.749E-01  gl.gl    = 0.126E+02
 g(Force)  = 0.527E-01   g(Stress)= 0.222E-01 ortho     = 0.292E-02
 gamma     =   0.00570
 trial     =   1.02094
 opt step  =   2.21856  (harmonic =   1.53668) maximal distance =0.04877444
 next E    =   -48.742577   (d E  =  -0.06035)

[...]

 d Force = 0.1879808E-02[-0.197E-01, 0.235E-01]  d Energy =-0.9591492E-02 0.115E-01
 d Force =-0.4970550E+02[-0.496E+02,-0.498E+02]  d Ewald  = 0.1986875E+03-0.248E+03

[...]

 d Force = 0.4272654E-02[-0.245E-02, 0.110E-01]  d Energy = 0.1008456E-01-0.581E-02
 d Force = 0.2818212E+02[ 0.282E+02, 0.281E+02]  d Ewald  =-0.1103480E+03 0.139E+03

[...]

 d Force = 0.2819117E-02[-0.877E-02, 0.144E-01]  d Energy = 0.1821276E-02 0.998E-03
 d Force =-0.3664371E+01[-0.358E+01,-0.375E+01]  d Ewald  = 0.3272084E+02-0.364E+02

 Conjugate gradient step on ions:
 trial-energy change:   -0.001821  1 .order   -0.003060   -0.017623    0.011504
  (g-gl).g = 0.184E-01      g.g   = 0.164E-01  gl.gl    = 0.749E-01
 g(Force)  = 0.119E-01   g(Stress)= 0.450E-02 ortho     =-0.302E-02
 gamma     =   0.24535
 trial     =   1.12696
 opt step  =   0.61049  (harmonic =   0.68186) maximal distance =0.00792850
 next E    =   -48.736169   (d E  =  -0.00458)

[...]

 d Force = 0.1732873E-02[-0.544E-03, 0.401E-02]  d Energy = 0.2405827E-02-0.673E-03
 d Force = 0.1653786E+01[ 0.167E+01, 0.164E+01]  d Ewald  =-0.1499138E+02 0.166E+02

[...]

 Conjugate gradient step on ions:
 trial-energy change:   -0.001426  1 .order   -0.001391   -0.002425   -0.000356
  (g-gl).g = 0.210E-02      g.g   = 0.238E-02  gl.gl    = 0.164E-01
 g(Force)  = 0.184E-02   g(Stress)= 0.540E-03 ortho     =-0.106E-03
 gamma     =   0.12827
 trial     =   1.02367
 opt step  =   1.20008  (harmonic =   1.20008) maximal distance =0.00387067
 next E    =   -48.737241   (d E  =  -0.00142)

[...]

 d Force = 0.7820089E-04[ 0.533E-04, 0.103E-03]  d Energy = 0.1557026E-03-0.775E-04
 d Force =-0.4807268E+00[-0.481E+00,-0.481E+00]  d Ewald  =-0.1131221E+01 0.650E+00

[...]

 eigenvalue-minimisations  :  1120
 total energy-change (2. order) : 0.2023133E-03  (-0.6545422E-04)
 number of electron      63.0000004 magnetization       0.9997270
 augmentation part        4.6312584 magnetization       0.5722683

[...]

 eigenvalues of (default mixing * dielectric matrix)
  average eigenvalue GAMMA=   0.8409
  2.1958  0.7520  0.2724  0.1432

[...]

 d Force = 0.3750072E-03[ 0.239E-05, 0.748E-03]  d Energy = 0.1825882E-03 0.192E-03
 d Force = 0.8617531E+00[ 0.863E+00, 0.860E+00]  d Ewald  = 0.2453003E+02-0.237E+02

 Conjugate gradient step on ions:
 trial-energy change:   -0.000183  1 .order   -0.000463   -0.000987    0.000062
  (g-gl).g = 0.400E-03      g.g   = 0.875E-03  gl.gl    = 0.238E-02
 g(Force)  = 0.656E-03   g(Stress)= 0.219E-03 ortho     = 0.341E-03
 gamma     =   0.16797
 trial     =   1.05895
 opt step  =   0.99636  (harmonic =   0.99636) maximal distance =0.00255969
 next E    =   -48.737866   (d E  =  -0.00046)

[...]

 Broyden mixing:
  rms(total) = 0.11311E-02    rms(broyden)= 0.11310E-02
  rms(prec ) = 0.12925E-02
  weight for this iteration     100.00

[...]

--------------------------------------- Iteration     13(   2)  ---------------------------------------

[...]

 eigenvalue-minimisations  :   656
 total energy-change (2. order) :-0.5298371E-06  (-0.3378647E-05)
 number of electron      63.0000004 magnetization       0.9997354
 augmentation part        4.6325978 magnetization       0.5722570

 Free energy of the ion-electron system (eV)
  alpha Z        PSCENC =        39.73979301
  Ewald energy   TEWEN  =     10424.97727124
  -Hartree energ DENC   =    -13650.41564304
  -exchange      EXHF   =         0.00000000
  -V(xc)+E(xc)   XCENC  =        99.82334746
  PAW double counting   =      2111.38914230    -2167.94470011
  entropy T*S    EENTRO =         0.00000000
  eigenvalues    EBANDS =      -486.95247262
  atomic energy  EATOM  =      3580.64568177
  Solvation  Ediel_sol  =         0.00000000
  free energy    TOTEN  =       -48.73757998 eV

  energy without entropy =      -48.73757998  energy(sigma->0) =      -48.73757998

 average (electrostatic) potential at core
  the test charge radii are     1.0452  0.9892  0.9587  0.9698
  (the norm of the test charge is              1.0000)
       1 -48.6528       2 -48.6512       3 -92.5485       4 -92.5575       5 -94.4490
       6 -94.4489       7 -94.4489       8 -94.0085       9 -94.0085      10 -94.0085

 E-fermi :  -1.9088     XC(G=0):  -3.8099     alpha+bet : -3.2813

[...]

 spin component 2

[...]

 k-point     5 :      -0.4000    0.2000    0.0000
  band No.  band energies     occupation
      1     -17.6255      1.00000
      2     -16.4257      1.00000
      3     -16.0485      1.00000
      4     -15.8964      1.00000
      5     -15.5047      1.00000
      6     -15.3077      1.00000
      7     -11.9472      1.00000
      8      -9.8670      1.00000
      9      -8.6786      1.00000
     10      -8.1835      1.00000
     11      -7.8748      1.00000
     12      -7.2849      1.00000
     13      -7.1986      1.00000
     14      -6.5817      1.00000
     15      -6.2969      1.00000
     16      -6.2179      1.00000
     17      -6.0345      1.00000
     18      -5.7131      1.00000
     19      -5.6431      1.00000
     20      -5.3298      1.00000
     21      -5.3025      1.00000
     22      -4.4682      1.00000
     23      -4.3746      1.00000
     24      -4.2053      1.00000
     25      -4.1691      1.00000
     26      -3.5294      1.00000
     27      -3.3326      1.00000
     28      -3.2271      1.00000
     29      -2.9551      1.00000
     30      -2.8615      1.00000
     31      -2.8354      1.00000
     32      -1.6836     -0.00267
     33      -1.5045      0.00000
     34      -1.1791      0.00000
     35      -0.8795      0.00000
     36      -0.5990      0.00000
     37       0.6767      0.00000
     38       0.7853      0.00000
     39       1.0892      0.00000
     40       1.8772      0.00000
     41       2.1477      0.00000
     42       2.1639      0.00000
     43       3.3221      0.00000
     44       3.4815      0.00000
     45       3.5106      0.00000
     46       3.7305      0.00000
     47       3.8792      0.00000
     48       4.3466      0.00000

[...]

 soft charge-density along one line, spin component           2
         0         1         2         3         4         5         6         7         8         9
 total charge-density along one line

------------------------ aborting loop because EDIFF is reached ----------------------------------------

[...]

  FORCE on cell =-STRESS in cart. coord.  units (eV):
  Direction    XX          YY          ZZ          XY          YZ          ZX
  Alpha Z    39.73979    39.73979    39.73979
  Ewald   12660.29683 12660.29370-14895.61589    -0.00210    -0.00063    -0.00113
  Hartree 13240.08086 13240.08166-12830.03763    -0.00033     0.00006     0.00009
  E(xc)    -253.90856  -253.90857  -253.76314     0.00003     0.00001     0.00001
  Local  -26834.82469-26834.82393 26745.45327     0.00194     0.00037     0.00068
  n-local   463.90374   465.50900   470.40407     0.75234     0.81311     0.72814
  augment   -23.82810   -23.82796   -28.86256     0.00005    -0.00001     0.00008
  Kinetic   711.90165   703.48286   752.65866    -4.67559    -0.83993    -1.11376
  Fock        0.00000     0.00000     0.00000     0.00000     0.00000     0.00000
  Total      -0.04597    -0.04597    -0.02342    -0.00000    -0.00000     0.00000
  in kB      -0.12275    -0.12275    -0.06255    -0.00000    -0.00000     0.00000

 VOLUME and BASIS-vectors are now :
  energy-cutoff  :      520.00
  volume of cell :      599.96
      direct lattice vectors                 reciprocal lattice vectors
     5.781826557  0.000000102  0.000000000     0.172955726 -0.099856026 -0.000000000
     2.890912937  5.007208545  0.000000000    -0.000000004  0.199712075  0.000000000
     0.000000000 -0.000000000 20.723421077    -0.000000000 -0.000000000  0.048254581

  length of vectors
     5.781826557  5.781826271 20.723421077     0.199712065  0.199712075  0.048254581

 FORCES acting on ions
    electron-ion (+dipol)            ewald-force                    non-local-force                 convergence-correction
   -.148E-03 -.991E-04 0.922E+01   0.828E-03 0.488E-03 -.996E+01   -.684E-17 0.138E-16 0.776E+00   0.784E-07 -.706E-07 -.341E-02
   0.155E-03 0.909E-04 0.837E+01   -.821E-03 -.484E-03 -.911E+01   0.965E-19 -.336E-19 0.761E+00   0.195E-07 -.787E-07 -.875E-03
   -.297E-04 -.194E-04 0.294E+03   -.225E-03 -.127E-03 -.290E+03   -.536E-18 0.187E-18 -.423E+01   -.264E-07 -.148E-07 0.497E-02
   0.408E-04 0.271E-04 -.344E+03   0.282E-03 0.158E-03 0.338E+03   -.200E-16 0.136E-16 0.644E+01   -.877E-07 -.476E-07 -.105E-01
   -.133E+02 0.300E-01 -.580E+03   0.935E+01 -.153E-01 0.584E+03   0.391E+01 -.558E-02 -.443E+01   -.146E-01 -.121E-01 -.200E-01
   0.665E+01 0.115E+02 -.580E+03   -.469E+01 -.809E+01 0.584E+03   -.196E+01 -.339E+01 -.443E+01   -.316E-02 0.187E-01 -.200E-01
   0.660E+01 -.115E+02 -.580E+03   -.466E+01 0.811E+01 0.584E+03   -.195E+01 0.339E+01 -.443E+01   0.178E-01 -.661E-02 -.200E-01
   0.241E+02 0.699E-02 0.589E+03   -.210E+02 0.409E-02 -.593E+03   -.308E+01 0.365E-02 0.425E+01   0.111E-01 -.117E-01 0.172E-01
   -.120E+02 -.208E+02 0.589E+03   0.105E+02 0.182E+02 -.593E+03   0.154E+01 0.266E+01 0.425E+01   -.157E-01 -.377E-02 0.172E-01
   -.120E+02 0.208E+02 0.589E+03   0.105E+02 -.182E+02 -.593E+03   0.154E+01 -.267E+01 0.425E+01   0.456E-02 0.154E-01 0.172E-01
   0.410E-04 0.321E-04 -.320E+01   0.711E-14 0.000E+00 0.227E-12   0.000E+00 0.444E-15 0.321E+01   -.263E-07 -.211E-06 -.181E-01

 POSITION                                       TOTAL-FORCE (eV/Angst)
      2.89091      1.66907     10.36524        -0.000000     -0.000000      0.029847
      5.78183      3.33814     10.36635        -0.000000     -0.000000      0.024696
      0.00000     -0.00000      9.25343        -0.000000      0.000000     -0.060695
      0.00000     -0.00000     11.45744        -0.000000      0.000000      0.041206
      3.67526      0.00050     11.78789         0.000626     -0.002075      0.003214
      1.05372      1.82409     11.78789        -0.002110      0.000496      0.003214
      3.94376      3.18262     11.78789         0.001484      0.001579      0.003214
      5.01461      5.00677      8.93699        -0.001797      0.002225     -0.014899
      7.61051      3.16825      8.93699         0.002826      0.000444     -0.014899
      4.72035      1.83940      8.93699        -0.001029     -0.002669     -0.014899
    total drift:                                0.000041      0.000032     -0.008796

  FREE ENERGIE OF THE ION-ELECTRON SYSTEM (eV)
  free  energy   TOTEN  =       -48.73757998 eV

  energy  without entropy=      -48.73757998  energy(sigma->0) =      -48.73757998

 d Force =-0.9912502E-06[-0.184E-05,-0.142E-06]  d Energy =-0.3679175E-05 0.269E-05
 d Force =-0.5107541E-01[-0.511E-01,-0.511E-01]  d Ewald  =-0.1449177E+01 0.140E+01

 reached required accuracy - stopping structural energy minimisation

 total charge

[...]

 magnetization (x)

# of ion       s       p       d       tot
    1        0.001   0.001   0.359   0.361
    2        0.001   0.001   0.359   0.361
    3        0.006   0.015   0.000   0.021
    4        0.012   0.015   0.000   0.027
    5        0.008   0.009   0.000   0.018
    6        0.006   0.004   0.000   0.010
    7        0.006   0.009   0.000   0.015
    8        0.007  -0.005   0.000   0.002
    9        0.006   0.006   0.000   0.013
   10        0.005  -0.001   0.000   0.005
tot          0.059   0.055   0.718   0.832

 BZINTS: Fermi energy: -1.908831; 63.000000 electrons
         Band energy:-486.952473;  BLOECHL correction: -0.011357