 vasp.5.4.4.18Apr17-6-g9f103f2a35 (build May  1 2020 15:48:39) complex
 executed on             LinuxGNU date 2020.07.04  12:38:09

 INCAR:
 POTCAR:   PAW_PBE Fe 06Sep2000
 POTCAR:    PAW_PBE P 17Jan2003
 POTCAR:   PAW_PBE Te 08Apr2002

 POTCAR:   PAW_PBE Fe 06Sep2000
   VRHFIN =Fe:  d7 s1

   TITEL  = PAW_PBE Fe 06Sep2000
   POMASS =   55.847; ZVAL   =    8.000    mass and valenz
   ENMAX  =  267.883; ENMIN  =  200.912 eV
   QCUT   =   -4.437; QGAM   =    8.874    optimization parameters

   Description
     l     E      TYP  RCUT    TYP  RCUT
     2   .000     23  2.300
     2   .000     23  2.300
     0   .000     23  2.300
     0   .000     23  2.300
     1  -.200     23  2.300
     1   .000     23  2.300
     3   .000      7   .000

 POTCAR:    PAW_PBE P 17Jan2003
   VRHFIN =P : s2p3

   TITEL  = PAW_PBE P 17Jan2003
   POMASS =   30.974; ZVAL   =    5.000    mass and valenz
   ENMAX  =  270.000; ENMIN  =  191.280 eV
   QCUT   =   -4.330; QGAM   =    8.659    optimization parameters

[...]

 POTCAR:   PAW_PBE Te 08Apr2002
   VRHFIN =Te: s2p4

   TITEL  = PAW_PBE Te 08Apr2002
   POMASS =  127.600; ZVAL   =    6.000    mass and valenz
   ENMAX  =  174.982; ENMIN  =  131.236 eV
   QCUT   =   -3.586; QGAM   =    7.172    optimization parameters

   Description
     l     E      TYP  RCUT    TYP  RCUT
     0   .000     23  2.300
     0   .000     23  2.300
     1   .000     23  2.300
     1   .000     23  2.300
     2   .000     23  2.300
     3  -.100     23  2.300

 Optimization of the real space projectors (new method)

 maximal supplied QI-value         = 16.25
 optimisation between [QCUT,QGAM] = [ 11.54, 23.24] = [ 37.28,151.24] Ry
 Optimized for a Real-space Cutoff    1.53 Angstroem

   l    n(q)    QCUT    max X(q) W(low)/X(q) W(high)/X(q)  e(spline)
   2     10    11.539     4.378    0.86E-05    0.15E-04    0.46E-07
   2     10    11.539    23.237    0.11E-03    0.14E-03    0.22E-06
   0     11    11.539    17.641    0.19E-04    0.14E-05    0.18E-07
   0     11    11.539    50.908    0.43E-04    0.16E-04    0.30E-06
   1     10    11.539     6.148    0.11E-04    0.38E-05    0.26E-07
   1     10    11.539     8.345    0.44E-04    0.25E-04    0.11E-06
 Optimization of the real space projectors (new method)

[...]

   l    n(q)    QCUT    max X(q) W(low)/X(q) W(high)/X(q)  e(spline)
   0      8    11.508     6.651    0.19E-04    0.31E-05    0.49E-08
   0      8    11.508    90.285    0.95E-04    0.17E-03    0.51E-07
   1      8    11.508     4.328    0.14E-04    0.32E-04    0.22E-07
   1      8    11.508    54.583    0.16E-03    0.71E-04    0.89E-07
 Optimization of the real space projectors (new method)

 maximal supplied QI-value         = 16.25
 optimisation between [QCUT,QGAM] = [ 11.54, 23.24] = [ 37.28,151.24] Ry
 Optimized for a Real-space Cutoff    1.36 Angstroem

   l    n(q)    QCUT    max X(q) W(low)/X(q) W(high)/X(q)  e(spline)
   0      9    11.539     7.090    0.13E-04    0.25E-05    0.51E-08
   0      9    11.539   101.654    0.53E-04    0.69E-04    0.12E-06
   1      9    11.539     5.276    0.20E-04    0.98E-05    0.24E-07
   1      9    11.539    81.891    0.24E-03    0.13E-04    0.15E-06
   2      9    11.539     5.599    0.30E-04    0.97E-04    0.54E-07

 PAW_PBE Fe 06Sep2000                   :
  PAW_PBE P 17Jan2003                   :
 PAW_PBE Te 08Apr2002                   :

 POSCAR: Fe2 P2 Te6
  positions in direct lattice
  velocities in cartesian coordinates
 exchange correlation table for  LEXCH =       42
   RHO(1)=    0.500       N(1)  =     2000
   RHO(2)=  100.500       N(2)  =     4000

 ion  position               nearest neighbor table
   1  0.333  0.333  0.500-   6 2.78   5 2.78   7 2.78   8 2.78  10 2.78   9 2.78
   2  0.667  0.667  0.500-   9 2.78   8 2.78  10 2.78   5 2.78   7 2.78   6 2.78
   3  0.000  0.000  0.448-   4 2.43   8 2.63  10 2.63   9 2.63
   4  0.000  0.000  0.552-   3 2.43   5 2.63   7 2.63   6 2.63
   5  0.626  0.000  0.574-   4 2.63   1 2.78   2 2.78
   6  0.000  0.373  0.574-   4 2.63   1 2.78   2 2.78
   7  0.373  0.626  0.574-   4 2.63   1 2.78   2 2.78
   8  0.374  1.000  0.426-   3 2.63   2 2.78   1 2.78
   9  1.000  0.627  0.426-   3 2.63   2 2.78   1 2.78
  10  0.627  0.374  0.426-   3 2.63   2 2.78   1 2.78

  LATTYP: Found a hexagonal cell.
 ALAT       =     6.9077769333
 C/A-ratio  =     3.3939410937

  Lattice vectors:

 A1 = (   3.4538890000,  -5.9823100000,   0.0000000000)
 A2 = (  -6.9077770000,   0.0000000000,   0.0000000000)
 A3 = (   0.0000000000,   0.0000000000, -23.4445880000)

Analysis of symmetry for initial positions (statically):
 Subroutine PRICEL returns:
 Original cell was already a primitive cell.

 Routine SETGRP: Setting up the symmetry group for a
 hexagonal supercell.

 Subroutine GETGRP returns: Found  6 space group operations
 (whereof  6 operations were pure point group operations)
 out of a pool of 24 trial point group operations.

The static configuration has the point symmetry S_6 .

Analysis of symmetry for dynamics (positions and initial velocities):
 Subroutine PRICEL returns:
 Original cell was already a primitive cell.

[...]

The dynamic configuration has the point symmetry S_6 .

Analysis of constrained symmetry for selective dynamics:
 Subroutine PRICEL returns:
 Original cell was already a primitive cell.

[...]

The constrained configuration has the point symmetry S_6 .

Analysis of structural, dynamic, and magnetic symmetry:
 Subroutine PRICEL returns:
 Original cell was already a primitive cell.

 Routine SETGRP: Setting up the symmetry group for a
 hexagonal supercell.

 Subroutine GETGRP returns: Found  6 space group operations
 (whereof  6 operations were pure point group operations)
 out of a pool of 24 trial point group operations.

The magnetic configuration has the point symmetry S_6 .

 Subroutine INISYM returns: Found  6 space group operations
 (whereof  6 operations are pure point group operations),
 and found     1 'primitive' translations

 KPOINTS: Kpoints from vasprun.xml

Automatic generation of k-mesh.
Space group operators:
 irot       det(A)        alpha          n_x          n_y          n_z        tau_x        tau_y        tau_z
    1     1.000000     0.000000     1.000000     0.000000     0.000000     0.000000     0.000000     0.000000
    2    -1.000000     0.000000     1.000000     0.000000     0.000000     0.000000     0.000000     0.000000
    3     1.000000   120.000000     0.000000     0.000000     1.000000     0.000000     0.000000     0.000000
    4    -1.000000   120.000000     0.000000     0.000000     1.000000     0.000000     0.000000     0.000000
    5     1.000000   120.000000     0.000000     0.000000    -1.000000     0.000000     0.000000     0.000000
    6    -1.000000   120.000000     0.000000     0.000000    -1.000000     0.000000     0.000000     0.000000

 Subroutine IBZKPT returns following result:

 Found      5 irreducible k-points:

 Following reciprocal coordinates:
            Coordinates               Weight
  0.000000  0.000000  0.000000      1.000000
  0.200000  0.000000  0.000000      6.000000
  0.400000  0.000000  0.000000      6.000000
  0.400000  0.200000  0.000000      6.000000
 -0.400000  0.200000  0.000000      6.000000

 Following cartesian coordinates:
            Coordinates               Weight
  0.000000  0.000000  0.000000      1.000000
  0.028953 -0.016716  0.000000      6.000000
  0.057906 -0.033432  0.000000      6.000000
  0.057906  0.000000  0.000000      6.000000
 -0.057906  0.066864  0.000000      6.000000

 TETIRR: Found     15 inequivalent tetrahedra from      150

 SYSTEM =  unknown system
 POSCAR =  Fe2 P2 Te6

 Startparameter for this run:
   NWRITE =      2    write-flag & timer
   PREC   = accura    normal or accurate (medium, high low for compatibility)
   ISTART =      0    job   : 0-new  1-cont  2-samecut
   ICHARG =      2    charge: 1-file 2-atom 10-const
   ISPIN  =      2    spin polarized calculation?
   LNONCOLLINEAR =      F non collinear calculations
   LSORBIT =      F    spin-orbit coupling
   INIWAV =      1    electr: 0-lowe 1-rand  2-diag
   LASPH  =      F    aspherical Exc in radial PAW
   METAGGA=      F    non-selfconsistent MetaGGA calc.

 Electronic Relaxation 1
   ENCUT  =  520.0 eV  38.22 Ry    6.18 a.u.  12.84 12.84 43.59*2*pi/ulx,y,z
   ENINI  =  520.0     initial cutoff
   ENAUG  =  511.4 eV  augmentation charge cutoff
   NELM   =    400;   NELMIN=  2; NELMDL=  0     # of ELM steps
   EDIFF  = 0.1E-03   stopping-criterion for ELM
   LREAL  =      T    real-space projection
   NLSPLINE    = F    spline interpolate recip. space projectors
   LCOMPAT=      F    compatible to vasp.4.4
   GGA_COMPAT  = T    GGA compatible to vasp.4.4-vasp.4.6
   LMAXPAW     = -100 max onsite density
   LMAXMIX     =    2 max onsite mixed and CHGCAR
   VOSKOWN=      0    Vosko Wilk Nusair interpolation
   ROPT   =   -0.00025  -0.00025  -0.00025
 Ionic relaxation
   EDIFFG = 0.1E-02   stopping-criterion for IOM
   NSW    =     99    number of steps for IOM
   NBLOCK =      1;   KBLOCK =     99    inner block; outer block
   IBRION =      2    ionic relax: 0-MD 1-quasi-New 2-CG
   NFREE  =      1    steps in history (QN), initial steepest desc. (CG)
   ISIF   =      3    stress and relaxation
   IWAVPR =     11    prediction:  0-non 1-charg 2-wave 3-comb
   ISYM   =      2    0-nonsym 1-usesym 2-fastsym
   LCORR  =      T    Harris-Foulkes like correction to forces

   POTIM  = 0.5000    time-step for ionic-motion
   TEIN   =    0.0    initial temperature
   TEBEG  =    0.0;   TEEND  =   0.0 temperature during run
   SMASS  =  -3.00    Nose mass-parameter (am)
   estimated Nose-frequenzy (Omega)   =  0.10E-29 period in steps =****** mass=  -0.109E-26a.u.
   SCALEE = 1.0000    scale energy and forces
   NPACO  =    256;   APACO  = 16.0  distance and # of slots for P.C.
   PSTRESS=    0.0 pullay stress

  Mass of Ions in am
   POMASS =  55.85 30.97127.60
  Ionic Valenz
   ZVAL   =   8.00  5.00  6.00
  Atomic Wigner-Seitz radii
  virtual crystal weights
   VCA    =   1.00  1.00  1.00
   NELECT =      62.0000    total number of electrons
   NUPDOWN=      -1.0000    fix difference up-down

 DOS related values:
   EMIN   =  10.00;   EMAX   =-10.00  energy-range for DOS
   EFERMI =   0.00
   ISMEAR =    -5;   SIGMA  =   0.05  broadening in eV -4-tet -1-fermi 0-gaus

 Electronic relaxation 2 (details)
   IALGO  =     38    algorithm
   LDIAG  =      T    sub-space diagonalisation (order eigenvalues)
   LSUBROT=      F    optimize rotation matrix (better conditioning)
   TURBO    =      0    0=normal 1=particle mesh
   IRESTART =      0    0=no restart 2=restart with 2 vectors
   NREBOOT  =      0    no. of reboots
   NMIN     =      0    reboot dimension
   EREF     =   0.00    reference energy to select bands
   IMIX   =      4    mixing-type and parameters
     AMIX     =   0.40;   BMIX     =  1.00
     AMIX_MAG =   1.60;   BMIX_MAG =  1.00
     AMIN     =   0.01
     WC   =   100.;   INIMIX=   1;  MIXPRE=   1;  MAXMIX= -45

 Intra band minimization:
   WEIMIN = 0.0010     energy-eigenvalue tresh-hold
   EBREAK =  0.52E-06  absolut break condition
   DEPER  =   0.30     relativ break condition

[...]
    6        1.402   1.859   0.038   3.299
    7        1.409   1.883   0.037   3.329
    8        1.411   1.895   0.037   3.343
    9        1.402   1.859   0.038   3.299
   10        1.409   1.883   0.037   3.329
tot         11.303  14.477  12.603  38.383

 magnetization (x)

[...]

  FORCE on cell =-STRESS in cart. coord.  units (eV):
  Direction    XX          YY          ZZ          XY          YZ          ZX
  Alpha Z    15.28174    15.28174    15.28174
  Ewald    9288.44943  9288.44692-11057.41444    -0.00146    -0.00048    -0.00088
  Hartree  9798.73699  9798.73763 -9469.51298    -0.00010     0.00007     0.00012
  E(xc)    -254.75383  -254.75396  -254.92408     0.00014     0.00004     0.00000
  Local  -20000.91200-20000.91100 19576.28869     0.00130     0.00030     0.00057
  n-local   709.76138   708.74515   734.23325    -1.03574    -0.17772    -0.68102
  augment  -100.58729  -100.58703  -113.40756    -0.00011    -0.00056     0.00038
  Kinetic   540.52696   533.91490   563.57029    -4.19657    -2.09984    -1.61390
  Fock        0.00000     0.00000     0.00000     0.00000     0.00000     0.00000
  Total      -7.31114    -7.31114    -5.88510     0.00000     0.00000     0.00000
  in kB     -12.09054   -12.09054    -9.73228     0.00000     0.00000     0.00000

 VOLUME and BASIS-vectors are now :
  energy-cutoff  :      520.00
  volume of cell :      968.84
      direct lattice vectors                 reciprocal lattice vectors
     6.907777000 -0.000000000  0.000000000     0.144764372 -0.083579742  0.000000000
     3.453888000  5.982310000  0.000000000     0.000000000  0.167159509 -0.000000000
     0.000000000  0.000000000 23.444588000    -0.000000000  0.000000000  0.042653767

[...]

 FORCES acting on ions
    electron-ion (+dipol)            ewald-force                    non-local-force                 convergence-correction
   0.137E-03 0.734E-04 0.911E+00   0.484E-03 0.288E-03 -.916E+00   0.139E-16 0.416E-16 0.304E-02   -.402E-06 -.233E-06 -.137E-03
   -.137E-03 -.734E-04 -.911E+00   -.484E-03 -.288E-03 0.916E+00   -.139E-16 -.416E-16 -.304E-02   0.402E-06 0.233E-06 0.137E-03
   -.371E-04 -.171E-04 0.229E+03   -.176E-03 -.974E-04 -.230E+03   0.364E-16 0.694E-17 0.195E+01   0.779E-07 0.486E-07 -.149E-01
   0.371E-04 0.171E-04 -.229E+03   0.176E-03 0.974E-04 0.230E+03   0.173E-17 -.694E-17 -.195E+01   -.779E-07 -.486E-07 0.149E-01
   -.740E+01 0.145E+00 -.394E+03   0.453E+01 -.143E+00 0.397E+03   0.311E+01 -.797E-02 -.377E+01   0.293E-02 -.310E-04 0.292E-01
   0.382E+01 0.633E+01 -.394E+03   -.239E+01 -.385E+01 0.397E+03   -.156E+01 -.269E+01 -.377E+01   -.149E-02 -.252E-02 0.292E-01
   0.357E+01 -.648E+01 -.394E+03   -.214E+01 0.400E+01 0.397E+03   -.155E+01 0.270E+01 -.377E+01   -.144E-02 0.255E-02 0.292E-01
   0.740E+01 -.145E+00 0.394E+03   -.453E+01 0.143E+00 -.397E+03   -.311E+01 0.797E-02 0.377E+01   -.293E-02 0.310E-04 -.292E-01
   -.382E+01 -.633E+01 0.394E+03   0.239E+01 0.385E+01 -.397E+03   0.156E+01 0.269E+01 0.377E+01   0.149E-02 0.252E-02 -.292E-01
   -.357E+01 0.648E+01 0.394E+03   0.214E+01 -.400E+01 -.397E+03   0.155E+01 -.270E+01 0.377E+01   0.144E-02 -.255E-02 -.292E-01
   -.878E-10 0.125E-09 0.836E-09   0.102E-13 -.266E-14 -.171E-12   -.222E-15 -.444E-15 0.178E-14   0.109E-13 -.154E-13 0.179E-11

 POSITION                                       TOTAL-FORCE (eV/Angst)
      3.45388      1.99410     11.72054         0.000000     -0.000000     -0.002143
      6.90778      3.98821     11.72405         0.000000     -0.000000      0.002143
      0.00000      0.00000     10.50824         0.000000     -0.000000      0.728020
      0.00000      0.00000     12.93635         0.000000     -0.000000     -0.728020
      4.32819      0.00251     13.45138         0.248018     -0.005646     -0.407384
      1.29198      2.23274     13.45138        -0.128899     -0.211967     -0.407384
      4.74152      3.74706     13.45138        -0.119119      0.217613     -0.407384
      6.03348      5.97980      9.99321        -0.248018      0.005646      0.407384
      9.06969      3.74957      9.99321         0.128899      0.211967      0.407384
      5.62015      2.23525      9.99321         0.119119     -0.217613      0.407384
    total drift:                               -0.000000      0.000000      0.000000

  FREE ENERGIE OF THE ION-ELECTRON SYSTEM (eV)
  free  energy   TOTEN  =       -38.29793206 eV

  energy  without entropy=      -38.29793206  energy(sigma->0) =      -38.29793206

[...]

 Broyden mixing:
  rms(total) = 0.32759E+00    rms(broyden)= 0.27226E+00
  rms(prec ) = 0.27808E+00
  weight for this iteration     100.00
  WARNING: grid for Broyden might be to small

[...]

 Broyden mixing:
  rms(total) = 0.35939E+00    rms(broyden)= 0.29904E+00
  rms(prec ) = 0.30517E+00
  weight for this iteration     100.00
  WARNING: grid for Broyden might be to small

[...]

 d Force = 0.7187814E-06[ 0.101E-05, 0.430E-06]  d Energy = 0.2762664E+00-0.276E+00
 d Force = 0.1923637E-03[ 0.201E-03, 0.184E-03]  d Ewald  =-0.3566290E+03 0.357E+03

 Steepest descent step on ions:
 trial-energy change:   -0.276266  1 .order   -0.097184   -0.682826    0.488458
  (g-gl).g = 0.683E+00      g.g   = 0.683E+00  gl.gl    = 0.000E+00
 g(Force)  = 0.443E-06   g(Stress)= 0.683E+00 ortho     = 0.000E+00
 gamma     =   0.00000
 trial     =   1.00000
 opt step  =   0.75341  (harmonic =   0.58297) maximal distance =0.00007789
 next E    =   -38.631739   (d E  =  -0.33381)

[...]

 d Force =-0.2877211E-06[-0.318E-06,-0.257E-06]  d Energy = 0.3171653E+00-0.317E+00
 d Force =-0.5077298E-04[-0.502E-04,-0.513E-04]  d Ewald  = 0.9088484E+02-0.909E+02

[...]

 d Force = 0.2637847E-05[ 0.202E-05, 0.326E-05]  d Energy = 0.4542545E+00-0.454E+00
 d Force = 0.5591471E-03[ 0.590E-03, 0.529E-03]  d Ewald  = 0.4624856E+03-0.462E+03

 Steepest descent step on ions:
 trial-energy change:   -0.454255  1 .order   -0.440400   -0.682422   -0.198377
  (g-gl).g = 0.247E+00      g.g   = 0.725E+00  gl.gl    = 0.683E+00
 g(Force)  = 0.366E-05   g(Stress)= 0.725E+00 ortho     = 0.477E+00
 gamma     =   0.00000
 trial     =   0.94182
 opt step  =   1.25589  (harmonic =   1.32781) maximal distance =0.00037297
 next E    =   -39.524403   (d E  =  -0.48784)

[...]

 d Force = 0.1217023E-05[ 0.318E-06, 0.212E-05]  d Energy = 0.1014126E+00-0.101E+00
 d Force = 0.6556614E-03[ 0.670E-03, 0.641E-03]  d Ewald  = 0.6386874E+03-0.639E+03

 Conjugate gradient step on ions:
 trial-energy change:   -0.101413  1 .order   -0.104192   -0.233913    0.025529
  (g-gl).g = 0.243E+00      g.g   = 0.235E+00  gl.gl    = 0.725E+00
 g(Force)  = 0.140E-05   g(Stress)= 0.235E+00 ortho     =-0.784E-02
 gamma     =   0.33579
 trial     =   1.00464
 opt step  =   0.89974  (harmonic =   0.90578) maximal distance =0.00025525
 next E    =   -39.627383   (d E  =  -0.10275)

[...]

 d Force =-0.5127935E-07[-0.684E-07,-0.342E-07]  d Energy = 0.1221290E-02-0.122E-02
 d Force =-0.7192682E-04[-0.718E-04,-0.721E-04]  d Ewald  =-0.6466285E+02 0.647E+02

[...]

 d Force = 0.8997617E-07[ 0.865E-07, 0.934E-07]  d Energy = 0.7703123E-03-0.770E-03
 d Force = 0.9816928E-04[ 0.983E-04, 0.981E-04]  d Ewald  =-0.3283085E+02 0.328E+02

 Conjugate gradient step on ions:
 trial-energy change:   -0.000770  1 .order   -0.002663   -0.007745    0.002419
  (g-gl).g =-0.117E-01      g.g   = 0.772E-02  gl.gl    = 0.235E+00
 g(Force)  = 0.127E-06   g(Stress)= 0.772E-02 ortho     =-0.318E-02
 gamma     =  -0.04958
 trial     =   0.98366
 opt step  =   0.47511  (harmonic =   0.74954) maximal distance =0.00001958
 next E    =   -39.628925   (d E  =  -0.00166)

[...]

 eigenvalue-minimisations  :   880
 total energy-change (2. order) : 0.1561305E-03  (-0.7713953E-04)
 number of electron      61.9999983 magnetization       0.0000016
 augmentation part        0.2741027 magnetization      -0.0000261

 Broyden mixing:
  rms(total) = 0.26594E-02    rms(broyden)= 0.26594E-02
  rms(prec ) = 0.32508E-02
  weight for this iteration     100.00

 eigenvalues of (default mixing * dielectric matrix)
  average eigenvalue GAMMA=   1.0847
  0.2095  1.9911  1.0690  1.0690

[...]

--------------------------------------- Iteration     15(   6)  ---------------------------------------

[...]

 eigenvalue-minimisations  :   960
 total energy-change (2. order) :-0.6749384E-04  (-0.2130685E-04)
 number of electron      61.9999983 magnetization       0.0000016
 augmentation part        0.2741027 magnetization      -0.0000261

 Free energy of the ion-electron system (eV)
  alpha Z        PSCENC =        18.34804637
  Ewald energy   TEWEN  =      6695.74559825
  -Hartree energ DENC   =     -9347.06699031
  -exchange      EXHF   =         0.00000000
  -V(xc)+E(xc)   XCENC  =      -160.94019996
  PAW double counting   =      1815.58015540    -1572.77858627
  entropy T*S    EENTRO =         0.00000000
  eigenvalues    EBANDS =      -382.26204896
  atomic energy  EATOM  =      2893.74546681
  Solvation  Ediel_sol  =         0.00000000
  free energy    TOTEN  =       -39.62855867 eV

  energy without entropy =      -39.62855867  energy(sigma->0) =      -39.62855867

 average (electrostatic) potential at core
  the test charge radii are     1.0103  0.9587  1.1897
  (the norm of the test charge is              1.0000)
       1 -49.8041       2 -49.8041       3 -91.3839       4 -91.3839       5 -96.1977
       6 -96.1977       7 -96.1977       8 -96.1977       9 -96.1977      10 -96.1977

 E-fermi :  -1.3780     XC(G=0):  -3.9987     alpha+bet : -3.5971

[...]

 spin component 2

[...]

 k-point     5 :      -0.4000    0.2000    0.0000
  band No.  band energies     occupation
      1     -15.5787      1.00000
      2     -13.6556      1.00000
      3     -13.5461      1.00000
      4     -13.2681      1.00000
      5     -12.7070      1.00000
      6     -12.5971      1.00000
      7     -11.2795      1.00000
      8      -9.7352      1.00000
      9      -7.0358      1.00000
     10      -6.6600      1.00000
     11      -6.5321      1.00000
     12      -5.9111      1.00000
     13      -5.5443      1.00000
     14      -5.0798      1.00000
     15      -4.7554      1.00000
     16      -4.5236      1.00000
     17      -4.3902      1.00000
     18      -4.2917      1.00000
     19      -4.1877      1.00000
     20      -3.8369      1.00000
     21      -3.6847      1.00000
     22      -3.5636      1.00000
     23      -2.9227      1.00000
     24      -2.7123      1.00000
     25      -2.4212      1.00000
     26      -2.3993      1.00000
     27      -1.8933      1.00000
     28      -1.8467      1.00000
     29      -1.6055      1.00000
     30      -1.5575      1.00000
     31      -1.5233      1.00000
     32      -1.0917      0.00000
     33      -0.4488      0.00000
     34      -0.3465      0.00000
     35       0.0157      0.00000
     36       0.2869      0.00000
     37       0.3536      0.00000
     38       0.3722      0.00000
     39       1.0761      0.00000
     40       1.1441      0.00000
     41       1.6328      0.00000
     42       1.7784      0.00000
     43       3.2087      0.00000
     44       3.3003      0.00000
     45       3.3544      0.00000
     46       3.3703      0.00000
     47       3.4940      0.00000
     48       3.9261      0.00000

[...]

 soft charge-density along one line, spin component           2
         0         1         2         3         4         5         6         7         8         9
 total charge-density along one line

------------------------ aborting loop because EDIFF is reached ----------------------------------------

[...]

  FORCE on cell =-STRESS in cart. coord.  units (eV):
  Direction    XX          YY          ZZ          XY          YZ          ZX
  Alpha Z    18.34805    18.34805    18.34805
  Ewald    8556.33715  8556.33421-10416.92999    -0.00169    -0.00059    -0.00107
  Hartree  9034.02115  9034.02186 -8720.08857    -0.00009     0.00008     0.00014
  E(xc)    -256.95750  -256.95750  -257.17432     0.00004     0.00001     0.00002
  Local  -18511.14363-18511.14236 18175.97679     0.00146     0.00039     0.00072
  n-local   709.25996   708.61528   728.80969    -0.53890    -0.42845     0.01083
  augment  -102.50567  -102.50565  -111.84421     0.00017    -0.00014     0.00013
  Kinetic   555.66337   550.22510   582.95735    -3.17226     1.17264     1.19458
  Fock        0.00000     0.00000     0.00000     0.00000     0.00000     0.00000
  Total      -0.01907    -0.01907     0.05479     0.00000    -0.00000    -0.00000
  in kB      -0.03786    -0.03786     0.10879     0.00000    -0.00000    -0.00000

 VOLUME and BASIS-vectors are now :
  energy-cutoff  :      520.00
  volume of cell :      806.92
      direct lattice vectors                 reciprocal lattice vectors
     6.710471317 -0.000000032  0.000000000     0.149020829 -0.086037210  0.000000000
     3.355235230  5.811438282  0.000000000     0.000000001  0.172074442 -0.000000000
    -0.000000000  0.000000000 20.691694055    -0.000000000  0.000000000  0.048328571

  length of vectors
     6.710471317  6.710470800 20.691694055     0.172074428  0.172074442  0.048328571

 FORCES acting on ions
    electron-ion (+dipol)            ewald-force                    non-local-force                 convergence-correction
   0.637E-04 0.333E-04 0.119E+01   0.574E-03 0.341E-03 -.120E+01   0.139E-16 0.158E-21 0.186E-01   0.199E-06 0.129E-06 0.462E-04
   -.637E-04 -.333E-04 -.119E+01   -.574E-03 -.341E-03 0.120E+01   0.105E-20 -.158E-21 -.186E-01   -.199E-06 -.129E-06 -.462E-04
   -.407E-04 -.254E-04 0.250E+03   -.184E-03 -.102E-03 -.251E+03   -.139E-16 -.104E-16 -.297E-01   0.121E-07 0.468E-08 0.155E-02
   0.407E-04 0.254E-04 -.250E+03   0.184E-03 0.102E-03 0.251E+03   0.694E-17 0.104E-16 0.297E-01   -.121E-07 -.468E-08 -.155E-02
   -.134E+02 0.115E+00 -.406E+03   0.929E+01 -.107E+00 0.411E+03   0.362E+01 -.173E-01 -.465E+01   0.266E-02 0.828E-05 0.736E-03
   0.678E+01 0.115E+02 -.406E+03   -.474E+01 -.800E+01 0.411E+03   -.182E+01 -.313E+01 -.465E+01   -.132E-02 -.230E-02 0.736E-03
   0.658E+01 -.116E+02 -.406E+03   -.455E+01 0.810E+01 0.411E+03   -.179E+01 0.314E+01 -.465E+01   -.133E-02 0.230E-02 0.736E-03
   0.134E+02 -.115E+00 0.406E+03   -.929E+01 0.107E+00 -.411E+03   -.362E+01 0.173E-01 0.465E+01   -.266E-02 -.828E-05 -.736E-03
   -.678E+01 -.115E+02 0.406E+03   0.474E+01 0.800E+01 -.411E+03   0.182E+01 0.313E+01 0.465E+01   0.132E-02 0.230E-02 -.736E-03
   -.658E+01 0.116E+02 0.406E+03   0.455E+01 -.810E+01 -.411E+03   0.179E+01 -.314E+01 0.465E+01   0.133E-02 -.230E-02 -.736E-03
   -.189E-09 -.679E-09 -.385E-09   -.266E-14 -.178E-14 0.114E-12   0.000E+00 0.000E+00 0.000E+00   0.147E-13 -.223E-13 0.232E-10

 POSITION                                       TOTAL-FORCE (eV/Angst)
      3.35523      1.93714     10.34359         0.000000      0.000000      0.000262
      6.71047      3.87429     10.34810         0.000000      0.000000     -0.000262
     -0.00000      0.00000      9.27435         0.000000      0.000000     -0.242035
     -0.00000      0.00000     11.41735         0.000000      0.000000      0.242035
      4.20456      0.00244     11.87190        -0.441414     -0.008763     -0.048673
      1.25507      2.16897     11.87190         0.213118      0.386658     -0.048673
      4.60608      3.64004     11.87190         0.228296     -0.377894     -0.048673
      5.86115      5.80900      8.81979         0.441414      0.008763      0.048673
      8.81063      3.64247      8.81979        -0.213118     -0.386658      0.048673
      5.45962      2.17140      8.81979        -0.228296      0.377894      0.048673
    total drift:                               -0.000000     -0.000000     -0.000000

  FREE ENERGIE OF THE ION-ELECTRON SYSTEM (eV)
  free  energy   TOTEN  =       -39.62855867 eV

  energy  without entropy=      -39.62855867  energy(sigma->0) =      -39.62855867

 d Force =-0.1669894E-07[ 0.109E-07,-0.443E-07]  d Energy = 0.5203066E-03-0.520E-03
 d Force =-0.5032664E-04[-0.503E-04,-0.504E-04]  d Ewald  = 0.1693911E+02-0.169E+02

 reached required accuracy - stopping structural energy minimisation

 total charge

[...]

 magnetization (x)

# of ion       s       p       d       tot
    1        0.000   0.000   0.000   0.000
    2        0.000   0.000   0.000   0.000
    3       -0.000   0.000   0.000   0.000
    4       -0.000   0.000   0.000   0.000
    5        0.000  -0.000  -0.000  -0.000
    6        0.000  -0.000  -0.000  -0.000
    7        0.000  -0.000  -0.000  -0.000
    8        0.000  -0.000  -0.000  -0.000
    9        0.000  -0.000  -0.000  -0.000
   10        0.000  -0.000  -0.000  -0.000
tot          0.000  -0.000   0.000   0.000

 BZINTS: Fermi energy: -1.378004; 62.000000 electrons
         Band energy:-382.262049;  BLOECHL correction:  0.000000