 vasp.5.4.4.18Apr17-6-g9f103f2a35 (build May  1 2020 15:48:39) complex
 executed on             LinuxGNU date 2020.06.16  08:05:08

 INCAR:
 POTCAR:   PAW_PBE Cr 06Sep2000
 POTCAR:    PAW_PBE P 17Jan2003
 POTCAR:   PAW_PBE Se 06Sep2000

 POTCAR:   PAW_PBE Cr 06Sep2000
   VRHFIN =Cr : d5 s1

   TITEL  = PAW_PBE Cr 06Sep2000
   POMASS =   51.996; ZVAL   =    6.000    mass and valenz
   ENMAX  =  227.082; ENMIN  =  170.311 eV
   QCUT   =   -4.085; QGAM   =    8.171    optimization parameters

   Description
     l     E      TYP  RCUT    TYP  RCUT
     2   .000     23  2.500
     2   .000     23  2.500
     0   .000     23  2.500
     0   .000     23  2.500
     1  -.400     23  2.500
     1  2.000     23  2.500
     3   .000      7   .000

 POTCAR:    PAW_PBE P 17Jan2003
   VRHFIN =P : s2p3

   TITEL  = PAW_PBE P 17Jan2003
   POMASS =   30.974; ZVAL   =    5.000    mass and valenz
   ENMAX  =  270.000; ENMIN  =  191.280 eV
   QCUT   =   -4.330; QGAM   =    8.659    optimization parameters

[...]

 POTCAR:   PAW_PBE Se 06Sep2000
   VRHFIN =Se: s2p4

   TITEL  = PAW_PBE Se 06Sep2000
   POMASS =   78.960; ZVAL   =    6.000    mass and valenz
   ENMAX  =  211.534; ENMIN  =  158.651 eV
   QCUT   =   -3.943; QGAM   =    7.886    optimization parameters

   Description
     l     E      TYP  RCUT    TYP  RCUT
     0   .000     23  2.100
     0   .000     23  2.100
     1   .000     23  2.100
     1   .000     23  2.100
     2   .000     23  2.100
     3  -.100      7  2.100

 Optimization of the real space projectors (new method)

 maximal supplied QI-value         = 15.12
 optimisation between [QCUT,QGAM] = [ 11.64, 23.28] = [ 37.95,151.78] Ry
 Optimized for a Real-space Cutoff    1.49 Angstroem

   l    n(q)    QCUT    max X(q) W(low)/X(q) W(high)/X(q)  e(spline)
   2      9    11.641     4.777    0.25E-04    0.21E-05    0.63E-07
   2      9    11.641    31.132    0.13E-03    0.22E-03    0.64E-06
   0     10    11.641    20.416    0.11E-04    0.74E-05    0.19E-07
   0     10    11.641    45.408    0.10E-03    0.85E-04    0.30E-06
   1     10    11.641     7.848    0.22E-04    0.23E-04    0.56E-07
   1     10    11.641     9.895    0.85E-04    0.54E-04    0.16E-06
 Optimization of the real space projectors (new method)

[...]

   l    n(q)    QCUT    max X(q) W(low)/X(q) W(high)/X(q)  e(spline)
   0      8    11.508     6.651    0.19E-04    0.31E-05    0.49E-08
   0      8    11.508    90.285    0.95E-04    0.17E-03    0.51E-07
   1      8    11.508     4.328    0.14E-04    0.32E-04    0.22E-07
   1      8    11.508    54.583    0.16E-03    0.71E-04    0.89E-07
 Optimization of the real space projectors (new method)

 maximal supplied QI-value         = 17.95
 optimisation between [QCUT,QGAM] = [ 11.67, 23.34] = [ 38.13,152.52] Ry
 Optimized for a Real-space Cutoff    1.25 Angstroem

   l    n(q)    QCUT    max X(q) W(low)/X(q) W(high)/X(q)  e(spline)
   0      9    11.669     6.499    0.13E-04    0.81E-05    0.11E-07
   0      9    11.669    52.623    0.18E-03    0.46E-04    0.72E-07
   1      8    11.669     4.229    0.40E-04    0.45E-04    0.31E-07
   1      8    11.669    29.991    0.22E-03    0.36E-03    0.10E-06
   2      8    11.669     3.719    0.19E-03    0.46E-04    0.50E-07

 PAW_PBE Cr 06Sep2000                   :
  PAW_PBE P 17Jan2003                   :
 PAW_PBE Se 06Sep2000                   :

 POSCAR: Cr2 P2 Se6
  positions in direct lattice
  velocities in cartesian coordinates
 exchange correlation table for  LEXCH =       42
   RHO(1)=    0.500       N(1)  =     2000
   RHO(2)=  100.500       N(2)  =     4000

 ion  position               nearest neighbor table
   1  0.333  0.333  0.500-   6 2.78   5 2.78   7 2.78   8 2.78  10 2.78   9 2.78
   2  0.667  0.667  0.500-   9 2.78   8 2.78  10 2.78   5 2.78   7 2.78   6 2.78
   3  0.000  0.000  0.448-   4 2.43   8 2.63  10 2.63   9 2.63
   4  0.000  0.000  0.552-   3 2.43   5 2.63   7 2.63   6 2.63
   5  0.626  0.000  0.574-   4 2.63   1 2.78   2 2.78
   6  0.000  0.373  0.574-   4 2.63   1 2.78   2 2.78
   7  0.373  0.626  0.574-   4 2.63   1 2.78   2 2.78
   8  0.374  1.000  0.426-   3 2.63   2 2.78   1 2.78
   9  1.000  0.627  0.426-   3 2.63   2 2.78   1 2.78
  10  0.627  0.374  0.426-   3 2.63   2 2.78   1 2.78

  LATTYP: Found a hexagonal cell.
 ALAT       =     6.9077769333
 C/A-ratio  =     3.3939410937

  Lattice vectors:

 A1 = (   3.4538890000,  -5.9823100000,   0.0000000000)
 A2 = (  -6.9077770000,   0.0000000000,   0.0000000000)
 A3 = (   0.0000000000,   0.0000000000, -23.4445880000)

Analysis of symmetry for initial positions (statically):
 Subroutine PRICEL returns:
 Original cell was already a primitive cell.

 Routine SETGRP: Setting up the symmetry group for a
 hexagonal supercell.

 Subroutine GETGRP returns: Found  6 space group operations
 (whereof  6 operations were pure point group operations)
 out of a pool of 24 trial point group operations.

The static configuration has the point symmetry S_6 .

Analysis of symmetry for dynamics (positions and initial velocities):
 Subroutine PRICEL returns:
 Original cell was already a primitive cell.

[...]

The dynamic configuration has the point symmetry S_6 .

Analysis of constrained symmetry for selective dynamics:
 Subroutine PRICEL returns:
 Original cell was already a primitive cell.

[...]

The constrained configuration has the point symmetry S_6 .

Analysis of structural, dynamic, and magnetic symmetry:
 Subroutine PRICEL returns:
 Original cell was already a primitive cell.

 Routine SETGRP: Setting up the symmetry group for a
 hexagonal supercell.

 Subroutine GETGRP returns: Found  6 space group operations
 (whereof  6 operations were pure point group operations)
 out of a pool of 24 trial point group operations.

The magnetic configuration has the point symmetry S_6 .

 Subroutine INISYM returns: Found  6 space group operations
 (whereof  6 operations are pure point group operations),
 and found     1 'primitive' translations

 KPOINTS: Kpoints from vasprun.xml

Automatic generation of k-mesh.
Space group operators:
 irot       det(A)        alpha          n_x          n_y          n_z        tau_x        tau_y        tau_z
    1     1.000000     0.000000     1.000000     0.000000     0.000000     0.000000     0.000000     0.000000
    2    -1.000000     0.000000     1.000000     0.000000     0.000000     0.000000     0.000000     0.000000
    3     1.000000   120.000000     0.000000     0.000000     1.000000     0.000000     0.000000     0.000000
    4    -1.000000   120.000000     0.000000     0.000000     1.000000     0.000000     0.000000     0.000000
    5     1.000000   120.000000     0.000000     0.000000    -1.000000     0.000000     0.000000     0.000000
    6    -1.000000   120.000000     0.000000     0.000000    -1.000000     0.000000     0.000000     0.000000

 Subroutine IBZKPT returns following result:

 Found      5 irreducible k-points:

 Following reciprocal coordinates:
            Coordinates               Weight
  0.000000  0.000000  0.000000      1.000000
  0.200000  0.000000  0.000000      6.000000
  0.400000  0.000000  0.000000      6.000000
  0.400000  0.200000  0.000000      6.000000
 -0.400000  0.200000  0.000000      6.000000

 Following cartesian coordinates:
            Coordinates               Weight
  0.000000  0.000000  0.000000      1.000000
  0.028953 -0.016716  0.000000      6.000000
  0.057906 -0.033432  0.000000      6.000000
  0.057906  0.000000  0.000000      6.000000
 -0.057906  0.066864  0.000000      6.000000

 TETIRR: Found     15 inequivalent tetrahedra from      150

 SYSTEM =  unknown system
 POSCAR =  Cr2 P2 Se6

 Startparameter for this run:
   NWRITE =      2    write-flag & timer
   PREC   = accura    normal or accurate (medium, high low for compatibility)
   ISTART =      0    job   : 0-new  1-cont  2-samecut
   ICHARG =      2    charge: 1-file 2-atom 10-const
   ISPIN  =      2    spin polarized calculation?
   LNONCOLLINEAR =      F non collinear calculations
   LSORBIT =      F    spin-orbit coupling
   INIWAV =      1    electr: 0-lowe 1-rand  2-diag
   LASPH  =      F    aspherical Exc in radial PAW
   METAGGA=      F    non-selfconsistent MetaGGA calc.

 Electronic Relaxation 1
   ENCUT  =  520.0 eV  38.22 Ry    6.18 a.u.  12.84 12.84 43.59*2*pi/ulx,y,z
   ENINI  =  520.0     initial cutoff
   ENAUG  =  446.8 eV  augmentation charge cutoff
   NELM   =    400;   NELMIN=  2; NELMDL=  0     # of ELM steps
   EDIFF  = 0.1E-03   stopping-criterion for ELM
   LREAL  =      T    real-space projection
   NLSPLINE    = F    spline interpolate recip. space projectors
   LCOMPAT=      F    compatible to vasp.4.4
   GGA_COMPAT  = T    GGA compatible to vasp.4.4-vasp.4.6
   LMAXPAW     = -100 max onsite density
   LMAXMIX     =    2 max onsite mixed and CHGCAR
   VOSKOWN=      0    Vosko Wilk Nusair interpolation
   ROPT   =   -0.00025  -0.00025  -0.00025
 Ionic relaxation
   EDIFFG = 0.1E-02   stopping-criterion for IOM
   NSW    =     99    number of steps for IOM
   NBLOCK =      1;   KBLOCK =     99    inner block; outer block
   IBRION =      2    ionic relax: 0-MD 1-quasi-New 2-CG
   NFREE  =      1    steps in history (QN), initial steepest desc. (CG)
   ISIF   =      3    stress and relaxation
   IWAVPR =     11    prediction:  0-non 1-charg 2-wave 3-comb
   ISYM   =      2    0-nonsym 1-usesym 2-fastsym
   LCORR  =      T    Harris-Foulkes like correction to forces

   POTIM  = 0.5000    time-step for ionic-motion
   TEIN   =    0.0    initial temperature
   TEBEG  =    0.0;   TEEND  =   0.0 temperature during run
   SMASS  =  -3.00    Nose mass-parameter (am)
   estimated Nose-frequenzy (Omega)   =  0.10E-29 period in steps =****** mass=  -0.109E-26a.u.
   SCALEE = 1.0000    scale energy and forces
   NPACO  =    256;   APACO  = 16.0  distance and # of slots for P.C.
   PSTRESS=    0.0 pullay stress

  Mass of Ions in am
   POMASS =  52.00 30.97 78.96
  Ionic Valenz
   ZVAL   =   6.00  5.00  6.00
  Atomic Wigner-Seitz radii
  virtual crystal weights
   VCA    =   1.00  1.00  1.00
   NELECT =      58.0000    total number of electrons
   NUPDOWN=      -1.0000    fix difference up-down

 DOS related values:
   EMIN   =  10.00;   EMAX   =-10.00  energy-range for DOS
   EFERMI =   0.00
   ISMEAR =    -5;   SIGMA  =   0.05  broadening in eV -4-tet -1-fermi 0-gaus

 Electronic relaxation 2 (details)
   IALGO  =     38    algorithm
   LDIAG  =      T    sub-space diagonalisation (order eigenvalues)
   LSUBROT=      F    optimize rotation matrix (better conditioning)
   TURBO    =      0    0=normal 1=particle mesh
   IRESTART =      0    0=no restart 2=restart with 2 vectors
   NREBOOT  =      0    no. of reboots
   NMIN     =      0    reboot dimension
   EREF     =   0.00    reference energy to select bands
   IMIX   =      4    mixing-type and parameters
     AMIX     =   0.40;   BMIX     =  1.00
     AMIX_MAG =   1.60;   BMIX_MAG =  1.00
     AMIN     =   0.01
     WC   =   100.;   INIMIX=   1;  MIXPRE=   1;  MAXMIX= -45

 Intra band minimization:
   WEIMIN = 0.0010     energy-eigenvalue tresh-hold
   EBREAK =  0.52E-06  absolut break condition
   DEPER  =   0.30     relativ break condition

[...]
     14      -7.2925      1.00000
     15      -6.2118      1.00000
     16      -6.0241      1.00000
     17      -5.8038      1.00000
     18      -5.8038      1.00000
     19      -5.5961      1.00000
     20      -5.5961      1.00000
     21      -5.1811      1.00000
     22      -5.1811      1.00000
     23      -4.8743      1.00000
     24      -4.6828      1.00000
     25      -4.6828      1.00000
     26      -4.6409      1.00000
     27      -4.5848      1.00000
     28      -4.5847      1.00000
     29      -4.5576      1.00000
     30      -4.1427      1.00000
     31      -4.1427      1.00000
     32      -3.5356      0.84365
     33      -3.2679      0.00000
     34      -2.8074      0.00000
     35      -2.8074      0.00000
     36      -2.4702      0.00000
     37      -2.4702      0.00000
     38      -1.8796      0.00000
     39      -1.8796      0.00000
     40      -0.8142      0.00000
     41      -0.8141      0.00000
     42      -0.8003      0.00000
     43       0.5632      0.00000
     44       1.0479      0.00000
     45       1.3819      0.00000
     46       1.7458      0.00000
     47       2.2992      0.00000
     48       2.2992      0.00000

[...]

 soft charge-density along one line, spin component           1
         0         1         2         3         4         5         6         7         8         9
 total charge-density along one line

[...]

------------------------ aborting loop because EDIFF is reached ----------------------------------------

 total charge

# of ion       s       p       d       tot
    1        0.278   0.297   4.096   4.671
    2        0.278   0.297   4.096   4.671
    3        1.146   1.150   0.000   2.297
    4        1.146   1.150   0.000   2.297
    5        1.494   2.207   0.019   3.721
    6        1.488   2.158   0.019   3.665
    7        1.493   2.194   0.019   3.706
    8        1.494   2.207   0.019   3.721
    9        1.488   2.158   0.019   3.665
   10        1.493   2.194   0.019   3.706
tot         11.801  16.012   8.307  36.120

 magnetization (x)

[...]

  FORCE on cell =-STRESS in cart. coord.  units (eV):
  Direction    XX          YY          ZZ          XY          YZ          ZX
  Alpha Z    31.50927    31.50927    31.50927
  Ewald    7992.72397  7992.72161 -9523.21780    -0.00104    -0.00041    -0.00075
  Hartree  8421.82151  8421.82189 -8222.89726    -0.00000     0.00006     0.00009
  E(xc)    -218.11066  -218.11057  -218.06103    -0.00005     0.00000    -0.00000
  Local  -17179.99594-17179.99499 16949.60553     0.00077     0.00021     0.00040
  n-local   330.91819   331.69794   340.31481     0.25291     0.13575     0.09144
  augment    12.66394    12.66407     9.62189    -0.00006    -0.00007     0.00006
  Kinetic   590.73965   586.74939   618.17581    -3.04617    -0.07721    -0.16568
  Fock        0.00000     0.00000     0.00000     0.00000     0.00000     0.00000
  Total     -19.33573   -19.33573   -14.94878     0.00000     0.00000    -0.00000
  in kB     -31.97580   -31.97580   -24.72102     0.00000     0.00000    -0.00000

 VOLUME and BASIS-vectors are now :
  energy-cutoff  :      520.00
  volume of cell :      968.84
      direct lattice vectors                 reciprocal lattice vectors
     6.907777000 -0.000000000  0.000000000     0.144764372 -0.083579742  0.000000000
     3.453888000  5.982310000  0.000000000     0.000000000  0.167159509 -0.000000000
     0.000000000  0.000000000 23.444588000    -0.000000000  0.000000000  0.042653767

[...]

 FORCES acting on ions
    electron-ion (+dipol)            ewald-force                    non-local-force                 convergence-correction
   -.771E-04 -.472E-04 0.662E+00   0.323E-03 0.191E-03 -.652E+00   0.173E-17 0.347E-17 -.434E-02   -.282E-06 -.172E-06 0.639E-03
   0.771E-04 0.472E-04 -.662E+00   -.323E-03 -.191E-03 0.652E+00   -.520E-17 0.347E-17 0.434E-02   0.282E-06 0.172E-06 -.639E-03
   -.329E-04 -.313E-04 0.210E+03   -.176E-03 -.973E-04 -.213E+03   0.173E-17 -.130E-17 0.326E+01   0.150E-06 0.494E-07 -.203E-01
   0.329E-04 0.313E-04 -.210E+03   0.176E-03 0.973E-04 0.213E+03   -.434E-17 -.434E-18 -.326E+01   -.150E-06 -.494E-07 0.203E-01
   0.380E+01 0.141E+00 -.354E+03   -.488E+01 -.141E+00 0.355E+03   0.145E+01 -.788E-02 -.284E+01   0.683E-03 0.130E-02 0.405E-01
   -.178E+01 -.336E+01 -.354E+03   0.232E+01 0.430E+01 0.355E+03   -.732E+00 -.125E+01 -.284E+01   0.782E-03 -.124E-02 0.405E-01
   -.203E+01 0.322E+01 -.354E+03   0.256E+01 -.416E+01 0.355E+03   -.719E+00 0.126E+01 -.284E+01   -.146E-02 -.573E-04 0.405E-01
   -.380E+01 -.141E+00 0.354E+03   0.488E+01 0.141E+00 -.355E+03   -.145E+01 0.788E-02 0.284E+01   -.683E-03 -.130E-02 -.405E-01
   0.178E+01 0.336E+01 0.354E+03   -.232E+01 -.430E+01 -.355E+03   0.732E+00 0.125E+01 0.284E+01   -.782E-03 0.124E-02 -.405E-01
   0.203E+01 -.322E+01 0.354E+03   -.256E+01 0.416E+01 -.355E+03   0.719E+00 -.126E+01 0.284E+01   0.146E-02 0.573E-04 -.405E-01
   -.159E-09 -.309E-09 -.796E-10   0.888E-14 0.533E-14 0.568E-13   0.111E-15 -.222E-15 0.178E-14   0.101E-13 -.139E-13 0.712E-12

 POSITION                                       TOTAL-FORCE (eV/Angst)
      3.45388      1.99410     11.72054         0.000000      0.000000      0.006264
      6.90778      3.98821     11.72405         0.000000      0.000000     -0.006264
      0.00000      0.00000     10.50824         0.000000      0.000000      0.502632
      0.00000      0.00000     12.93635         0.000000      0.000000     -0.502632
      4.32819      0.00251     13.45138         0.371533     -0.005921     -1.334910
      1.29198      2.23274     13.45138        -0.190894     -0.318797     -1.334910
      4.74152      3.74706     13.45138        -0.180639      0.324718     -1.334910
      6.03348      5.97980      9.99321        -0.371533      0.005921      1.334910
      9.06969      3.74957      9.99321         0.190894      0.318797      1.334910
      5.62015      2.23525      9.99321         0.180639     -0.324718      1.334910
    total drift:                               -0.000000     -0.000000     -0.000000

  FREE ENERGIE OF THE ION-ELECTRON SYSTEM (eV)
  free  energy   TOTEN  =       -45.77701807 eV

  energy  without entropy=      -45.77701807  energy(sigma->0) =      -45.77701807

[...]

 d Force = 0.2281305E+00[-0.812E-01, 0.537E+00]  d Energy = 0.2654426E+01-0.243E+01
 d Force =-0.1529670E+03[-0.168E+03,-0.137E+03]  d Ewald  =-0.1078003E+04 0.925E+03

 Steepest descent step on ions:
 trial-energy change:   -2.654426  1 .order   -2.133650   -5.265509    0.998209
  (g-gl).g = 0.527E+01      g.g   = 0.527E+01  gl.gl    = 0.000E+00
 g(Force)  = 0.580E+00   g(Stress)= 0.469E+01 ortho     = 0.000E+00
 gamma     =   0.00000
 trial     =   1.00000
 opt step  =   0.88962  (harmonic =   0.84064) maximal distance =0.05729125
 next E    =   -48.485834   (d E  =  -2.70882)

[...]

 d Force = 0.3470258E-02[-0.280E-02, 0.974E-02]  d Energy = 0.6187694E-01-0.584E-01
 d Force = 0.1997962E+02[ 0.197E+02, 0.202E+02]  d Ewald  = 0.1340895E+03-0.114E+03

[...]

 d Force = 0.8718817E-02[ 0.293E-02, 0.145E-01]  d Energy = 0.8447544E-02 0.271E-03
 d Force =-0.5078821E+01[-0.504E+01,-0.512E+01]  d Ewald  = 0.1748889E+01-0.683E+01

 Conjugate gradient step on ions:
 trial-energy change:   -0.008448  1 .order   -0.009047   -0.014785   -0.003308
  (g-gl).g = 0.667E-01      g.g   = 0.158E-01  gl.gl    = 0.527E+01
 g(Force)  = 0.145E-01   g(Stress)= 0.125E-02 ortho     =-0.510E-01
 gamma     =   0.01267
 trial     =   0.97792
 opt step  =   1.53075  (harmonic =   1.25978) maximal distance =0.02460250
 next E    =   -48.502595   (d E  =  -0.00927)

[...]

 eigenvalue-minimisations  :   960
 total energy-change (2. order) :-0.6650720E-03  (-0.7313884E-03)
 number of electron      57.9999992 magnetization       5.8439366
 augmentation part       -2.6713787 magnetization       3.9265442

 Broyden mixing:
  rms(total) = 0.50538E-02    rms(broyden)= 0.50537E-02
  rms(prec ) = 0.57618E-02
  weight for this iteration     100.00

 eigenvalues of (default mixing * dielectric matrix)
  average eigenvalue GAMMA=   0.7308
  0.7308

[...]

--------------------------------------- Iteration      5(   3)  ---------------------------------------

[...]

 eigenvalue-minimisations  :  1176
 total energy-change (2. order) : 0.4988890E-04  (-0.4909656E-04)
 number of electron      57.9999992 magnetization       5.8439366
 augmentation part       -2.6713787 magnetization       3.9265442

 Free energy of the ion-electron system (eV)
  alpha Z        PSCENC =        39.98534361
  Ewald energy   TEWEN  =      7403.37363705
  -Hartree energ DENC   =     -9583.93242914
  -exchange      EXHF   =         0.00000000
  -V(xc)+E(xc)   XCENC  =       -37.55918771
  PAW double counting   =      1295.92449447    -1151.63795049
  entropy T*S    EENTRO =         0.00000000
  eigenvalues    EBANDS =      -474.32460093
  atomic energy  EATOM  =      2459.66876574
  Solvation  Ediel_sol  =         0.00000000
  free energy    TOTEN  =       -48.50192740 eV

  energy without entropy =      -48.50192740  energy(sigma->0) =      -48.50192740

 average (electrostatic) potential at core
  the test charge radii are     1.1394  0.9587  1.0808
  (the norm of the test charge is              1.0000)
       1 -51.2271       2 -51.2271       3 -92.8092       4 -92.8092       5 -61.2505
       6 -61.2505       7 -61.2505       8 -61.2505       9 -61.2505      10 -61.2505

 E-fermi :  -2.2028     XC(G=0):  -3.7218     alpha+bet : -2.7649

[...]

 spin component 2

[...]

 k-point     5 :      -0.4000    0.2000    0.0000
  band No.  band energies     occupation
      1     -17.2021      1.00000
      2     -16.2214      1.00000
      3     -16.1973      1.00000
      4     -15.9157      1.00000
      5     -15.6880      1.00000
      6     -15.5746      1.00000
      7     -13.2191      1.00000
      8     -11.4663      1.00000
      9      -8.1488      1.00000
     10      -7.7514      1.00000
     11      -7.7281      1.00000
     12      -7.3000      1.00000
     13      -6.9496      1.00000
     14      -6.3540      1.00000
     15      -5.9280      1.00000
     16      -5.7644      1.00000
     17      -5.6932      1.00000
     18      -5.6213      1.00000
     19      -5.5782      1.00000
     20      -5.2031      1.00000
     21      -4.8888      1.00000
     22      -4.5210      1.00000
     23      -4.3266      1.00000
     24      -4.1701      1.00000
     25      -4.1108      1.00000
     26      -3.1301      1.00000
     27      -2.3538      0.94109
     28      -1.7892      0.00000
     29      -1.6441      0.00000
     30      -1.0082      0.00000
     31      -0.9796      0.00000
     32      -0.9418      0.00000
     33      -0.8051      0.00000
     34      -0.5561      0.00000
     35      -0.3646      0.00000
     36      -0.0019      0.00000
     37       0.0270      0.00000
     38       0.1527      0.00000
     39       0.4854      0.00000
     40       0.6216      0.00000
     41       0.9561      0.00000
     42       0.9616      0.00000
     43       2.5780      0.00000
     44       2.7812      0.00000
     45       2.8536      0.00000
     46       2.8759      0.00000
     47       3.1148      0.00000
     48       3.4849      0.00000

[...]

 soft charge-density along one line, spin component           2
         0         1         2         3         4         5         6         7         8         9
 total charge-density along one line

------------------------ aborting loop because EDIFF is reached ----------------------------------------

[...]

  FORCE on cell =-STRESS in cart. coord.  units (eV):
  Direction    XX          YY          ZZ          XY          YZ          ZX
  Alpha Z    39.98534    39.98534    39.98534
  Ewald    9083.05879  9083.05605-10762.74352    -0.00117    -0.00046    -0.00084
  Hartree  9430.98703  9430.98742 -9274.85560     0.00001     0.00005     0.00009
  E(xc)    -223.41194  -223.41197  -223.65125     0.00004     0.00000     0.00001
  Local  -19293.58377-19293.58277 19217.73837     0.00075     0.00021     0.00039
  n-local   341.00176   342.52434   350.55638     0.78024     0.41531     0.40093
  augment    12.58300    12.58299     8.92322     0.00008    -0.00013     0.00010
  Kinetic   613.59408   605.14441   643.81255    -5.61438    -0.69136    -0.79610
  Fock        0.00000     0.00000     0.00000     0.00000     0.00000     0.00000
  Total       0.75005     0.75005    -0.23449    -0.00000    -0.00000    -0.00000
  in kB       1.57404     1.57404    -0.49209    -0.00000    -0.00000    -0.00000

 VOLUME and BASIS-vectors are now :
  energy-cutoff  :      520.00
  volume of cell :      763.46
      direct lattice vectors                 reciprocal lattice vectors
     6.338543310  0.000000073 -0.000000000     0.157764956 -0.091085631  0.000000000
     3.169271216  5.489339291 -0.000000000    -0.000000002  0.182171288 -0.000000000
    -0.000000000  0.000000000 21.942079617     0.000000000 -0.000000000  0.045574532

  length of vectors
     6.338543310  6.338542884 21.942079617     0.182171275  0.182171288  0.045574532

 FORCES acting on ions
    electron-ion (+dipol)            ewald-force                    non-local-force                 convergence-correction
   -.104E-03 -.607E-04 0.569E+00   0.394E-03 0.232E-03 -.572E+00   0.173E-17 -.347E-17 0.533E-02   -.150E-06 -.598E-07 0.153E-02
   0.104E-03 0.607E-04 -.569E+00   -.394E-03 -.232E-03 0.572E+00   -.867E-18 0.347E-17 -.533E-02   0.150E-06 0.598E-07 -.153E-02
   -.462E-04 -.280E-04 0.256E+03   -.219E-03 -.122E-03 -.259E+03   -.954E-17 -.688E-17 0.349E+01   -.168E-06 -.102E-06 -.271E-01
   0.462E-04 0.280E-04 -.256E+03   0.219E-03 0.122E-03 0.259E+03   -.433E-17 0.688E-17 -.349E+01   0.168E-06 0.102E-06 0.271E-01
   0.580E+01 0.354E-01 -.421E+03   -.738E+01 -.361E-01 0.423E+03   0.159E+01 -.385E-02 -.191E+01   0.107E-01 0.117E-02 0.853E-01
   -.287E+01 -.504E+01 -.421E+03   0.366E+01 0.641E+01 0.423E+03   -.799E+00 -.138E+01 -.191E+01   -.434E-02 -.985E-02 0.853E-01
   -.293E+01 0.500E+01 -.421E+03   0.372E+01 -.638E+01 0.423E+03   -.793E+00 0.138E+01 -.191E+01   -.636E-02 0.868E-02 0.853E-01
   -.580E+01 -.354E-01 0.421E+03   0.738E+01 0.361E-01 -.423E+03   -.159E+01 0.385E-02 0.191E+01   -.107E-01 -.117E-02 -.853E-01
   0.287E+01 0.504E+01 0.421E+03   -.366E+01 -.641E+01 -.423E+03   0.799E+00 0.138E+01 0.191E+01   0.434E-02 0.985E-02 -.853E-01
   0.293E+01 -.500E+01 0.421E+03   -.372E+01 0.638E+01 -.423E+03   0.793E+00 -.138E+01 0.191E+01   0.636E-02 -.868E-02 -.853E-01
   0.320E-09 0.453E-09 0.919E-10   0.355E-14 0.355E-14 0.000E+00   0.111E-15 0.000E+00 0.444E-15   -.225E-12 -.218E-12 0.293E-10

 POSITION                                       TOTAL-FORCE (eV/Angst)
      3.16927      1.82978     10.96939        -0.000000      0.000000      0.004424
      6.33855      3.65956     10.97269        -0.000000      0.000000     -0.004424
     -0.00000      0.00000      9.83018        -0.000000      0.000000      0.140671
     -0.00000      0.00000     12.11190        -0.000000      0.000000     -0.140671
      3.99049      0.00131     12.52818         0.020850     -0.002765     -0.027550
      1.17516      2.03282     12.52818        -0.012819     -0.016674     -0.027550
      4.34217      3.45521     12.52818        -0.008031      0.019439     -0.027550
      5.51732      5.48803      9.41390        -0.020850      0.002765      0.027550
      8.33265      3.45652      9.41390         0.012819      0.016674      0.027550
      5.16565      2.03413      9.41390         0.008031     -0.019439      0.027550
    total drift:                                0.000000      0.000000      0.000000

  FREE ENERGIE OF THE ION-ELECTRON SYSTEM (eV)
  free  energy   TOTEN  =       -48.50192740 eV

  energy  without entropy=      -48.50192740  energy(sigma->0) =      -48.50192740

 d Force =-0.7818331E-04[-0.181E-02, 0.166E-02]  d Energy = 0.1589761E-03-0.237E-03
 d Force =-0.2838036E+01[-0.283E+01,-0.285E+01]  d Ewald  = 0.1020603E+01-0.386E+01

 reached required accuracy - stopping structural energy minimisation

 total charge

[...]

 magnetization (x)

# of ion       s       p       d       tot
    1        0.035   0.042   2.805   2.883
    2        0.035   0.042   2.805   2.883
    3        0.004   0.024   0.000   0.028
    4        0.004   0.024   0.000   0.028
    5        0.003  -0.053   0.006  -0.044
    6        0.001  -0.053   0.006  -0.046
    7        0.002  -0.054   0.006  -0.047
    8        0.003  -0.053   0.006  -0.044
    9        0.001  -0.053   0.006  -0.046
   10        0.002  -0.054   0.006  -0.047
tot          0.092  -0.189   5.647   5.550

 BZINTS: Fermi energy: -2.202801; 58.000000 electrons
         Band energy:-474.324601;  BLOECHL correction: -0.033543