 vasp.5.4.4.18Apr17-6-g9f103f2a35 (build May  1 2020 15:48:39) complex
 executed on             LinuxGNU date 2020.06.23  12:57:00

 INCAR:
 POTCAR:   PAW_PBE Co 06Sep2000
 POTCAR:   PAW_PBE Si 05Jan2001
 POTCAR:   PAW_PBE Se 06Sep2000

 POTCAR:   PAW_PBE Co 06Sep2000
   VRHFIN =Co: d8 s1

   TITEL  = PAW_PBE Co 06Sep2000
   POMASS =   58.933; ZVAL   =    9.000    mass and valenz
   ENMAX  =  267.969; ENMIN  =  200.977 eV
   QCUT   =   -4.438; QGAM   =    8.876    optimization parameters

   Description
     l     E      TYP  RCUT    TYP  RCUT
     2   .000     23  2.300
     2   .000     23  2.300
     0   .000     23  2.300
     0   .000     23  2.300
     1  -.200     23  2.300
     1   .000     23  2.300
     3   .000      7   .000

 POTCAR:   PAW_PBE Si 05Jan2001
   VRHFIN =Si: s2p2

   TITEL  = PAW_PBE Si 05Jan2001
   POMASS =   28.085; ZVAL   =    4.000    mass and valenz
   ENMAX  =  245.345; ENMIN  =  184.009 eV
   QCUT   =   -4.246; QGAM   =    8.493    optimization parameters

[...]

 POTCAR:   PAW_PBE Se 06Sep2000
   VRHFIN =Se: s2p4

   TITEL  = PAW_PBE Se 06Sep2000
   POMASS =   78.960; ZVAL   =    6.000    mass and valenz
   ENMAX  =  211.534; ENMIN  =  158.651 eV
   QCUT   =   -3.943; QGAM   =    7.886    optimization parameters

   Description
     l     E      TYP  RCUT    TYP  RCUT
     0   .000     23  2.100
     0   .000     23  2.100
     1   .000     23  2.100
     1   .000     23  2.100
     2   .000     23  2.100
     3  -.100      7  2.100

 Optimization of the real space projectors (new method)

 maximal supplied QI-value         = 16.25
 optimisation between [QCUT,QGAM] = [ 11.54, 23.24] = [ 37.28,151.24] Ry
 Optimized for a Real-space Cutoff    1.53 Angstroem

   l    n(q)    QCUT    max X(q) W(low)/X(q) W(high)/X(q)  e(spline)
   2     10    11.539     4.599    0.83E-05    0.15E-04    0.45E-07
   2     10    11.539    18.158    0.10E-03    0.14E-03    0.24E-06
   0     11    11.539    15.740    0.19E-04    0.12E-05    0.17E-07
   0     11    11.539    47.662    0.48E-04    0.15E-04    0.31E-06
   1     10    11.539     5.777    0.11E-04    0.46E-05    0.25E-07
   1     10    11.539     8.007    0.46E-04    0.29E-04    0.11E-06
 Optimization of the real space projectors (new method)

[...]

   l    n(q)    QCUT    max X(q) W(low)/X(q) W(high)/X(q)  e(spline)
   0      8    11.508     8.708    0.18E-04    0.44E-05    0.47E-08
   0      8    11.508   106.241    0.70E-04    0.15E-03    0.51E-07
   1      8    11.508     5.901    0.63E-05    0.23E-04    0.21E-07
   1      8    11.508    73.241    0.15E-03    0.36E-04    0.79E-07
 Optimization of the real space projectors (new method)

 maximal supplied QI-value         = 17.95
 optimisation between [QCUT,QGAM] = [ 11.67, 23.34] = [ 38.13,152.52] Ry
 Optimized for a Real-space Cutoff    1.25 Angstroem

   l    n(q)    QCUT    max X(q) W(low)/X(q) W(high)/X(q)  e(spline)
   0      9    11.669     6.499    0.13E-04    0.81E-05    0.11E-07
   0      9    11.669    52.623    0.18E-03    0.46E-04    0.72E-07
   1      8    11.669     4.229    0.40E-04    0.45E-04    0.31E-07
   1      8    11.669    29.991    0.22E-03    0.36E-03    0.10E-06
   2      8    11.669     3.719    0.19E-03    0.46E-04    0.50E-07

 PAW_PBE Co 06Sep2000                   :
 PAW_PBE Si 05Jan2001                   :
 PAW_PBE Se 06Sep2000                   :

 POSCAR: Co2 Si2 Se6
  positions in direct lattice
  velocities in cartesian coordinates
 exchange correlation table for  LEXCH =       42
   RHO(1)=    0.500       N(1)  =     2000
   RHO(2)=  100.500       N(2)  =     4000

 ion  position               nearest neighbor table
   1  0.333  0.333  0.500-   6 2.78   5 2.78   7 2.78   8 2.78  10 2.78   9 2.78
   2  0.667  0.667  0.500-   9 2.78   8 2.78  10 2.78   5 2.78   7 2.78   6 2.78
   3  0.000  0.000  0.448-   4 2.43   8 2.63  10 2.63   9 2.63
   4  0.000  0.000  0.552-   3 2.43   5 2.63   7 2.63   6 2.63
   5  0.626  0.000  0.574-   4 2.63   1 2.78   2 2.78
   6  0.000  0.373  0.574-   4 2.63   1 2.78   2 2.78
   7  0.373  0.626  0.574-   4 2.63   1 2.78   2 2.78
   8  0.374  1.000  0.426-   3 2.63   2 2.78   1 2.78
   9  1.000  0.627  0.426-   3 2.63   2 2.78   1 2.78
  10  0.627  0.374  0.426-   3 2.63   2 2.78   1 2.78

  LATTYP: Found a hexagonal cell.
 ALAT       =     6.9077769333
 C/A-ratio  =     3.3939410937

  Lattice vectors:

 A1 = (   3.4538890000,  -5.9823100000,   0.0000000000)
 A2 = (  -6.9077770000,   0.0000000000,   0.0000000000)
 A3 = (   0.0000000000,   0.0000000000, -23.4445880000)

Analysis of symmetry for initial positions (statically):
 Subroutine PRICEL returns:
 Original cell was already a primitive cell.

 Routine SETGRP: Setting up the symmetry group for a
 hexagonal supercell.

 Subroutine GETGRP returns: Found  6 space group operations
 (whereof  6 operations were pure point group operations)
 out of a pool of 24 trial point group operations.

The static configuration has the point symmetry S_6 .

Analysis of symmetry for dynamics (positions and initial velocities):
 Subroutine PRICEL returns:
 Original cell was already a primitive cell.

[...]

The dynamic configuration has the point symmetry S_6 .

Analysis of constrained symmetry for selective dynamics:
 Subroutine PRICEL returns:
 Original cell was already a primitive cell.

[...]

The constrained configuration has the point symmetry S_6 .

Analysis of structural, dynamic, and magnetic symmetry:
 Subroutine PRICEL returns:
 Original cell was already a primitive cell.

 Routine SETGRP: Setting up the symmetry group for a
 hexagonal supercell.

 Subroutine GETGRP returns: Found  6 space group operations
 (whereof  6 operations were pure point group operations)
 out of a pool of 24 trial point group operations.

The magnetic configuration has the point symmetry S_6 .

 Subroutine INISYM returns: Found  6 space group operations
 (whereof  6 operations are pure point group operations),
 and found     1 'primitive' translations

 KPOINTS: Kpoints from vasprun.xml

Automatic generation of k-mesh.
Space group operators:
 irot       det(A)        alpha          n_x          n_y          n_z        tau_x        tau_y        tau_z
    1     1.000000     0.000000     1.000000     0.000000     0.000000     0.000000     0.000000     0.000000
    2    -1.000000     0.000000     1.000000     0.000000     0.000000     0.000000     0.000000     0.000000
    3     1.000000   120.000000     0.000000     0.000000     1.000000     0.000000     0.000000     0.000000
    4    -1.000000   120.000000     0.000000     0.000000     1.000000     0.000000     0.000000     0.000000
    5     1.000000   120.000000     0.000000     0.000000    -1.000000     0.000000     0.000000     0.000000
    6    -1.000000   120.000000     0.000000     0.000000    -1.000000     0.000000     0.000000     0.000000

 Subroutine IBZKPT returns following result:

 Found      5 irreducible k-points:

 Following reciprocal coordinates:
            Coordinates               Weight
  0.000000  0.000000  0.000000      1.000000
  0.200000  0.000000  0.000000      6.000000
  0.400000  0.000000  0.000000      6.000000
  0.400000  0.200000  0.000000      6.000000
 -0.400000  0.200000  0.000000      6.000000

 Following cartesian coordinates:
            Coordinates               Weight
  0.000000  0.000000  0.000000      1.000000
  0.028953 -0.016716  0.000000      6.000000
  0.057906 -0.033432  0.000000      6.000000
  0.057906  0.000000  0.000000      6.000000
 -0.057906  0.066864  0.000000      6.000000

 TETIRR: Found     15 inequivalent tetrahedra from      150

 SYSTEM =  unknown system
 POSCAR =  Co2 Si2 Se6

 Startparameter for this run:
   NWRITE =      2    write-flag & timer
   PREC   = accura    normal or accurate (medium, high low for compatibility)
   ISTART =      0    job   : 0-new  1-cont  2-samecut
   ICHARG =      2    charge: 1-file 2-atom 10-const
   ISPIN  =      2    spin polarized calculation?
   LNONCOLLINEAR =      F non collinear calculations
   LSORBIT =      F    spin-orbit coupling
   INIWAV =      1    electr: 0-lowe 1-rand  2-diag
   LASPH  =      F    aspherical Exc in radial PAW
   METAGGA=      F    non-selfconsistent MetaGGA calc.

 Electronic Relaxation 1
   ENCUT  =  520.0 eV  38.22 Ry    6.18 a.u.  12.84 12.84 43.59*2*pi/ulx,y,z
   ENINI  =  520.0     initial cutoff
   ENAUG  =  477.8 eV  augmentation charge cutoff
   NELM   =    400;   NELMIN=  2; NELMDL=  0     # of ELM steps
   EDIFF  = 0.1E-03   stopping-criterion for ELM
   LREAL  =      T    real-space projection
   NLSPLINE    = F    spline interpolate recip. space projectors
   LCOMPAT=      F    compatible to vasp.4.4
   GGA_COMPAT  = T    GGA compatible to vasp.4.4-vasp.4.6
   LMAXPAW     = -100 max onsite density
   LMAXMIX     =    2 max onsite mixed and CHGCAR
   VOSKOWN=      0    Vosko Wilk Nusair interpolation
   ROPT   =   -0.00025  -0.00025  -0.00025
 Ionic relaxation
   EDIFFG = 0.1E-02   stopping-criterion for IOM
   NSW    =     99    number of steps for IOM
   NBLOCK =      1;   KBLOCK =     99    inner block; outer block
   IBRION =      2    ionic relax: 0-MD 1-quasi-New 2-CG
   NFREE  =      1    steps in history (QN), initial steepest desc. (CG)
   ISIF   =      3    stress and relaxation
   IWAVPR =     11    prediction:  0-non 1-charg 2-wave 3-comb
   ISYM   =      2    0-nonsym 1-usesym 2-fastsym
   LCORR  =      T    Harris-Foulkes like correction to forces

   POTIM  = 0.5000    time-step for ionic-motion
   TEIN   =    0.0    initial temperature
   TEBEG  =    0.0;   TEEND  =   0.0 temperature during run
   SMASS  =  -3.00    Nose mass-parameter (am)
   estimated Nose-frequenzy (Omega)   =  0.10E-29 period in steps =****** mass=  -0.109E-26a.u.
   SCALEE = 1.0000    scale energy and forces
   NPACO  =    256;   APACO  = 16.0  distance and # of slots for P.C.
   PSTRESS=    0.0 pullay stress

  Mass of Ions in am
   POMASS =  58.93 28.09 78.96
  Ionic Valenz
   ZVAL   =   9.00  4.00  6.00
  Atomic Wigner-Seitz radii
  virtual crystal weights
   VCA    =   1.00  1.00  1.00
   NELECT =      62.0000    total number of electrons
   NUPDOWN=      -1.0000    fix difference up-down

 DOS related values:
   EMIN   =  10.00;   EMAX   =-10.00  energy-range for DOS
   EFERMI =   0.00
   ISMEAR =    -5;   SIGMA  =   0.05  broadening in eV -4-tet -1-fermi 0-gaus

 Electronic relaxation 2 (details)
   IALGO  =     38    algorithm
   LDIAG  =      T    sub-space diagonalisation (order eigenvalues)
   LSUBROT=      F    optimize rotation matrix (better conditioning)
   TURBO    =      0    0=normal 1=particle mesh
   IRESTART =      0    0=no restart 2=restart with 2 vectors
   NREBOOT  =      0    no. of reboots
   NMIN     =      0    reboot dimension
   EREF     =   0.00    reference energy to select bands
   IMIX   =      4    mixing-type and parameters
     AMIX     =   0.40;   BMIX     =  1.00
     AMIX_MAG =   1.60;   BMIX_MAG =  1.00
     AMIN     =   0.01
     WC   =   100.;   INIMIX=   1;  MIXPRE=   1;  MAXMIX= -45

 Intra band minimization:
   WEIMIN = 0.0010     energy-eigenvalue tresh-hold
   EBREAK =  0.52E-06  absolut break condition
   DEPER  =   0.30     relativ break condition

[...]
      8      -8.9558      1.00000
      9      -6.8973      1.00000
     10      -6.8972      1.00000
     11      -6.8506      1.00000
     12      -6.7816      1.00000
     13      -6.4782      1.00000
     14      -6.4782      1.00000
     15      -5.7748      1.00000
     16      -5.0903      1.00000
     17      -5.0903      1.00000
     18      -4.9639      1.00000
     19      -4.9638      1.00000
     20      -4.6326      1.00000
     21      -4.5693      1.00000
     22      -4.5693      1.00000
     23      -4.4971      1.00000
     24      -3.7394      1.00000
     25      -3.7393      1.00000
     26      -3.6611      1.00000
     27      -3.6611      1.00000
     28      -3.6309      1.00000
     29      -3.6033      1.00000
     30      -3.6033      1.00000
     31      -3.6016      1.00000
     32      -2.7271      0.00000
     33      -2.7271      0.00000
     34      -2.4113      0.00000
     35      -2.4113      0.00000
     36      -2.2645      0.00000
     37      -2.0889      0.00000
     38      -0.2423      0.00000
     39      -0.2423      0.00000
     40       0.8399      0.00000
     41       1.0072      0.00000
     42       1.1776      0.00000
     43       1.3334      0.00000
     44       1.3334      0.00000
     45       1.3800      0.00000
     46       1.5822      0.00000
     47       2.2664      0.00000
     48       2.8401      0.00000

[...]

 soft charge-density along one line, spin component           1
         0         1         2         3         4         5         6         7         8         9
 total charge-density along one line

[...]

------------------------ aborting loop because EDIFF is reached ----------------------------------------

 total charge

# of ion       s       p       d       tot
    1        0.268   0.217   7.218   7.703
    2        0.268   0.217   7.218   7.703
    3        0.797   0.681   0.000   1.477
    4        0.797   0.681   0.000   1.477
    5        1.491   2.144   0.018   3.653
    6        1.488   2.170   0.018   3.676
    7        1.491   2.150   0.018   3.659
    8        1.491   2.144   0.018   3.653
    9        1.488   2.170   0.018   3.676
   10        1.491   2.150   0.018   3.659
tot         11.072  14.722  14.545  40.339

 magnetization (x)

[...]

  FORCE on cell =-STRESS in cart. coord.  units (eV):
  Direction    XX          YY          ZZ          XY          YZ          ZX
  Alpha Z    36.11813    36.11813    36.11813
  Ewald    9323.94493  9323.94287-11117.97373    -0.00179    -0.00048    -0.00089
  Hartree 10016.65800 10016.65889 -9504.58057    -0.00034     0.00008     0.00012
  E(xc)    -247.53757  -247.53447  -247.22806    -0.00296    -0.00004     0.00002
  Local  -20060.38647-20060.38628 19879.08089     0.00190     0.00028     0.00054
  n-local   245.12258   245.16062   252.22734    -0.12709     0.42095     0.28769
  augment    58.57061    58.57092    55.17320    -0.00015     0.00006     0.00002
  Kinetic   599.28659   597.22435   625.43834    -1.34200     0.92589     1.14697
  Fock        0.00000     0.00000     0.00000     0.00000     0.00000     0.00000
  Total     -29.23409   -29.23408   -21.74447     0.00000    -0.00000     0.00000
  in kB     -48.34486   -48.34485   -35.95917     0.00001    -0.00000     0.00000

 VOLUME and BASIS-vectors are now :
  energy-cutoff  :      520.00
  volume of cell :      968.84
      direct lattice vectors                 reciprocal lattice vectors
     6.907777000 -0.000000000  0.000000000     0.144764372 -0.083579742  0.000000000
     3.453888000  5.982310000  0.000000000     0.000000000  0.167159509 -0.000000000
     0.000000000  0.000000000 23.444588000    -0.000000000  0.000000000  0.042653767

[...]

 FORCES acting on ions
    electron-ion (+dipol)            ewald-force                    non-local-force                 convergence-correction
   0.182E-03 0.100E-03 0.105E+01   0.549E-03 0.331E-03 -.104E+01   0.347E-17 -.694E-17 -.131E-02   -.282E-05 -.169E-05 0.102E-02
   -.182E-03 -.100E-03 -.105E+01   -.549E-03 -.331E-03 0.104E+01   0.694E-17 0.694E-17 0.131E-02   0.282E-05 0.169E-05 -.102E-02
   -.288E-04 -.111E-04 0.184E+03   -.141E-03 -.779E-04 -.179E+03   0.694E-17 -.694E-17 -.457E+01   0.103E-05 0.449E-06 0.254E+00
   0.288E-04 0.111E-04 -.184E+03   0.141E-03 0.779E-04 0.179E+03   0.104E-16 0.694E-17 0.457E+01   -.103E-05 -.449E-06 -.254E+00
   -.201E+02 0.158E+00 -.402E+03   0.186E+02 -.155E+00 0.405E+03   0.233E+01 -.818E-02 -.338E+01   -.691E-01 -.203E-02 -.618E+00
   0.102E+02 0.173E+02 -.402E+03   -.941E+01 -.160E+02 0.405E+03   -.117E+01 -.202E+01 -.338E+01   0.328E-01 0.609E-01 -.618E+00
   0.990E+01 -.175E+02 -.402E+03   -.915E+01 0.162E+02 0.405E+03   -.116E+01 0.202E+01 -.338E+01   0.363E-01 -.588E-01 -.618E+00
   0.201E+02 -.158E+00 0.402E+03   -.186E+02 0.155E+00 -.405E+03   -.233E+01 0.818E-02 0.338E+01   0.691E-01 0.203E-02 0.618E+00
   -.102E+02 -.173E+02 0.402E+03   0.941E+01 0.160E+02 -.405E+03   0.117E+01 0.202E+01 0.338E+01   -.328E-01 -.609E-01 0.618E+00
   -.990E+01 0.175E+02 0.402E+03   0.915E+01 -.162E+02 -.405E+03   0.116E+01 -.202E+01 0.338E+01   -.363E-01 0.588E-01 0.618E+00
   0.389E-10 0.414E-11 0.188E-09   0.711E-14 0.711E-14 0.171E-12   0.222E-15 0.000E+00 -.178E-14   0.190E-13 -.372E-13 0.885E-11

 POSITION                                       TOTAL-FORCE (eV/Angst)
      3.45388      1.99410     11.72054        -0.000000      0.000000      0.008900
      6.90778      3.98821     11.72405        -0.000000     -0.000000     -0.008900
      0.00000      0.00000     10.50824        -0.000000      0.000000      0.381707
      0.00000      0.00000     12.93635        -0.000000     -0.000000     -0.381707
      4.32819      0.00251     13.45138         0.754086     -0.005858     -1.639146
      1.29198      2.23274     13.45138        -0.382116     -0.650128     -1.639146
      4.74152      3.74706     13.45138        -0.371969      0.655987     -1.639146
      6.03348      5.97980      9.99321        -0.754086      0.005858      1.639146
      9.06969      3.74957      9.99321         0.382116      0.650128      1.639146
      5.62015      2.23525      9.99321         0.371969     -0.655987      1.639146
    total drift:                                0.000000      0.000000      0.000000

  FREE ENERGIE OF THE ION-ELECTRON SYSTEM (eV)
  free  energy   TOTEN  =       -37.98305283 eV

  energy  without entropy=      -37.98305283  energy(sigma->0) =      -37.98305283

[...]

 d Force = 0.1504723E+00[-0.549E+00, 0.850E+00]  d Energy = 0.4506316E+01-0.436E+01
 d Force =-0.2064050E+03[-0.239E+03,-0.174E+03]  d Ewald  =-0.2018610E+04 0.181E+04

 Steepest descent step on ions:
 trial-energy change:   -4.506316  1 .order   -3.028360  -11.483344    5.426624
  (g-gl).g = 0.115E+02      g.g   = 0.115E+02  gl.gl    = 0.000E+00
 g(Force)  = 0.956E+00   g(Stress)= 0.105E+02 ortho     = 0.000E+00
 gamma     =   0.00000
 trial     =   1.00000
 opt step  =   0.77153  (harmonic =   0.67909) maximal distance =0.06100982
 next E    =   -43.091662   (d E  =  -5.10861)

[...]

 d Force = 0.7210857E-01[-0.262E-02, 0.147E+00]  d Energy = 0.6002269E+00-0.528E+00
 d Force = 0.6016859E+02[ 0.579E+02, 0.625E+02]  d Ewald  = 0.5403298E+03-0.480E+03

[...]

 d Force =-0.2216321E-05[-0.137E-03, 0.132E-03]  d Energy = 0.2116625E-02-0.212E-02
 d Force =-0.2708527E+01[-0.271E+01,-0.270E+01]  d Ewald  =-0.2471634E+02 0.220E+02

[...]

 d Force =-0.1641930E-01[-0.315E-01,-0.130E-02]  d Energy =-0.1238183E+00 0.107E+00
 d Force =-0.2708853E+02[-0.276E+02,-0.266E+02]  d Ewald  =-0.2512164E+03 0.224E+03

[...]

 eigenvalue-minimisations  :   672
 total energy-change (2. order) : 0.1323825E-03  (-0.1352911E-04)
 number of electron      62.0000007 magnetization      -0.0000008
 augmentation part        3.1552866 magnetization      -0.0000022

 Broyden mixing:
  rms(total) = 0.25680E-02    rms(broyden)= 0.25680E-02
  rms(prec ) = 0.47619E-02
  weight for this iteration     100.00

 eigenvalues of (default mixing * dielectric matrix)
  average eigenvalue GAMMA=   1.3960
  2.7524  2.2841  0.2599  1.2256  1.2256  0.9742  1.0502

[...]

--------------------------------------- Iteration      6(   9)  ---------------------------------------

[...]

 eigenvalue-minimisations  :   800
 total energy-change (2. order) :-0.2597202E-04  (-0.1177907E-04)
 number of electron      62.0000007 magnetization      -0.0000008
 augmentation part        3.1552866 magnetization      -0.0000022

 Free energy of the ion-electron system (eV)
  alpha Z        PSCENC =        49.96031618
  Ewald energy   TEWEN  =      9058.37070398
  -Hartree energ DENC   =    -12102.14820312
  -exchange      EXHF   =         0.00000000
  -V(xc)+E(xc)   XCENC  =         6.28391087
  PAW double counting   =      2122.33498286    -2103.24944817
  entropy T*S    EENTRO =         0.00000000
  eigenvalues    EBANDS =      -465.29829687
  atomic energy  EATOM  =      3390.65143248
  Solvation  Ediel_sol  =         0.00000000
  free energy    TOTEN  =       -43.09460180 eV

  energy without entropy =      -43.09460180  energy(sigma->0) =      -43.09460180

 average (electrostatic) potential at core
  the test charge radii are     1.0452  0.9892  1.0808
  (the norm of the test charge is              1.0000)
       1 -48.7551       2 -48.7551       3 -92.4727       4 -92.4727       5 -61.1525
       6 -61.1525       7 -61.1525       8 -61.1525       9 -61.1525      10 -61.1525

 E-fermi :  -2.9587     XC(G=0):  -3.8912     alpha+bet : -2.9269

[...]

 spin component 2

[...]

 k-point     5 :      -0.4000    0.2000    0.0000
  band No.  band energies     occupation
      1     -16.4704      1.00000
      2     -16.2499      1.00000
      3     -15.8472      1.00000
      4     -15.7771      1.00000
      5     -15.6179      1.00000
      6     -15.4401      1.00000
      7     -10.9296      1.00000
      8      -9.2696      1.00000
      9      -7.8906      1.00000
     10      -7.3957      1.00000
     11      -7.3445      1.00000
     12      -6.8769      1.00000
     13      -6.5881      1.00000
     14      -6.2853      1.00000
     15      -5.9218      1.00000
     16      -5.6306      1.00000
     17      -5.5627      1.00000
     18      -5.4505      1.00000
     19      -5.4021      1.00000
     20      -5.1265      1.00000
     21      -5.0270      1.00000
     22      -4.3064      1.00000
     23      -4.1511      1.00000
     24      -4.0426      1.00000
     25      -4.0148      1.00000
     26      -3.5434      1.00000
     27      -3.4811      1.00000
     28      -3.3045      1.00000
     29      -3.2082      1.00000
     30      -3.1353      1.00000
     31      -3.1293      1.00000
     32      -1.9544      0.00000
     33      -1.8736      0.00000
     34      -1.6095      0.00000
     35      -1.2551      0.00000
     36      -0.2605      0.00000
     37       0.3581      0.00000
     38       0.6845      0.00000
     39       1.0258      0.00000
     40       1.6160      0.00000
     41       1.8634      0.00000
     42       2.1098      0.00000
     43       2.7253      0.00000
     44       2.8760      0.00000
     45       2.9598      0.00000
     46       2.9883      0.00000
     47       3.3403      0.00000
     48       3.7446      0.00000

[...]

 soft charge-density along one line, spin component           2
         0         1         2         3         4         5         6         7         8         9
 total charge-density along one line

------------------------ aborting loop because EDIFF is reached ----------------------------------------

[...]

  FORCE on cell =-STRESS in cart. coord.  units (eV):
  Direction    XX          YY          ZZ          XY          YZ          ZX
  Alpha Z    49.96032    49.96032    49.96032
  Ewald   11088.01345 11088.01097-13117.65655    -0.00200    -0.00057    -0.00103
  Hartree 11677.52752 11677.52843-11247.36591    -0.00034     0.00007     0.00012
  E(xc)    -255.10589  -255.10591  -254.73389     0.00004     0.00000     0.00001
  Local  -23509.50468-23509.50443 23591.92127     0.00193     0.00030     0.00057
  n-local   263.40823   263.33888   266.53665    -0.09636     0.70930     0.52292
  augment    59.21881    59.21881    55.07530     0.00024     0.00003     0.00004
  Kinetic   629.38760   624.12510   656.51925    -3.44727     0.94418     1.13480
  Fock        0.00000     0.00000     0.00000     0.00000     0.00000     0.00000
  Total       0.23876     0.23876     0.25642     0.00000    -0.00000     0.00000
  in kB       0.54615     0.54615     0.58656     0.00000    -0.00000     0.00000

 VOLUME and BASIS-vectors are now :
  energy-cutoff  :      520.00
  volume of cell :      700.41
      direct lattice vectors                 reciprocal lattice vectors
     6.134364681  0.000000038  0.000000000     0.163016067 -0.094117363 -0.000000000
     3.067181976  5.312515426  0.000000000    -0.000000001  0.188234748  0.000000000
     0.000000000 -0.000000000 21.492161337     0.000000000  0.000000000  0.046528592

  length of vectors
     6.134364681  6.134364305 21.492161337     0.188234737  0.188234748  0.046528592

 FORCES acting on ions
    electron-ion (+dipol)            ewald-force                    non-local-force                 convergence-correction
   -.120E-03 -.739E-04 0.115E+01   0.706E-03 0.421E-03 -.117E+01   0.694E-17 -.729E-21 0.188E-01   0.136E-07 0.102E-07 -.979E-04
   0.120E-03 0.739E-04 -.115E+01   -.706E-03 -.421E-03 0.117E+01   0.694E-17 0.729E-21 -.188E-01   -.136E-07 -.102E-07 0.979E-04
   -.504E-04 -.144E-05 0.239E+03   -.187E-03 -.104E-03 -.232E+03   -.173E-16 -.136E-16 -.805E+01   0.795E-08 -.444E-08 -.451E-01
   0.504E-04 0.144E-05 -.239E+03   0.187E-03 0.104E-03 0.232E+03   0.382E-16 0.136E-16 0.805E+01   -.795E-08 0.444E-08 0.451E-01
   -.240E+02 0.183E+00 -.513E+03   0.217E+02 -.184E+00 0.516E+03   0.192E+01 -.101E-01 -.278E+01   0.848E-02 0.239E-05 0.991E-01
   0.122E+02 0.207E+02 -.513E+03   -.110E+02 -.187E+02 0.516E+03   -.968E+00 -.166E+01 -.278E+01   -.424E-02 -.735E-02 0.991E-01
   0.119E+02 -.209E+02 -.513E+03   -.107E+02 0.189E+02 0.516E+03   -.951E+00 0.167E+01 -.278E+01   -.424E-02 0.734E-02 0.991E-01
   0.240E+02 -.183E+00 0.513E+03   -.217E+02 0.184E+00 -.516E+03   -.192E+01 0.101E-01 0.278E+01   -.848E-02 -.239E-05 -.991E-01
   -.122E+02 -.207E+02 0.513E+03   0.110E+02 0.187E+02 -.516E+03   0.968E+00 0.166E+01 0.278E+01   0.424E-02 0.735E-02 -.991E-01
   -.119E+02 0.209E+02 0.513E+03   0.107E+02 -.189E+02 -.516E+03   0.951E+00 -.167E+01 0.278E+01   0.424E-02 -.734E-02 -.991E-01
   0.694E-10 -.179E-10 0.908E-09   0.124E-13 0.000E+00 -.227E-12   0.000E+00 0.000E+00 -.888E-15   0.156E-13 -.165E-13 0.265E-10

 POSITION                                       TOTAL-FORCE (eV/Angst)
      3.06718      1.77084     10.74477        -0.000000      0.000000     -0.000712
      6.13437      3.54168     10.74739        -0.000000     -0.000000      0.000712
     -0.00000     -0.00000      9.64609        -0.000000      0.000000     -0.497306
     -0.00000     -0.00000     11.84607        -0.000000     -0.000000      0.497306
      3.86805      0.00204     12.27552        -0.429771     -0.010753     -0.153083
      1.13493      1.96167     12.27552         0.205574      0.377569     -0.153083
      4.19858      3.34881     12.27552         0.224198     -0.366817     -0.153083
      5.33349      5.31047      9.21665         0.429771      0.010753      0.153083
      8.06662      3.35085      9.21665        -0.205574     -0.377569      0.153083
      5.00297      1.96370      9.21665        -0.224198      0.366817      0.153083
    total drift:                                0.000000     -0.000000      0.000000

  FREE ENERGIE OF THE ION-ELECTRON SYSTEM (eV)
  free  energy   TOTEN  =       -43.09460180 eV

  energy  without entropy=      -43.09460180  energy(sigma->0) =      -43.09460180

 d Force = 0.1649575E-01[ 0.393E-02, 0.291E-01]  d Energy = 0.1267082E+00-0.110E+00
 d Force = 0.2487743E+02[ 0.245E+02, 0.253E+02]  d Ewald  = 0.2257582E+03-0.201E+03

 reached required accuracy - stopping structural energy minimisation

 total charge

[...]

 magnetization (x)

# of ion       s       p       d       tot
    1       -0.000  -0.000   0.000   0.000
    2       -0.000  -0.000   0.000   0.000
    3        0.000   0.000   0.000   0.000
    4        0.000   0.000   0.000   0.000
    5       -0.000   0.000  -0.000   0.000
    6       -0.000   0.000  -0.000   0.000
    7       -0.000   0.000  -0.000   0.000
    8       -0.000   0.000  -0.000   0.000
    9       -0.000   0.000  -0.000   0.000
   10       -0.000   0.000  -0.000   0.000
tot         -0.000   0.000   0.000   0.000

 BZINTS: Fermi energy: -2.958697; 62.000000 electrons
         Band energy:-465.298297;  BLOECHL correction:  0.000000