 vasp.5.4.4.18Apr17-6-g9f103f2a35 (build May  1 2020 15:48:39) complex
 executed on             LinuxGNU date 2020.06.21  19:56:02

 INCAR:
 POTCAR:   PAW_PBE Ni 06Sep2000
 POTCAR:   PAW_PBE Si 05Jan2001
 POTCAR:   PAW_PBE Ge 05Jan2001
 POTCAR:    PAW_PBE S 17Jan2003

 POTCAR:   PAW_PBE Ni 06Sep2000
   VRHFIN =Ni:

   TITEL  = PAW_PBE Ni 06Sep2000
   POMASS =   58.690; ZVAL   =   10.000    mass and valenz
   ENMAX  =  269.533; ENMIN  =  202.150 eV
   QCUT   =   -4.451; QGAM   =    8.902    optimization parameters

   Description
     l     E      TYP  RCUT    TYP  RCUT
     2   .000     23  2.300
     2   .000     23  2.300
     0   .000     23  2.300
     0   .000     23  2.300
     1  -.200     23  2.300
     1   .000     23  2.300
     3   .000      7   .000

 POTCAR:   PAW_PBE Si 05Jan2001
   VRHFIN =Si: s2p2

   TITEL  = PAW_PBE Si 05Jan2001
   POMASS =   28.085; ZVAL   =    4.000    mass and valenz
   ENMAX  =  245.345; ENMIN  =  184.009 eV
   QCUT   =   -4.246; QGAM   =    8.493    optimization parameters

[...]

 POTCAR:   PAW_PBE Ge 05Jan2001
   VRHFIN =Ge: s2p2

[...]

 POTCAR:    PAW_PBE S 17Jan2003
   VRHFIN =S : s2p4

   TITEL  = PAW_PBE S 17Jan2003
   POMASS =   32.066; ZVAL   =    6.000    mass and valenz
   ENMAX  =  280.000; ENMIN  =  194.016 eV
   QCUT   =   -4.360; QGAM   =    8.721    optimization parameters

   Description
     l     E      TYP  RCUT    TYP  RCUT
     0   .000     23  1.900
     0   .000     23  1.900
     1   .000     23  1.900
     1   .000     23  1.900
     2   .000     23  1.900

 Optimization of the real space projectors (new method)

 maximal supplied QI-value         = 16.25
 optimisation between [QCUT,QGAM] = [ 11.54, 23.24] = [ 37.28,151.24] Ry
 Optimized for a Real-space Cutoff    1.49 Angstroem

   l    n(q)    QCUT    max X(q) W(low)/X(q) W(high)/X(q)  e(spline)
   2      9    11.539     4.811    0.20E-04    0.14E-04    0.45E-07
   2      9    11.539    15.146    0.24E-03    0.12E-03    0.20E-06
   0     10    11.539    14.357    0.18E-04    0.12E-05    0.14E-07
   0     10    11.539    43.282    0.39E-04    0.17E-04    0.23E-06
   1     10    11.539     5.514    0.99E-05    0.13E-04    0.19E-07
   1     10    11.539     7.697    0.38E-04    0.79E-04    0.91E-07
 Optimization of the real space projectors (new method)

[...]

   l    n(q)    QCUT    max X(q) W(low)/X(q) W(high)/X(q)  e(spline)
   0      9    11.539     8.651    0.22E-04    0.16E-04    0.10E-07
   0      9    11.539    33.192    0.11E-03    0.16E-03    0.65E-07
   1      8    11.539     5.899    0.37E-04    0.28E-04    0.43E-07
   1      8    11.539    27.289    0.22E-03    0.28E-04    0.14E-06
   2      8    11.539     4.673    0.11E-03    0.18E-03    0.58E-07
 Optimization of the real space projectors (new method)

 maximal supplied QI-value         = 19.84
 optimisation between [QCUT,QGAM] = [ 11.51, 23.22] = [ 37.09,150.92] Ry
 Optimized for a Real-space Cutoff    1.21 Angstroem

   l    n(q)    QCUT    max X(q) W(low)/X(q) W(high)/X(q)  e(spline)
   0      8    11.508     5.487    0.18E-04    0.22E-05    0.47E-08
   0      8    11.508    85.627    0.96E-04    0.18E-03    0.54E-07
   1      8    11.508     3.530    0.17E-04    0.28E-04    0.21E-07
   1      8    11.508    42.714    0.18E-03    0.63E-04    0.92E-07

 PAW_PBE Ni 06Sep2000                   :
 PAW_PBE Si 05Jan2001                   :
 PAW_PBE Ge 05Jan2001                   :
  PAW_PBE S 17Jan2003                   :

 POSCAR: Ni2 Si Ge S6
  positions in direct lattice
  velocities in cartesian coordinates
 exchange correlation table for  LEXCH =       42
   RHO(1)=    0.500       N(1)  =     2000
   RHO(2)=  100.500       N(2)  =     4000

 ion  position               nearest neighbor table
   1  0.333  0.333  0.500-   6 2.78   5 2.78   7 2.78   8 2.78  10 2.78   9 2.78
   2  0.667  0.667  0.500-   9 2.78   8 2.78  10 2.78   5 2.78   7 2.78   6 2.78
   3  0.000  0.000  0.448-   4 2.43   8 2.63  10 2.63   9 2.63
   4  0.000  0.000  0.552-   3 2.43   5 2.63   7 2.63   6 2.63
   5  0.626  0.000  0.574-   4 2.63   1 2.78   2 2.78
   6  0.000  0.373  0.574-   4 2.63   1 2.78   2 2.78
   7  0.373  0.626  0.574-   4 2.63   1 2.78   2 2.78
   8  0.374  1.000  0.426-   3 2.63   2 2.78   1 2.78
   9  1.000  0.627  0.426-   3 2.63   2 2.78   1 2.78
  10  0.627  0.374  0.426-   3 2.63   2 2.78   1 2.78

  LATTYP: Found a hexagonal cell.
 ALAT       =     6.9077769333
 C/A-ratio  =     3.3939410937

  Lattice vectors:

 A1 = (   3.4538890000,  -5.9823100000,   0.0000000000)
 A2 = (  -6.9077770000,   0.0000000000,   0.0000000000)
 A3 = (   0.0000000000,   0.0000000000, -23.4445880000)

Analysis of symmetry for initial positions (statically):
 Subroutine PRICEL returns:
 Original cell was already a primitive cell.

 Routine SETGRP: Setting up the symmetry group for a
 hexagonal supercell.

 Subroutine GETGRP returns: Found  3 space group operations
 (whereof  3 operations were pure point group operations)
 out of a pool of 24 trial point group operations.

The static configuration has the point symmetry C_3 .

Analysis of symmetry for dynamics (positions and initial velocities):
 Subroutine PRICEL returns:
 Original cell was already a primitive cell.

[...]

The dynamic configuration has the point symmetry C_3 .

Analysis of constrained symmetry for selective dynamics:
 Subroutine PRICEL returns:
 Original cell was already a primitive cell.

[...]

The constrained configuration has the point symmetry C_3 .

Analysis of structural, dynamic, and magnetic symmetry:
 Subroutine PRICEL returns:
 Original cell was already a primitive cell.

 Routine SETGRP: Setting up the symmetry group for a
 hexagonal supercell.

 Subroutine GETGRP returns: Found  3 space group operations
 (whereof  3 operations were pure point group operations)
 out of a pool of 24 trial point group operations.

The magnetic configuration has the point symmetry C_3 .

 Subroutine INISYM returns: Found  3 space group operations
 (whereof  3 operations are pure point group operations),
 and found     1 'primitive' translations

 KPOINTS: Kpoints from vasprun.xml

Automatic generation of k-mesh.
Space group operators:
 irot       det(A)        alpha          n_x          n_y          n_z        tau_x        tau_y        tau_z
    1     1.000000     0.000000     1.000000     0.000000     0.000000     0.000000     0.000000     0.000000
    2     1.000000   120.000000     0.000000     0.000000     1.000000     0.000000     0.000000     0.000000
    3     1.000000   120.000000     0.000000     0.000000    -1.000000     0.000000     0.000000     0.000000

 Subroutine IBZKPT returns following result:

 Found      5 irreducible k-points:

 Following reciprocal coordinates:
            Coordinates               Weight
  0.000000  0.000000  0.000000      1.000000
  0.200000  0.000000  0.000000      6.000000
  0.400000  0.000000  0.000000      6.000000
  0.400000  0.200000  0.000000      6.000000
 -0.400000  0.200000  0.000000      6.000000

 Following cartesian coordinates:
            Coordinates               Weight
  0.000000  0.000000  0.000000      1.000000
  0.028953 -0.016716  0.000000      6.000000
  0.057906 -0.033432  0.000000      6.000000
  0.057906  0.000000  0.000000      6.000000
 -0.057906  0.066864  0.000000      6.000000

 TETIRR: Found     15 inequivalent tetrahedra from      150

 SYSTEM =  unknown system
 POSCAR =  Ni2 Si Ge S6

 Startparameter for this run:
   NWRITE =      2    write-flag & timer
   PREC   = accura    normal or accurate (medium, high low for compatibility)
   ISTART =      0    job   : 0-new  1-cont  2-samecut
   ICHARG =      2    charge: 1-file 2-atom 10-const
   ISPIN  =      2    spin polarized calculation?
   LNONCOLLINEAR =      F non collinear calculations
   LSORBIT =      F    spin-orbit coupling
   INIWAV =      1    electr: 0-lowe 1-rand  2-diag
   LASPH  =      F    aspherical Exc in radial PAW
   METAGGA=      F    non-selfconsistent MetaGGA calc.

 Electronic Relaxation 1
   ENCUT  =  520.0 eV  38.22 Ry    6.18 a.u.  12.84 12.84 43.59*2*pi/ulx,y,z
   ENINI  =  520.0     initial cutoff
   ENAUG  =  544.6 eV  augmentation charge cutoff
   NELM   =    400;   NELMIN=  2; NELMDL=  0     # of ELM steps
   EDIFF  = 0.1E-03   stopping-criterion for ELM
   LREAL  =      T    real-space projection
   NLSPLINE    = F    spline interpolate recip. space projectors
   LCOMPAT=      F    compatible to vasp.4.4
   GGA_COMPAT  = T    GGA compatible to vasp.4.4-vasp.4.6
   LMAXPAW     = -100 max onsite density
   LMAXMIX     =    2 max onsite mixed and CHGCAR
   VOSKOWN=      0    Vosko Wilk Nusair interpolation
   ROPT   =   -0.00025  -0.00025  -0.00025  -0.00025
 Ionic relaxation
   EDIFFG = 0.1E-02   stopping-criterion for IOM
   NSW    =     99    number of steps for IOM
   NBLOCK =      1;   KBLOCK =     99    inner block; outer block
   IBRION =      2    ionic relax: 0-MD 1-quasi-New 2-CG
   NFREE  =      1    steps in history (QN), initial steepest desc. (CG)
   ISIF   =      3    stress and relaxation
   IWAVPR =     11    prediction:  0-non 1-charg 2-wave 3-comb
   ISYM   =      2    0-nonsym 1-usesym 2-fastsym
   LCORR  =      T    Harris-Foulkes like correction to forces

   POTIM  = 0.5000    time-step for ionic-motion
   TEIN   =    0.0    initial temperature
   TEBEG  =    0.0;   TEEND  =   0.0 temperature during run
   SMASS  =  -3.00    Nose mass-parameter (am)
   estimated Nose-frequenzy (Omega)   =  0.10E-29 period in steps =****** mass=  -0.109E-26a.u.
   SCALEE = 1.0000    scale energy and forces
   NPACO  =    256;   APACO  = 16.0  distance and # of slots for P.C.
   PSTRESS=    0.0 pullay stress

  Mass of Ions in am
   POMASS =  58.69 28.09 72.61 32.07
  Ionic Valenz
   ZVAL   =  10.00  4.00  4.00  6.00
  Atomic Wigner-Seitz radii
  virtual crystal weights
   VCA    =   1.00  1.00  1.00  1.00
   NELECT =      64.0000    total number of electrons
   NUPDOWN=      -1.0000    fix difference up-down

 DOS related values:
   EMIN   =  10.00;   EMAX   =-10.00  energy-range for DOS
   EFERMI =   0.00
   ISMEAR =    -5;   SIGMA  =   0.05  broadening in eV -4-tet -1-fermi 0-gaus

 Electronic relaxation 2 (details)
   IALGO  =     38    algorithm
   LDIAG  =      T    sub-space diagonalisation (order eigenvalues)
   LSUBROT=      F    optimize rotation matrix (better conditioning)
   TURBO    =      0    0=normal 1=particle mesh
   IRESTART =      0    0=no restart 2=restart with 2 vectors
   NREBOOT  =      0    no. of reboots
   NMIN     =      0    reboot dimension
   EREF     =   0.00    reference energy to select bands
   IMIX   =      4    mixing-type and parameters
     AMIX     =   0.40;   BMIX     =  1.00
     AMIX_MAG =   1.60;   BMIX_MAG =  1.00
     AMIN     =   0.01
     WC   =   100.;   INIMIX=   1;  MIXPRE=   1;  MAXMIX= -45

 Intra band minimization:
   WEIMIN = 0.0010     energy-eigenvalue tresh-hold
   EBREAK =  0.52E-06  absolut break condition
   DEPER  =   0.30     relativ break condition

   TIME   =   0.40     timestep for ELM

  volume/ion in A,a.u.               =      96.88       653.80
  Fermi-wavevector in a.u.,A,eV,Ry     =   0.661787  1.250596  5.958835  0.437962
[...]
  n-local   409.92702   410.72780   420.55198     0.33513     0.10930    -0.08225
  augment    -4.79424    -4.79410    -8.55547     0.00000    -0.00028     0.00021
  Kinetic   655.06045   651.71890   688.61461    -1.85206    -0.96044    -1.29276
  Fock        0.00000     0.00000     0.00000     0.00000     0.00000     0.00000
  Total     -29.18169   -29.18169   -14.98482     0.00000    -0.00000     0.00000
  in kB     -48.25821   -48.25821   -24.78062     0.00000    -0.00000     0.00000

 VOLUME and BASIS-vectors are now :
  energy-cutoff  :      520.00
  volume of cell :      968.84
      direct lattice vectors                 reciprocal lattice vectors
     6.907777000 -0.000000000  0.000000000     0.144764372 -0.083579742  0.000000000
     3.453888000  5.982310000  0.000000000     0.000000000  0.167159509 -0.000000000
     0.000000000  0.000000000 23.444588000    -0.000000000  0.000000000  0.042653767

[...]

 FORCES acting on ions
    electron-ion (+dipol)            ewald-force                    non-local-force                 convergence-correction
   0.246E-03 0.115E-03 0.131E+01   0.643E-03 0.389E-03 -.118E+01   0.000E+00 0.000E+00 -.710E-01   -.200E-06 -.994E-07 -.154E-01
   -.255E-03 -.105E-03 -.109E+01   -.643E-03 -.389E-03 0.118E+01   0.139E-16 0.694E-17 -.613E-01   0.201E-06 0.130E-06 -.141E-01
   -.349E-04 -.324E-05 0.191E+03   -.141E-03 -.779E-04 -.186E+03   -.278E-16 -.139E-16 -.573E+01   0.148E-07 0.772E-08 -.119E-01
   0.797E-04 -.588E-04 -.189E+03   0.141E-03 0.779E-04 0.186E+03   0.520E-17 0.000E+00 0.288E+01   -.140E-07 -.786E-08 0.227E-02
   -.262E+02 0.159E+00 -.422E+03   0.233E+02 -.155E+00 0.425E+03   0.382E+01 -.795E-02 -.517E+01   0.478E-02 -.183E-03 0.157E-01
   0.132E+02 0.226E+02 -.422E+03   -.118E+02 -.201E+02 0.425E+03   -.192E+01 -.330E+01 -.517E+01   -.255E-02 -.405E-02 0.157E-01
   0.130E+02 -.228E+02 -.422E+03   -.115E+02 0.202E+02 0.425E+03   -.190E+01 0.331E+01 -.517E+01   -.223E-02 0.423E-02 0.157E-01
   0.264E+02 -.161E+00 0.422E+03   -.233E+02 0.155E+00 -.425E+03   -.446E+01 0.959E-02 0.526E+01   -.543E-02 0.104E-02 -.270E-01
   -.133E+02 -.227E+02 0.422E+03   0.118E+02 0.201E+02 -.425E+03   0.224E+01 0.386E+01 0.526E+01   0.362E-02 0.418E-02 -.270E-01
   -.130E+02 0.229E+02 0.422E+03   0.115E+02 -.202E+02 -.425E+03   0.222E+01 -.387E+01 0.526E+01   0.181E-02 -.522E-02 -.270E-01
   -.231E-06 -.299E-04 0.281E+01   0.355E-14 0.000E+00 -.171E-12   0.888E-15 0.888E-15 -.273E+01   0.631E-07 0.618E-07 -.729E-01

 POSITION                                       TOTAL-FORCE (eV/Angst)
      3.45388      1.99410     11.72054         0.000000      0.000000      0.042316
      6.90778      3.98821     11.72405         0.000000      0.000000      0.019689
      0.00000      0.00000     10.50824         0.000000      0.000000     -0.870708
      0.00000      0.00000     12.93635        -0.000000      0.000000      0.576191
      4.32819      0.00251     13.45138         0.870253     -0.003339     -1.585863
      1.29198      2.23274     13.45138        -0.438018     -0.751992     -1.585863
      4.74152      3.74706     13.45138        -0.432235      0.755330     -1.585863
      6.03348      5.97980      9.99321        -1.371344      0.003930      1.663367
      9.06969      3.74957      9.99321         0.689075      1.185653      1.663367
      5.62015      2.23525      9.99321         0.682268     -1.189584      1.663367
    total drift:                               -0.000000     -0.000030      0.002136

  FREE ENERGIE OF THE ION-ELECTRON SYSTEM (eV)
  free  energy   TOTEN  =       -35.43708159 eV

  energy  without entropy=      -35.43708159  energy(sigma->0) =      -35.43708159

[...]

 d Force = 0.6060573E+00[ 0.141E+00, 0.107E+01]  d Energy = 0.7430588E+01-0.682E+01
 d Force =-0.2043422E+03[-0.237E+03,-0.172E+03]  d Ewald  =-0.2663699E+04 0.246E+04

 Steepest descent step on ions:
 trial-energy change:   -7.430588  1 .order   -5.720985  -10.482555   -0.959415
  (g-gl).g = 0.105E+02      g.g   = 0.105E+02  gl.gl    = 0.000E+00
 g(Force)  = 0.118E+01   g(Stress)= 0.930E+01 ortho     = 0.000E+00
 gamma     =   0.00000
 trial     =   1.00000
 opt step  =   1.04734  (harmonic =   1.10075) maximal distance =0.08404405
 next E    =   -42.890561   (d E  =  -7.45348)

[...]

 d Force = 0.1409366E+00[ 0.796E-01, 0.202E+00]  d Energy = 0.1413250E+00-0.388E-03
 d Force =-0.2905520E+02[-0.293E+02,-0.288E+02]  d Ewald  = 0.1055721E+02-0.396E+02

 Conjugate gradient step on ions:
 trial-energy change:   -0.141325  1 .order   -0.144486   -0.207078   -0.081894
  (g-gl).g = 0.117E+00      g.g   = 0.204E+00  gl.gl    = 0.105E+02
 g(Force)  = 0.200E+00   g(Stress)= 0.370E-02 ortho     = 0.875E-01
 gamma     =   0.01112
 trial     =   1.00947
 opt step  =   1.94146  (harmonic =   1.66985) maximal distance =0.08368133
 next E    =   -43.080617   (d E  =  -0.17664)

[...]

 d Force = 0.3027640E-01[-0.130E-01, 0.735E-01]  d Energy = 0.2860401E-01 0.167E-02
 d Force =-0.2724154E+02[-0.274E+02,-0.271E+02]  d Ewald  = 0.9635048E+01-0.369E+02

[...]

 d Force = 0.5240667E-02[ 0.874E-03, 0.961E-02]  d Energy = 0.5155711E-02 0.850E-04
 d Force =-0.1237843E+01[-0.122E+01,-0.126E+01]  d Ewald  = 0.7340603E+02-0.746E+02

 Conjugate gradient step on ions:
 trial-energy change:   -0.005156  1 .order   -0.004485   -0.012304    0.003335
  (g-gl).g = 0.260E-01      g.g   = 0.123E-01  gl.gl    = 0.204E+00
 g(Force)  = 0.981E-02   g(Stress)= 0.250E-02 ortho     =-0.159E-01
 gamma     =   0.12751
 trial     =   1.19587
 opt step  =   0.98548  (harmonic =   0.94084) maximal distance =0.00804933
 next E    =   -43.079350   (d E  =  -0.00545)

[...]

 d Force =-0.2801254E-03[-0.405E-03,-0.155E-03]  d Energy = 0.2950895E-03-0.575E-03
 d Force = 0.2141566E+00[ 0.215E+00, 0.214E+00]  d Ewald  =-0.1287100E+02 0.131E+02

[...]

 d Force = 0.1098692E-02[-0.171E-02, 0.391E-02]  d Energy = 0.5761455E-03 0.523E-03
 d Force =-0.8415441E+00[-0.805E+00,-0.878E+00]  d Ewald  =-0.2447727E+02 0.236E+02

[...]

 d Force = 0.1747756E-03[-0.516E-03, 0.866E-03]  d Energy = 0.7714717E-03-0.597E-03
 d Force = 0.4155785E+00[ 0.425E+00, 0.406E+00]  d Ewald  = 0.1232736E+02-0.119E+02

[...]

 d Force = 0.8912871E-03[ 0.283E-03, 0.150E-02]  d Energy = 0.1392450E-02-0.501E-03
 d Force = 0.2521339E+01[ 0.253E+01, 0.251E+01]  d Ewald  =-0.2829903E+02 0.308E+02

 Conjugate gradient step on ions:
 trial-energy change:   -0.001392  1 .order   -0.001627   -0.002606   -0.000648
  (g-gl).g = 0.423E-02      g.g   = 0.359E-02  gl.gl    = 0.101E-01
 g(Force)  = 0.142E-02   g(Stress)= 0.217E-02 ortho     =-0.602E-03
 gamma     =   0.42087
 trial     =   0.78147
 opt step  =   1.04004  (harmonic =   1.04004) maximal distance =0.00338167
 next E    =   -43.082437   (d E  =  -0.00173)

[...]

 d Force = 0.6750033E-06[-0.924E-04, 0.938E-04]  d Energy = 0.9013970E-04-0.895E-04
 d Force = 0.8377891E+00[ 0.839E+00, 0.837E+00]  d Ewald  =-0.9360755E+01 0.102E+02

[...]

 d Force = 0.9508003E-03[ 0.821E-03, 0.108E-02]  d Energy = 0.5492543E-03 0.402E-03
 d Force =-0.6725103E+00[-0.672E+00,-0.673E+00]  d Ewald  =-0.2209041E+02 0.214E+02

 Conjugate gradient step on ions:
 trial-energy change:   -0.000549  1 .order   -0.001129   -0.002312    0.000053
  (g-gl).g = 0.357E-03      g.g   = 0.270E-02  gl.gl    = 0.359E-02
 g(Force)  = 0.133E-02   g(Stress)= 0.137E-02 ortho     = 0.766E-03
 gamma     =   0.09937
 trial     =   0.83319
 opt step  =   0.53109  (harmonic =   0.81465) maximal distance =0.00101369
 next E    =   -43.082772   (d E  =  -0.00059)

[...]

 eigenvalue-minimisations  :  1088
 total energy-change (2. order) : 0.4536606E-02  (-0.1107494E-02)
 number of electron      63.9999984 magnetization       1.9999969
 augmentation part        6.5050462 magnetization       1.0812792

[...]

 Broyden mixing:
  rms(total) = 0.55068E-02    rms(broyden)= 0.55067E-02
  rms(prec ) = 0.59856E-02
  weight for this iteration     100.00

 eigenvalues of (default mixing * dielectric matrix)
  average eigenvalue GAMMA=   0.8509
  1.6293  0.2808  0.6425

[...]

--------------------------------------- Iteration     13(   5)  ---------------------------------------

[...]

 eigenvalue-minimisations  :   672
 total energy-change (2. order) :-0.8715919E-04  (-0.1696320E-04)
 number of electron      63.9999984 magnetization       1.9999972
 augmentation part        6.5067109 magnetization       1.0810888

 Free energy of the ion-electron system (eV)
  alpha Z        PSCENC =        40.58850528
  Ewald energy   TEWEN  =     10870.93872197
  -Hartree energ DENC   =    -14530.73605867
  -exchange      EXHF   =         0.00000000
  -V(xc)+E(xc)   XCENC  =       117.08447269
  PAW double counting   =      2541.61777560    -2623.35845377
  entropy T*S    EENTRO =         0.00000000
  eigenvalues    EBANDS =      -499.48153534
  atomic energy  EATOM  =      4040.26366069
  Solvation  Ediel_sol  =         0.00000000
  free energy    TOTEN  =       -43.08291154 eV

  energy without entropy =      -43.08291154  energy(sigma->0) =      -43.08291154

 average (electrostatic) potential at core
  the test charge radii are     0.9791  0.9892  1.1631  0.9698
  (the norm of the test charge is              1.0000)
       1 -50.2373       2 -50.2489       3 -92.7458       4 -39.7180       5 -94.4896
       6 -94.4896       7 -94.4896       8 -94.2453       9 -94.2453      10 -94.2452

 E-fermi :  -2.6468     XC(G=0):  -3.6441     alpha+bet : -3.0005

[...]

 spin component 2

[...]

 k-point     5 :      -0.4000    0.2000    0.0000
  band No.  band energies     occupation
      1     -16.5925      1.00000
      2     -16.2239      1.00000
      3     -15.8399      1.00000
      4     -15.7305      1.00000
      5     -15.5126      1.00000
      6     -15.3144      1.00000
      7     -11.1116      1.00000
      8      -9.5957      1.00000
      9      -8.2065      1.00000
     10      -7.6962      1.00000
     11      -7.6601      1.00000
     12      -7.1358      1.00000
     13      -6.8875      1.00000
     14      -6.6189      1.00000
     15      -6.3827      1.00000
     16      -6.0606      1.00000
     17      -5.9339      1.00000
     18      -5.9131      1.00000
     19      -5.7397      1.00000
     20      -5.5833      1.00000
     21      -5.3911      1.00000
     22      -4.7971      1.00000
     23      -4.6941      1.00000
     24      -4.5846      1.00000
     25      -4.4704      1.00000
     26      -4.1997      1.00000
     27      -4.1072      1.00000
     28      -3.9960      1.00000
     29      -3.9876      1.00000
     30      -3.8593      1.00000
     31      -3.4809      1.00000
     32      -2.3994      0.00000
     33      -2.3111      0.00000
     34      -2.0882      0.00000
     35      -1.7643      0.00000
     36      -0.7288      0.00000
     37       0.3645      0.00000
     38       1.0209      0.00000
     39       1.1312      0.00000
     40       1.7847      0.00000
     41       2.0355      0.00000
     42       2.0581      0.00000
     43       3.0140      0.00000
     44       3.0898      0.00000
     45       3.1132      0.00000
     46       3.3129      0.00000
     47       3.5659      0.00000
     48       4.1129      0.00000

[...]

 soft charge-density along one line, spin component           2
         0         1         2         3         4         5         6         7         8         9
 total charge-density along one line

------------------------ aborting loop because EDIFF is reached ----------------------------------------

[...]

  FORCE on cell =-STRESS in cart. coord.  units (eV):
  Direction    XX          YY          ZZ          XY          YZ          ZX
  Alpha Z    40.58851    40.58851    40.58851
  Ewald   13140.93876 13140.93640-15410.93880    -0.00248    -0.00059    -0.00106
  Hartree 13896.91808 13896.91920-13263.74794    -0.00061     0.00006     0.00009
  E(xc)    -267.98976  -267.98978  -267.51423     0.00003     0.00000     0.00001
  Local  -27925.10288-27925.10302 27755.97736     0.00265     0.00035     0.00065
  n-local   429.64084   430.38991   429.82419     0.25780     0.63659     0.32063
  augment    -2.78194    -2.78184    -6.48075     0.00005     0.00002     0.00006
  Kinetic   691.32105   682.62595   721.95818    -4.36721    -0.35155    -0.92838
  Fock        0.00000     0.00000     0.00000     0.00000     0.00000     0.00000
  Total      -0.44101    -0.44101    -0.33348     0.00000     0.00000     0.00000
  in kB      -1.09621    -1.09621    -0.82892     0.00000     0.00000     0.00000

 VOLUME and BASIS-vectors are now :
  energy-cutoff  :      520.00
  volume of cell :      644.56
      direct lattice vectors                 reciprocal lattice vectors
     5.881156578  0.000000066 -0.000000000     0.170034583 -0.098169504  0.000000000
     2.940577955  5.093230831  0.000000000    -0.000000002  0.196339031 -0.000000000
    -0.000000000  0.000000000 21.518340651     0.000000000 -0.000000000  0.046471985

  length of vectors
     5.881156578  5.881156265 21.518340651     0.196339021  0.196339031  0.046471985

 FORCES acting on ions
    electron-ion (+dipol)            ewald-force                    non-local-force                 convergence-correction
   -.135E-03 -.719E-04 0.615E+01   0.876E-03 0.522E-03 -.628E+01   -.278E-16 0.435E-20 0.376E-01   -.165E-06 0.144E-05 0.134E-01
   0.104E-03 0.957E-04 0.528E+01   -.873E-03 -.521E-03 -.542E+01   -.974E-20 0.302E-20 0.262E-01   -.524E-06 0.134E-05 0.190E-01
   -.338E-04 -.330E-04 0.288E+03   -.226E-03 -.127E-03 -.283E+03   0.879E-17 -.283E-16 -.497E+01   0.819E-07 0.386E-07 0.110E-01
   0.339E-04 0.162E-04 -.273E+03   0.202E-03 0.114E-03 0.269E+03   0.541E-17 -.646E-17 0.411E+01   0.402E-07 0.225E-07 -.497E-02
   -.394E+02 -.109E+00 -.593E+03   0.357E+02 0.415E-01 0.597E+03   0.370E+01 0.382E-02 -.414E+01   -.548E-02 0.650E-01 -.257E-01
   0.196E+02 0.341E+02 -.593E+03   -.178E+02 -.309E+02 0.597E+03   -.184E+01 -.320E+01 -.414E+01   0.591E-01 -.278E-01 -.257E-01
   0.198E+02 -.340E+02 -.593E+03   -.179E+02 0.309E+02 0.597E+03   -.185E+01 0.320E+01 -.414E+01   -.536E-01 -.373E-01 -.257E-01
   0.249E+02 -.336E-01 0.584E+03   -.215E+02 -.316E-01 -.588E+03   -.334E+01 0.111E-01 0.408E+01   0.681E-02 0.579E-01 0.296E-01
   -.125E+02 -.215E+02 0.584E+03   0.107E+02 0.187E+02 -.588E+03   0.168E+01 0.289E+01 0.408E+01   0.467E-01 -.349E-01 0.296E-01
   -.124E+02 0.215E+02 0.584E+03   0.108E+02 -.186E+02 -.588E+03   0.166E+01 -.290E+01 0.408E+01   -.536E-01 -.231E-01 0.296E-01
   -.761E-04 -.388E-05 0.906E+00   -.711E-14 -.107E-13 -.227E-12   0.444E-15 0.000E+00 -.988E+00   -.409E-06 0.296E-05 0.502E-01

 POSITION                                       TOTAL-FORCE (eV/Angst)
      2.94058      1.69774     10.77975         0.000000     -0.000000     -0.079169
      5.88116      3.39549     10.78109         0.000000     -0.000000     -0.085497
     -0.00000      0.00000      9.53908        -0.000000     -0.000000      0.035229
     -0.00000      0.00000     11.87348        -0.000000     -0.000000      0.182520
      3.62484      0.00030     12.24568         0.025360      0.001971     -0.031433
      1.12842      1.95389     12.24568        -0.010973     -0.022948     -0.031433
      4.06848      3.13905     12.24568        -0.014387      0.020977     -0.031433
      5.06367      5.09288      9.25910        -0.029737      0.002985      0.013739
      7.75988      3.25475      9.25910         0.017454      0.024260      0.013739
      4.81991      1.83883      9.25910         0.012283     -0.027245      0.013739
    total drift:                               -0.000077     -0.000001     -0.031908

  FREE ENERGIE OF THE ION-ELECTRON SYSTEM (eV)
  free  energy   TOTEN  =       -43.08291154 eV

  energy  without entropy=      -43.08291154  energy(sigma->0) =      -43.08291154

 d Force =-0.3160440E-03[-0.335E-03,-0.297E-03]  d Energy = 0.1770119E-03-0.493E-03
 d Force = 0.2427168E+00[ 0.243E+00, 0.243E+00]  d Ewald  = 0.8003389E+01-0.776E+01

 reached required accuracy - stopping structural energy minimisation

 total charge

[...]

 magnetization (x)

# of ion       s       p       d       tot
    1       -0.002  -0.002   0.636   0.633
    2       -0.002  -0.002   0.637   0.633
    3        0.002  -0.002   0.000  -0.000
    4        0.003   0.002   0.003   0.007
    5        0.010   0.050   0.000   0.060
    6        0.010   0.068   0.000   0.078
    7        0.009   0.061   0.000   0.070
    8        0.008   0.044   0.000   0.051
    9        0.010   0.070   0.000   0.079
   10        0.008   0.055   0.000   0.062
tot          0.056   0.342   1.275   1.674

 BZINTS: Fermi energy: -2.646831; 64.000000 electrons
         Band energy:-499.481535;  BLOECHL correction:  0.000000