 vasp.5.4.4.18Apr17-6-g9f103f2a35 (build May  1 2020 15:48:39) complex
 executed on             LinuxGNU date 2020.07.02  05:24:04

 INCAR:
 POTCAR:   PAW_PBE Cr 06Sep2000
 POTCAR:   PAW_PBE Ge 05Jan2001
 POTCAR:   PAW_PBE Si 05Jan2001
 POTCAR:    PAW_PBE S 17Jan2003

 POTCAR:   PAW_PBE Cr 06Sep2000
   VRHFIN =Cr : d5 s1

   TITEL  = PAW_PBE Cr 06Sep2000
   POMASS =   51.996; ZVAL   =    6.000    mass and valenz
   ENMAX  =  227.082; ENMIN  =  170.311 eV
   QCUT   =   -4.085; QGAM   =    8.171    optimization parameters

   Description
     l     E      TYP  RCUT    TYP  RCUT
     2   .000     23  2.500
     2   .000     23  2.500
     0   .000     23  2.500
     0   .000     23  2.500
     1  -.400     23  2.500
     1  2.000     23  2.500
     3   .000      7   .000

 POTCAR:   PAW_PBE Ge 05Jan2001
   VRHFIN =Ge: s2p2

   TITEL  = PAW_PBE Ge 05Jan2001
   POMASS =   72.610; ZVAL   =    4.000    mass and valenz
   ENMAX  =  173.807; ENMIN  =  130.355 eV
   QCUT   =   -3.574; QGAM   =    7.148    optimization parameters

[...]

 POTCAR:   PAW_PBE Si 05Jan2001
   VRHFIN =Si: s2p2

[...]

 POTCAR:    PAW_PBE S 17Jan2003
   VRHFIN =S : s2p4

   TITEL  = PAW_PBE S 17Jan2003
   POMASS =   32.066; ZVAL   =    6.000    mass and valenz
   ENMAX  =  280.000; ENMIN  =  194.016 eV
   QCUT   =   -4.360; QGAM   =    8.721    optimization parameters

   Description
     l     E      TYP  RCUT    TYP  RCUT
     0   .000     23  1.900
     0   .000     23  1.900
     1   .000     23  1.900
     1   .000     23  1.900
     2   .000     23  1.900

 Optimization of the real space projectors (new method)

 maximal supplied QI-value         = 15.12
 optimisation between [QCUT,QGAM] = [ 11.64, 23.28] = [ 37.95,151.78] Ry
 Optimized for a Real-space Cutoff    1.49 Angstroem

   l    n(q)    QCUT    max X(q) W(low)/X(q) W(high)/X(q)  e(spline)
   2      9    11.641     4.777    0.25E-04    0.21E-05    0.63E-07
   2      9    11.641    31.132    0.13E-03    0.22E-03    0.64E-06
   0     10    11.641    20.416    0.11E-04    0.74E-05    0.19E-07
   0     10    11.641    45.408    0.10E-03    0.85E-04    0.30E-06
   1     10    11.641     7.848    0.22E-04    0.23E-04    0.56E-07
   1     10    11.641     9.895    0.85E-04    0.54E-04    0.16E-06
 Optimization of the real space projectors (new method)

[...]

   l    n(q)    QCUT    max X(q) W(low)/X(q) W(high)/X(q)  e(spline)
   0      8    11.508     8.708    0.18E-04    0.44E-05    0.47E-08
   0      8    11.508   106.241    0.70E-04    0.15E-03    0.51E-07
   1      8    11.508     5.901    0.63E-05    0.23E-04    0.21E-07
   1      8    11.508    73.241    0.15E-03    0.36E-04    0.79E-07
 Optimization of the real space projectors (new method)

 maximal supplied QI-value         = 19.84
 optimisation between [QCUT,QGAM] = [ 11.51, 23.22] = [ 37.09,150.92] Ry
 Optimized for a Real-space Cutoff    1.21 Angstroem

   l    n(q)    QCUT    max X(q) W(low)/X(q) W(high)/X(q)  e(spline)
   0      8    11.508     5.487    0.18E-04    0.22E-05    0.47E-08
   0      8    11.508    85.627    0.96E-04    0.18E-03    0.54E-07
   1      8    11.508     3.530    0.17E-04    0.28E-04    0.21E-07
   1      8    11.508    42.714    0.18E-03    0.63E-04    0.92E-07

 PAW_PBE Cr 06Sep2000                   :
 PAW_PBE Ge 05Jan2001                   :
 PAW_PBE Si 05Jan2001                   :
  PAW_PBE S 17Jan2003                   :

 POSCAR: Cr2 Ge Si S6
  positions in direct lattice
  velocities in cartesian coordinates
 exchange correlation table for  LEXCH =       42
   RHO(1)=    0.500       N(1)  =     2000
   RHO(2)=  100.500       N(2)  =     4000

 ion  position               nearest neighbor table
   1  0.333  0.333  0.500-   6 2.78   5 2.78   7 2.78   8 2.78  10 2.78   9 2.78
   2  0.667  0.667  0.500-   9 2.78   8 2.78  10 2.78   5 2.78   7 2.78   6 2.78
   3  0.000  0.000  0.448-   4 2.43   8 2.63  10 2.63   9 2.63
   4  0.000  0.000  0.552-   3 2.43   5 2.63   7 2.63   6 2.63
   5  0.626  0.000  0.574-   4 2.63   1 2.78   2 2.78
   6  0.000  0.373  0.574-   4 2.63   1 2.78   2 2.78
   7  0.373  0.626  0.574-   4 2.63   1 2.78   2 2.78
   8  0.374  1.000  0.426-   3 2.63   2 2.78   1 2.78
   9  1.000  0.627  0.426-   3 2.63   2 2.78   1 2.78
  10  0.627  0.374  0.426-   3 2.63   2 2.78   1 2.78

  LATTYP: Found a hexagonal cell.
 ALAT       =     6.9077769333
 C/A-ratio  =     3.3939410937

  Lattice vectors:

 A1 = (   3.4538890000,  -5.9823100000,   0.0000000000)
 A2 = (  -6.9077770000,   0.0000000000,   0.0000000000)
 A3 = (   0.0000000000,   0.0000000000, -23.4445880000)

Analysis of symmetry for initial positions (statically):
 Subroutine PRICEL returns:
 Original cell was already a primitive cell.

 Routine SETGRP: Setting up the symmetry group for a
 hexagonal supercell.

 Subroutine GETGRP returns: Found  3 space group operations
 (whereof  3 operations were pure point group operations)
 out of a pool of 24 trial point group operations.

The static configuration has the point symmetry C_3 .

Analysis of symmetry for dynamics (positions and initial velocities):
 Subroutine PRICEL returns:
 Original cell was already a primitive cell.

[...]

The dynamic configuration has the point symmetry C_3 .

Analysis of constrained symmetry for selective dynamics:
 Subroutine PRICEL returns:
 Original cell was already a primitive cell.

[...]

The constrained configuration has the point symmetry C_3 .

Analysis of structural, dynamic, and magnetic symmetry:
 Subroutine PRICEL returns:
 Original cell was already a primitive cell.

 Routine SETGRP: Setting up the symmetry group for a
 hexagonal supercell.

 Subroutine GETGRP returns: Found  3 space group operations
 (whereof  3 operations were pure point group operations)
 out of a pool of 24 trial point group operations.

The magnetic configuration has the point symmetry C_3 .

 Subroutine INISYM returns: Found  3 space group operations
 (whereof  3 operations are pure point group operations),
 and found     1 'primitive' translations

 KPOINTS: Kpoints from vasprun.xml

Automatic generation of k-mesh.
Space group operators:
 irot       det(A)        alpha          n_x          n_y          n_z        tau_x        tau_y        tau_z
    1     1.000000     0.000000     1.000000     0.000000     0.000000     0.000000     0.000000     0.000000
    2     1.000000   120.000000     0.000000     0.000000     1.000000     0.000000     0.000000     0.000000
    3     1.000000   120.000000     0.000000     0.000000    -1.000000     0.000000     0.000000     0.000000

 Subroutine IBZKPT returns following result:

 Found      5 irreducible k-points:

 Following reciprocal coordinates:
            Coordinates               Weight
  0.000000  0.000000  0.000000      1.000000
  0.200000  0.000000  0.000000      6.000000
  0.400000  0.000000  0.000000      6.000000
  0.400000  0.200000  0.000000      6.000000
 -0.400000  0.200000  0.000000      6.000000

 Following cartesian coordinates:
            Coordinates               Weight
  0.000000  0.000000  0.000000      1.000000
  0.028953 -0.016716  0.000000      6.000000
  0.057906 -0.033432  0.000000      6.000000
  0.057906  0.000000  0.000000      6.000000
 -0.057906  0.066864  0.000000      6.000000

 TETIRR: Found     15 inequivalent tetrahedra from      150

 SYSTEM =  unknown system
 POSCAR =  Cr2 Ge Si S6

 Startparameter for this run:
   NWRITE =      2    write-flag & timer
   PREC   = accura    normal or accurate (medium, high low for compatibility)
   ISTART =      0    job   : 0-new  1-cont  2-samecut
   ICHARG =      2    charge: 1-file 2-atom 10-const
   ISPIN  =      2    spin polarized calculation?
   LNONCOLLINEAR =      F non collinear calculations
   LSORBIT =      F    spin-orbit coupling
   INIWAV =      1    electr: 0-lowe 1-rand  2-diag
   LASPH  =      F    aspherical Exc in radial PAW
   METAGGA=      F    non-selfconsistent MetaGGA calc.

 Electronic Relaxation 1
   ENCUT  =  520.0 eV  38.22 Ry    6.18 a.u.  12.84 12.84 43.59*2*pi/ulx,y,z
   ENINI  =  520.0     initial cutoff
   ENAUG  =  402.1 eV  augmentation charge cutoff
   NELM   =    400;   NELMIN=  2; NELMDL=  0     # of ELM steps
   EDIFF  = 0.1E-03   stopping-criterion for ELM
   LREAL  =      T    real-space projection
   NLSPLINE    = F    spline interpolate recip. space projectors
   LCOMPAT=      F    compatible to vasp.4.4
   GGA_COMPAT  = T    GGA compatible to vasp.4.4-vasp.4.6
   LMAXPAW     = -100 max onsite density
   LMAXMIX     =    2 max onsite mixed and CHGCAR
   VOSKOWN=      0    Vosko Wilk Nusair interpolation
   ROPT   =   -0.00025  -0.00025  -0.00025  -0.00025
 Ionic relaxation
   EDIFFG = 0.1E-02   stopping-criterion for IOM
   NSW    =     99    number of steps for IOM
   NBLOCK =      1;   KBLOCK =     99    inner block; outer block
   IBRION =      2    ionic relax: 0-MD 1-quasi-New 2-CG
   NFREE  =      1    steps in history (QN), initial steepest desc. (CG)
   ISIF   =      3    stress and relaxation
   IWAVPR =     11    prediction:  0-non 1-charg 2-wave 3-comb
   ISYM   =      2    0-nonsym 1-usesym 2-fastsym
   LCORR  =      T    Harris-Foulkes like correction to forces

   POTIM  = 0.5000    time-step for ionic-motion
   TEIN   =    0.0    initial temperature
   TEBEG  =    0.0;   TEEND  =   0.0 temperature during run
   SMASS  =  -3.00    Nose mass-parameter (am)
   estimated Nose-frequenzy (Omega)   =  0.10E-29 period in steps =****** mass=  -0.109E-26a.u.
   SCALEE = 1.0000    scale energy and forces
   NPACO  =    256;   APACO  = 16.0  distance and # of slots for P.C.
   PSTRESS=    0.0 pullay stress

  Mass of Ions in am
   POMASS =  52.00 72.61 28.09 32.07
  Ionic Valenz
   ZVAL   =   6.00  4.00  4.00  6.00
  Atomic Wigner-Seitz radii
  virtual crystal weights
   VCA    =   1.00  1.00  1.00  1.00
   NELECT =      56.0000    total number of electrons
   NUPDOWN=      -1.0000    fix difference up-down

 DOS related values:
   EMIN   =  10.00;   EMAX   =-10.00  energy-range for DOS
   EFERMI =   0.00
   ISMEAR =    -5;   SIGMA  =   0.05  broadening in eV -4-tet -1-fermi 0-gaus

 Electronic relaxation 2 (details)
   IALGO  =     38    algorithm
   LDIAG  =      T    sub-space diagonalisation (order eigenvalues)
   LSUBROT=      F    optimize rotation matrix (better conditioning)
   TURBO    =      0    0=normal 1=particle mesh
   IRESTART =      0    0=no restart 2=restart with 2 vectors
   NREBOOT  =      0    no. of reboots
   NMIN     =      0    reboot dimension
   EREF     =   0.00    reference energy to select bands
   IMIX   =      4    mixing-type and parameters
     AMIX     =   0.40;   BMIX     =  1.00
     AMIX_MAG =   1.60;   BMIX_MAG =  1.00
     AMIN     =   0.01
     WC   =   100.;   INIMIX=   1;  MIXPRE=   1;  MAXMIX= -45

 Intra band minimization:
   WEIMIN = 0.0010     energy-eigenvalue tresh-hold
   EBREAK =  0.63E-06  absolut break condition
   DEPER  =   0.30     relativ break condition

   TIME   =   0.40     timestep for ELM

  volume/ion in A,a.u.               =      96.88       653.80
  Fermi-wavevector in a.u.,A,eV,Ry     =   0.632976  1.196152  5.451299  0.400659
  Thomas-Fermi vector in A             =   1.696476

 Write flags
[...]
 total charge-density along one line

[...]

------------------------ aborting loop because EDIFF is reached ----------------------------------------

 total charge

# of ion       s       p       d       tot
    1        0.248   0.249   4.026   4.523
    2        0.248   0.249   4.026   4.523
    3        1.187   0.879   0.058   2.124
    4        0.816   0.615   0.000   1.431
    5        1.376   2.196   0.000   3.572
    6        1.374   2.199   0.000   3.572
    7        1.375   2.196   0.000   3.571
    8        1.377   2.201   0.000   3.578
    9        1.374   2.202   0.000   3.576
   10        1.376   2.200   0.000   3.576
tot         10.752  15.186   8.109  34.047

 magnetization (x)

[...]

  FORCE on cell =-STRESS in cart. coord.  units (eV):
  Direction    XX          YY          ZZ          XY          YZ          ZX
  Alpha Z    19.93250    19.93250    19.93250
  Ewald    7419.63051  7419.62857 -8853.36149    -0.00107    -0.00038    -0.00069
  Hartree  7870.57228  7870.57262 -7616.00885    -0.00009     0.00004     0.00006
  E(xc)    -203.40396  -203.40399  -202.93948     0.00003     0.00000     0.00001
  Local  -16144.98624-16144.98558 15588.21600     0.00092     0.00023     0.00043
  n-local   458.48897   460.09110   468.57682     0.74545     0.38857     0.40516
  augment   -48.49526   -48.49514   -51.54501    -0.00005    -0.00000     0.00003
  Kinetic   598.95924   598.23475   631.30992    -0.83164     0.77145     0.86104
  Fock        0.00000     0.00000     0.00000     0.00000     0.00000     0.00000
  Total     -28.86358   -28.86358   -15.81960     0.00000     0.00000    -0.00000
  in kB     -47.73215   -47.73214   -26.16112     0.00000     0.00000    -0.00000

 VOLUME and BASIS-vectors are now :
  energy-cutoff  :      520.00
  volume of cell :      968.84
      direct lattice vectors                 reciprocal lattice vectors
     6.907777000 -0.000000000  0.000000000     0.144764372 -0.083579742  0.000000000
     3.453888000  5.982310000  0.000000000     0.000000000  0.167159509 -0.000000000
     0.000000000  0.000000000 23.444588000    -0.000000000  0.000000000  0.042653767

[...]

 FORCES acting on ions
    electron-ion (+dipol)            ewald-force                    non-local-force                 convergence-correction
   -.691E-04 -.422E-04 0.549E+00   0.306E-03 0.183E-03 -.640E+00   0.000E+00 0.000E+00 0.453E-01   0.195E-05 0.112E-05 0.339E-02
   0.705E-04 0.502E-04 -.762E+00   -.306E-03 -.183E-03 0.640E+00   -.173E-17 0.000E+00 0.584E-01   -.195E-05 -.112E-05 0.343E-02
   -.203E-04 -.188E-04 0.161E+03   -.141E-03 -.779E-04 -.158E+03   -.867E-17 -.347E-17 -.316E+01   -.459E-06 -.238E-06 0.393E-02
   0.280E-04 0.174E-04 -.164E+03   0.141E-03 0.779E-04 0.158E+03   0.000E+00 0.000E+00 0.631E+01   0.464E-06 0.237E-06 0.445E-03
   -.762E+01 0.160E+00 -.338E+03   0.444E+01 -.152E+00 0.342E+03   0.461E+01 -.144E-01 -.573E+01   -.258E-02 0.325E-03 0.440E-02
   0.395E+01 0.652E+01 -.338E+03   -.235E+01 -.377E+01 0.342E+03   -.232E+01 -.398E+01 -.573E+01   0.157E-02 0.207E-02 0.440E-02
   0.367E+01 -.668E+01 -.338E+03   -.209E+01 0.392E+01 0.342E+03   -.229E+01 0.400E+01 -.573E+01   0.101E-02 -.239E-02 0.440E-02
   0.751E+01 -.161E+00 0.338E+03   -.444E+01 0.152E+00 -.342E+03   -.400E+01 0.139E-01 0.571E+01   0.280E-02 0.296E-03 0.216E-02
   -.389E+01 -.642E+01 0.338E+03   0.235E+01 0.377E+01 -.342E+03   0.201E+01 0.346E+01 0.571E+01   -.114E-02 -.257E-02 0.216E-02
   -.361E+01 0.659E+01 0.338E+03   0.209E+01 -.392E+01 -.342E+03   0.199E+01 -.347E+01 0.571E+01   -.166E-02 0.227E-02 0.216E-02
   0.150E-04 0.823E-05 -.322E+01   0.155E-13 0.799E-14 -.171E-12   0.888E-15 -.888E-15 0.319E+01   0.126E-07 0.124E-07 0.309E-01

 POSITION                                       TOTAL-FORCE (eV/Angst)
      3.45388      1.99410     11.72054        -0.000000     -0.000000     -0.042211
      6.90778      3.98821     11.72405        -0.000000      0.000000     -0.060120
      0.00000      0.00000     10.50824        -0.000000      0.000000     -0.370502
      0.00000      0.00000     12.93635        -0.000000      0.000000      0.662184
      4.32819      0.00251     13.45138         1.421275     -0.005281     -1.670921
      1.29198      2.23274     13.45138        -0.715211     -1.228220     -1.670921
      4.74152      3.74706     13.45138        -0.706064      1.233501     -1.670921
      6.03348      5.97980      9.99321        -0.925786      0.004479      1.607804
      9.06969      3.74957      9.99321         0.466772      0.799515      1.607804
      5.62015      2.23525      9.99321         0.459015     -0.803994      1.607804
    total drift:                                0.000015      0.000008      0.000733

  FREE ENERGIE OF THE ION-ELECTRON SYSTEM (eV)
  free  energy   TOTEN  =       -48.47456246 eV

  energy  without entropy=      -48.47456246  energy(sigma->0) =      -48.47456246

[...]

 d Force = 0.5081566E+00[-0.805E-01, 0.110E+01]  d Energy = 0.6416041E+01-0.591E+01
 d Force =-0.1712895E+03[-0.198E+03,-0.144E+03]  d Ewald  =-0.1916912E+04 0.175E+04

 Steepest descent step on ions:
 trial-energy change:   -6.416041  1 .order   -4.685129  -10.461332    1.091074
  (g-gl).g = 0.105E+02      g.g   = 0.105E+02  gl.gl    = 0.000E+00
 g(Force)  = 0.122E+01   g(Stress)= 0.925E+01 ortho     = 0.000E+00
 gamma     =   0.00000
 trial     =   1.00000
 opt step  =   0.94904  (harmonic =   0.90555) maximal distance =0.07361171
 next E    =   -54.918177   (d E  =  -6.44361)

[...]

 d Force = 0.7717619E-03[-0.286E-02, 0.440E-02]  d Energy = 0.3120209E-01-0.304E-01
 d Force = 0.1089965E+02[ 0.108E+02, 0.110E+02]  d Ewald  = 0.1200233E+03-0.109E+03

[...]

 d Force = 0.7827313E-01[ 0.497E-01, 0.107E+00]  d Energy = 0.7844142E-01-0.168E-03
 d Force = 0.5842634E+01[ 0.561E+01, 0.608E+01]  d Ewald  =-0.3593481E+02 0.418E+02

 Conjugate gradient step on ions:
 trial-energy change:   -0.078441  1 .order   -0.078251   -0.107800   -0.048703
  (g-gl).g = 0.104E+00      g.g   = 0.109E+00  gl.gl    = 0.105E+02
 g(Force)  = 0.108E+00   g(Stress)= 0.133E-02 ortho     = 0.462E-02
 gamma     =   0.00996
 trial     =   0.98981
 opt step  =   1.80554  (harmonic =   1.80554) maximal distance =0.05979355
 next E    =   -55.020126   (d E  =  -0.09832)

[...]

 d Force = 0.2007687E-01[-0.800E-03, 0.410E-01]  d Energy = 0.1855318E-01 0.152E-02
 d Force = 0.4449316E+01[ 0.428E+01, 0.462E+01]  d Ewald  =-0.3009234E+02 0.345E+02

[...]

 d Force = 0.7927165E-02[-0.431E-02, 0.202E-01]  d Energy = 0.9129852E-02-0.120E-02
 d Force = 0.1025068E+01[ 0.105E+01, 0.100E+01]  d Ewald  = 0.1210867E+03-0.120E+03

 Conjugate gradient step on ions:
 trial-energy change:   -0.009130  1 .order   -0.008982   -0.031631    0.013668
  (g-gl).g = 0.296E-01      g.g   = 0.286E-01  gl.gl    = 0.109E+00
 g(Force)  = 0.178E-01   g(Stress)= 0.108E-01 ortho     =-0.417E-02
 gamma     =   0.27225
 trial     =   1.15295
 opt step  =   0.80507  (harmonic =   0.80507) maximal distance =0.01079832
 next E    =   -55.029843   (d E  =  -0.01104)

[...]

 d Force = 0.2562004E-03[-0.783E-03, 0.130E-02]  d Energy = 0.2226374E-02-0.197E-02
 d Force =-0.3164197E+00[-0.314E+00,-0.319E+00]  d Ewald  =-0.3632198E+02 0.360E+02

[...]

 eigenvalue-minimisations  :   992
 total energy-change (2. order) :-0.2298376E-02  (-0.1173083E-01)
 number of electron      55.9999996 magnetization       5.9999784
 augmentation part       -0.6415817 magnetization       4.0743313

[...]

 eigenvalues of (default mixing * dielectric matrix)
  average eigenvalue GAMMA=   1.0190
  1.6994  0.8936  0.4640

[...]

 d Force = 0.1232007E-02[ 0.371E-03, 0.209E-02]  d Energy = 0.1610883E-02-0.379E-03
 d Force =-0.5027595E+01[-0.503E+01,-0.503E+01]  d Ewald  =-0.1808591E+02 0.131E+02

 Conjugate gradient step on ions:
 trial-energy change:   -0.001611  1 .order   -0.001595   -0.002760   -0.000431
  (g-gl).g = 0.162E-02      g.g   = 0.255E-02  gl.gl    = 0.286E-01
 g(Force)  = 0.181E-02   g(Stress)= 0.740E-03 ortho     = 0.267E-04
 gamma     =   0.05670
 trial     =   1.08338
 opt step  =   1.28383  (harmonic =   1.28383) maximal distance =0.00496201
 next E    =   -55.031791   (d E  =  -0.00164)

[...]

 Broyden mixing:
  rms(total) = 0.40840E-02    rms(broyden)= 0.40838E-02
  rms(prec ) = 0.44053E-02
  weight for this iteration     100.00

[...]

--------------------------------------- Iteration      9(   2)  ---------------------------------------

[...]

 eigenvalue-minimisations  :   752
 total energy-change (2. order) : 0.1093431E-05  (-0.2676677E-04)
 number of electron      55.9999996 magnetization       5.9999893
 augmentation part       -0.6361077 magnetization       4.0760646

 Free energy of the ion-electron system (eV)
  alpha Z        PSCENC =        28.49207317
  Ewald energy   TEWEN  =      7785.48833955
  -Hartree energ DENC   =     -9961.23112087
  -exchange      EXHF   =         0.00000000
  -V(xc)+E(xc)   XCENC  =        19.81362369
  PAW double counting   =      1239.24125814    -1144.63359367
  entropy T*S    EENTRO =         0.00000000
  eigenvalues    EBANDS =      -454.79132041
  atomic energy  EATOM  =      2432.58897501
  Solvation  Ediel_sol  =         0.00000000
  free energy    TOTEN  =       -55.03176538 eV

  energy without entropy =      -55.03176538  energy(sigma->0) =      -55.03176538

 average (electrostatic) potential at core
  the test charge radii are     1.1394  1.1631  0.9892  0.9698
  (the norm of the test charge is              1.0000)
       1 -51.5103       2 -51.5084       3 -39.7142       4 -92.8279       5 -94.0990
       6 -94.0990       7 -94.0990       8 -94.1876       9 -94.1876      10 -94.1876

 E-fermi :  -3.1198     XC(G=0):  -3.5799     alpha+bet : -3.0306

[...]

 spin component 2

[...]

 k-point     5 :      -0.4000    0.2000    0.0000
  band No.  band energies     occupation
      1     -16.5723      1.00000
      2     -16.0089      1.00000
      3     -15.8435      1.00000
      4     -15.6522      1.00000
      5     -15.4699      1.00000
      6     -15.3261      1.00000
      7     -11.1322      1.00000
      8      -9.5585      1.00000
      9      -7.8752      1.00000
     10      -7.4522      1.00000
     11      -7.3686      1.00000
     12      -6.8787      1.00000
     13      -6.8349      1.00000
     14      -6.3110      1.00000
     15      -5.9408      1.00000
     16      -5.7919      1.00000
     17      -5.7060      1.00000
     18      -5.4972      1.00000
     19      -5.4806      1.00000
     20      -5.2283      1.00000
     21      -5.0623      1.00000
     22      -4.5865      1.00000
     23      -4.4320      1.00000
     24      -4.2874      1.00000
     25      -3.6598      1.00000
     26      -2.3199      0.00000
     27      -1.5944      0.00000
     28      -1.5819      0.00000
     29      -0.8959      0.00000
     30      -0.8785      0.00000
     31      -0.7240      0.00000
     32      -0.6555      0.00000
     33      -0.3921      0.00000
     34      -0.3168      0.00000
     35       0.0304      0.00000
     36       0.0426      0.00000
     37       1.0621      0.00000
     38       1.2073      0.00000
     39       1.3643      0.00000
     40       2.2558      0.00000

[...]

 soft charge-density along one line, spin component           2
         0         1         2         3         4         5         6         7         8         9
 total charge-density along one line

------------------------ aborting loop because EDIFF is reached ----------------------------------------

[...]

  FORCE on cell =-STRESS in cart. coord.  units (eV):
  Direction    XX          YY          ZZ          XY          YZ          ZX
  Alpha Z    28.49207    28.49207    28.49207
  Ewald    9437.98891  9437.98648-11090.48893    -0.00116    -0.00043    -0.00078
  Hartree  9778.52747  9778.52778 -9595.55100    -0.00007     0.00003     0.00005
  E(xc)    -211.28814  -211.28814  -210.86257     0.00001     0.00000     0.00001
  Local  -20094.38065-20094.37990 19775.50556     0.00081     0.00021     0.00039
  n-local   476.84705   478.58156   479.76173     0.79805     0.56871     0.49921
  augment   -48.17955   -48.17950   -51.39989     0.00001     0.00007    -0.00001
  Kinetic   633.64786   628.79232   664.72108    -3.42822     1.06726     1.00103
  Fock        0.00000     0.00000     0.00000     0.00000     0.00000     0.00000
  Total       0.09385     0.09385     0.17805     0.00000     0.00000     0.00000
  in kB       0.22185     0.22185     0.42089     0.00000     0.00000     0.00000

 VOLUME and BASIS-vectors are now :
  energy-cutoff  :      520.00
  volume of cell :      677.78
      direct lattice vectors                 reciprocal lattice vectors
     5.996034821  0.000000049 -0.000000000     0.166776884 -0.096288672  0.000000000
     2.998017067  5.192718281  0.000000000    -0.000000002  0.192577365 -0.000000000
    -0.000000000  0.000000000 21.768502475     0.000000000 -0.000000000  0.045937933

  length of vectors
     5.996034821  5.996034479 21.768502475     0.192577354  0.192577365  0.045937933

 FORCES acting on ions
    electron-ion (+dipol)            ewald-force                    non-local-force                 convergence-correction
   -.148E-03 -.754E-04 -.740E+01   0.408E-03 0.240E-03 0.704E+01   -.557E-19 0.710E-17 0.355E+00   0.827E-07 0.569E-07 -.367E-01
   0.137E-03 0.947E-04 -.837E+01   -.391E-03 -.230E-03 0.800E+01   -.525E-19 0.156E-18 0.335E+00   0.508E-07 0.301E-07 -.365E-01
   -.263E-04 -.220E-04 0.223E+03   -.198E-03 -.111E-03 -.217E+03   0.780E-17 -.164E-16 -.550E+01   -.113E-07 -.305E-09 -.257E-01
   0.338E-04 0.174E-04 -.219E+03   0.214E-03 0.119E-03 0.211E+03   -.809E-17 0.104E-16 0.734E+01   0.299E-07 0.409E-07 -.152E-01
   0.547E+01 -.251E-01 -.454E+03   -.863E+01 0.364E-01 0.457E+03   0.314E+01 -.694E-02 -.333E+01   0.772E-02 -.559E-02 -.968E-02
   -.276E+01 -.473E+01 -.454E+03   0.435E+01 0.746E+01 0.457E+03   -.158E+01 -.272E+01 -.333E+01   -.870E-02 -.389E-02 -.968E-02
   -.272E+01 0.475E+01 -.454E+03   0.428E+01 -.749E+01 0.457E+03   -.157E+01 0.273E+01 -.333E+01   0.981E-03 0.948E-02 -.968E-02
   0.890E+01 0.183E-01 0.457E+03   -.485E+01 -.185E-01 -.460E+03   -.403E+01 0.863E-02 0.358E+01   -.733E-02 -.605E-02 -.466E-01
   -.443E+01 -.771E+01 0.457E+03   0.241E+01 0.421E+01 -.460E+03   0.202E+01 0.349E+01 0.358E+01   -.157E-02 0.937E-02 -.466E-01
   -.446E+01 0.770E+01 0.457E+03   0.244E+01 -.419E+01 -.460E+03   0.201E+01 -.349E+01 0.358E+01   0.890E-02 -.332E-02 -.466E-01
   0.375E-04 0.565E-04 -.305E+01   0.124E-13 -.355E-14 -.568E-13   -.444E-15 0.000E+00 0.328E+01   0.145E-06 0.115E-06 -.283E+00

 POSITION                                       TOTAL-FORCE (eV/Angst)
      2.99801      1.73090     10.88262         0.000000     -0.000000     -0.042992
      5.99604      3.46181     10.88588         0.000000     -0.000000     -0.059086
     -0.00000      0.00000      9.75699         0.000000     -0.000000     -0.082720
     -0.00000      0.00000     12.03371        -0.000000     -0.000000      0.057172
      3.87891      0.00076     12.42358        -0.002096     -0.000365      0.032101
      1.05923      1.83311     12.42358         0.000732      0.001998      0.032101
      4.05592      3.35885     12.42358         0.001364     -0.001633      0.032101
      5.25499      5.19194      9.34580         0.003720      0.001477      0.010441
      7.86489      3.23851      9.34580        -0.000581     -0.003961      0.010441
      4.86822      1.95498      9.34580        -0.003140      0.002483      0.010441
    total drift:                                0.000038      0.000057     -0.056834

  FREE ENERGIE OF THE ION-ELECTRON SYSTEM (eV)
  free  energy   TOTEN  =       -55.03176538 eV

  energy  without entropy=      -55.03176538  energy(sigma->0) =      -55.03176538

 d Force = 0.2085966E-04[-0.269E-04, 0.687E-04]  d Energy =-0.1610676E-05 0.225E-04
 d Force =-0.9304645E+00[-0.930E+00,-0.931E+00]  d Ewald  =-0.3351359E+01 0.242E+01

 reached required accuracy - stopping structural energy minimisation

 total charge

[...]

 magnetization (x)

# of ion       s       p       d       tot
    1        0.033   0.039   2.887   2.958
    2        0.033   0.039   2.887   2.958
    3        0.001   0.046  -0.002   0.045
    4        0.003   0.029   0.000   0.033
    5       -0.000  -0.046   0.000  -0.046
    6       -0.001  -0.037   0.000  -0.039
    7       -0.000  -0.043   0.000  -0.043
    8       -0.001  -0.072   0.000  -0.073
    9       -0.002  -0.057   0.000  -0.059
   10       -0.001  -0.067   0.000  -0.069
tot          0.064  -0.170   5.772   5.666

 BZINTS: Fermi energy: -3.119756; 56.000000 electrons
         Band energy:-454.791320;  BLOECHL correction:  0.000000