 vasp.5.4.4.18Apr17-6-g9f103f2a35 (build May  1 2020 15:48:39) complex
 executed on             LinuxGNU date 2020.07.06  20:08:18

 INCAR:
 POTCAR:   PAW_PBE Fe 06Sep2000
 POTCAR:   PAW_PBE Si 05Jan2001
 POTCAR:   PAW_PBE Se 06Sep2000

 POTCAR:   PAW_PBE Fe 06Sep2000
   VRHFIN =Fe:  d7 s1

   TITEL  = PAW_PBE Fe 06Sep2000
   POMASS =   55.847; ZVAL   =    8.000    mass and valenz
   ENMAX  =  267.883; ENMIN  =  200.912 eV
   QCUT   =   -4.437; QGAM   =    8.874    optimization parameters

   Description
     l     E      TYP  RCUT    TYP  RCUT
     2   .000     23  2.300
     2   .000     23  2.300
     0   .000     23  2.300
     0   .000     23  2.300
     1  -.200     23  2.300
     1   .000     23  2.300
     3   .000      7   .000

 POTCAR:   PAW_PBE Si 05Jan2001
   VRHFIN =Si: s2p2

   TITEL  = PAW_PBE Si 05Jan2001
   POMASS =   28.085; ZVAL   =    4.000    mass and valenz
   ENMAX  =  245.345; ENMIN  =  184.009 eV
   QCUT   =   -4.246; QGAM   =    8.493    optimization parameters

[...]

 POTCAR:   PAW_PBE Se 06Sep2000
   VRHFIN =Se: s2p4

   TITEL  = PAW_PBE Se 06Sep2000
   POMASS =   78.960; ZVAL   =    6.000    mass and valenz
   ENMAX  =  211.534; ENMIN  =  158.651 eV
   QCUT   =   -3.943; QGAM   =    7.886    optimization parameters

   Description
     l     E      TYP  RCUT    TYP  RCUT
     0   .000     23  2.100
     0   .000     23  2.100
     1   .000     23  2.100
     1   .000     23  2.100
     2   .000     23  2.100
     3  -.100      7  2.100

 Optimization of the real space projectors (new method)

 maximal supplied QI-value         = 16.25
 optimisation between [QCUT,QGAM] = [ 11.54, 23.24] = [ 37.28,151.24] Ry
 Optimized for a Real-space Cutoff    1.53 Angstroem

   l    n(q)    QCUT    max X(q) W(low)/X(q) W(high)/X(q)  e(spline)
   2     10    11.539     4.378    0.86E-05    0.15E-04    0.46E-07
   2     10    11.539    23.237    0.11E-03    0.14E-03    0.22E-06
   0     11    11.539    17.641    0.19E-04    0.14E-05    0.18E-07
   0     11    11.539    50.908    0.43E-04    0.16E-04    0.30E-06
   1     10    11.539     6.148    0.11E-04    0.38E-05    0.26E-07
   1     10    11.539     8.345    0.44E-04    0.25E-04    0.11E-06
 Optimization of the real space projectors (new method)

[...]

   l    n(q)    QCUT    max X(q) W(low)/X(q) W(high)/X(q)  e(spline)
   0      8    11.508     8.708    0.18E-04    0.44E-05    0.47E-08
   0      8    11.508   106.241    0.70E-04    0.15E-03    0.51E-07
   1      8    11.508     5.901    0.63E-05    0.23E-04    0.21E-07
   1      8    11.508    73.241    0.15E-03    0.36E-04    0.79E-07
 Optimization of the real space projectors (new method)

 maximal supplied QI-value         = 17.95
 optimisation between [QCUT,QGAM] = [ 11.67, 23.34] = [ 38.13,152.52] Ry
 Optimized for a Real-space Cutoff    1.25 Angstroem

   l    n(q)    QCUT    max X(q) W(low)/X(q) W(high)/X(q)  e(spline)
   0      9    11.669     6.499    0.13E-04    0.81E-05    0.11E-07
   0      9    11.669    52.623    0.18E-03    0.46E-04    0.72E-07
   1      8    11.669     4.229    0.40E-04    0.45E-04    0.31E-07
   1      8    11.669    29.991    0.22E-03    0.36E-03    0.10E-06
   2      8    11.669     3.719    0.19E-03    0.46E-04    0.50E-07

 PAW_PBE Fe 06Sep2000                   :
 PAW_PBE Si 05Jan2001                   :
 PAW_PBE Se 06Sep2000                   :

 POSCAR: Fe2 Si2 Se6
  positions in direct lattice
  velocities in cartesian coordinates
 exchange correlation table for  LEXCH =       42
   RHO(1)=    0.500       N(1)  =     2000
   RHO(2)=  100.500       N(2)  =     4000

 ion  position               nearest neighbor table
   1  0.333  0.333  0.500-   6 2.78   5 2.78   7 2.78   8 2.78  10 2.78   9 2.78
   2  0.667  0.667  0.500-   9 2.78   8 2.78  10 2.78   5 2.78   7 2.78   6 2.78
   3  0.000  0.000  0.448-   4 2.43   8 2.63  10 2.63   9 2.63
   4  0.000  0.000  0.552-   3 2.43   5 2.63   7 2.63   6 2.63
   5  0.626  0.000  0.574-   4 2.63   1 2.78   2 2.78
   6  0.000  0.373  0.574-   4 2.63   1 2.78   2 2.78
   7  0.373  0.626  0.574-   4 2.63   1 2.78   2 2.78
   8  0.374  1.000  0.426-   3 2.63   2 2.78   1 2.78
   9  1.000  0.627  0.426-   3 2.63   2 2.78   1 2.78
  10  0.627  0.374  0.426-   3 2.63   2 2.78   1 2.78

  LATTYP: Found a hexagonal cell.
 ALAT       =     6.9077769333
 C/A-ratio  =     3.3939410937

  Lattice vectors:

 A1 = (   3.4538890000,  -5.9823100000,   0.0000000000)
 A2 = (  -6.9077770000,   0.0000000000,   0.0000000000)
 A3 = (   0.0000000000,   0.0000000000, -23.4445880000)

Analysis of symmetry for initial positions (statically):
 Subroutine PRICEL returns:
 Original cell was already a primitive cell.

 Routine SETGRP: Setting up the symmetry group for a
 hexagonal supercell.

 Subroutine GETGRP returns: Found  6 space group operations
 (whereof  6 operations were pure point group operations)
 out of a pool of 24 trial point group operations.

The static configuration has the point symmetry S_6 .

Analysis of symmetry for dynamics (positions and initial velocities):
 Subroutine PRICEL returns:
 Original cell was already a primitive cell.

[...]

The dynamic configuration has the point symmetry S_6 .

Analysis of constrained symmetry for selective dynamics:
 Subroutine PRICEL returns:
 Original cell was already a primitive cell.

[...]

The constrained configuration has the point symmetry S_6 .

Analysis of structural, dynamic, and magnetic symmetry:
 Subroutine PRICEL returns:
 Original cell was already a primitive cell.

 Routine SETGRP: Setting up the symmetry group for a
 hexagonal supercell.

 Subroutine GETGRP returns: Found  6 space group operations
 (whereof  6 operations were pure point group operations)
 out of a pool of 24 trial point group operations.

The magnetic configuration has the point symmetry S_6 .

 Subroutine INISYM returns: Found  6 space group operations
 (whereof  6 operations are pure point group operations),
 and found     1 'primitive' translations

 KPOINTS: Kpoints from vasprun.xml

Automatic generation of k-mesh.
Space group operators:
 irot       det(A)        alpha          n_x          n_y          n_z        tau_x        tau_y        tau_z
    1     1.000000     0.000000     1.000000     0.000000     0.000000     0.000000     0.000000     0.000000
    2    -1.000000     0.000000     1.000000     0.000000     0.000000     0.000000     0.000000     0.000000
    3     1.000000   120.000000     0.000000     0.000000     1.000000     0.000000     0.000000     0.000000
    4    -1.000000   120.000000     0.000000     0.000000     1.000000     0.000000     0.000000     0.000000
    5     1.000000   120.000000     0.000000     0.000000    -1.000000     0.000000     0.000000     0.000000
    6    -1.000000   120.000000     0.000000     0.000000    -1.000000     0.000000     0.000000     0.000000

 Subroutine IBZKPT returns following result:

 Found      5 irreducible k-points:

 Following reciprocal coordinates:
            Coordinates               Weight
  0.000000  0.000000  0.000000      1.000000
  0.200000  0.000000  0.000000      6.000000
  0.400000  0.000000  0.000000      6.000000
  0.400000  0.200000  0.000000      6.000000
 -0.400000  0.200000  0.000000      6.000000

 Following cartesian coordinates:
            Coordinates               Weight
  0.000000  0.000000  0.000000      1.000000
  0.028953 -0.016716  0.000000      6.000000
  0.057906 -0.033432  0.000000      6.000000
  0.057906  0.000000  0.000000      6.000000
 -0.057906  0.066864  0.000000      6.000000

 TETIRR: Found     15 inequivalent tetrahedra from      150

 SYSTEM =  unknown system
 POSCAR =  Fe2 Si2 Se6

 Startparameter for this run:
   NWRITE =      2    write-flag & timer
   PREC   = accura    normal or accurate (medium, high low for compatibility)
   ISTART =      0    job   : 0-new  1-cont  2-samecut
   ICHARG =      2    charge: 1-file 2-atom 10-const
   ISPIN  =      2    spin polarized calculation?
   LNONCOLLINEAR =      F non collinear calculations
   LSORBIT =      F    spin-orbit coupling
   INIWAV =      1    electr: 0-lowe 1-rand  2-diag
   LASPH  =      F    aspherical Exc in radial PAW
   METAGGA=      F    non-selfconsistent MetaGGA calc.

 Electronic Relaxation 1
   ENCUT  =  520.0 eV  38.22 Ry    6.18 a.u.  12.84 12.84 43.59*2*pi/ulx,y,z
   ENINI  =  520.0     initial cutoff
   ENAUG  =  511.4 eV  augmentation charge cutoff
   NELM   =    400;   NELMIN=  2; NELMDL=  0     # of ELM steps
   EDIFF  = 0.1E-03   stopping-criterion for ELM
   LREAL  =      T    real-space projection
   NLSPLINE    = F    spline interpolate recip. space projectors
   LCOMPAT=      F    compatible to vasp.4.4
   GGA_COMPAT  = T    GGA compatible to vasp.4.4-vasp.4.6
   LMAXPAW     = -100 max onsite density
   LMAXMIX     =    2 max onsite mixed and CHGCAR
   VOSKOWN=      0    Vosko Wilk Nusair interpolation
   ROPT   =   -0.00025  -0.00025  -0.00025
 Ionic relaxation
   EDIFFG = 0.1E-02   stopping-criterion for IOM
   NSW    =     99    number of steps for IOM
   NBLOCK =      1;   KBLOCK =     99    inner block; outer block
   IBRION =      2    ionic relax: 0-MD 1-quasi-New 2-CG
   NFREE  =      1    steps in history (QN), initial steepest desc. (CG)
   ISIF   =      3    stress and relaxation
   IWAVPR =     11    prediction:  0-non 1-charg 2-wave 3-comb
   ISYM   =      2    0-nonsym 1-usesym 2-fastsym
   LCORR  =      T    Harris-Foulkes like correction to forces

   POTIM  = 0.5000    time-step for ionic-motion
   TEIN   =    0.0    initial temperature
   TEBEG  =    0.0;   TEEND  =   0.0 temperature during run
   SMASS  =  -3.00    Nose mass-parameter (am)
   estimated Nose-frequenzy (Omega)   =  0.10E-29 period in steps =****** mass=  -0.109E-26a.u.
   SCALEE = 1.0000    scale energy and forces
   NPACO  =    256;   APACO  = 16.0  distance and # of slots for P.C.
   PSTRESS=    0.0 pullay stress

  Mass of Ions in am
   POMASS =  55.85 28.09 78.96
  Ionic Valenz
   ZVAL   =   8.00  4.00  6.00
  Atomic Wigner-Seitz radii
  virtual crystal weights
   VCA    =   1.00  1.00  1.00
   NELECT =      60.0000    total number of electrons
   NUPDOWN=      -1.0000    fix difference up-down

 DOS related values:
   EMIN   =  10.00;   EMAX   =-10.00  energy-range for DOS
   EFERMI =   0.00
   ISMEAR =    -5;   SIGMA  =   0.05  broadening in eV -4-tet -1-fermi 0-gaus

 Electronic relaxation 2 (details)
   IALGO  =     38    algorithm
   LDIAG  =      T    sub-space diagonalisation (order eigenvalues)
   LSUBROT=      F    optimize rotation matrix (better conditioning)
   TURBO    =      0    0=normal 1=particle mesh
   IRESTART =      0    0=no restart 2=restart with 2 vectors
   NREBOOT  =      0    no. of reboots
   NMIN     =      0    reboot dimension
   EREF     =   0.00    reference energy to select bands
   IMIX   =      4    mixing-type and parameters
     AMIX     =   0.40;   BMIX     =  1.00
     AMIX_MAG =   1.60;   BMIX_MAG =  1.00
     AMIN     =   0.01
     WC   =   100.;   INIMIX=   1;  MIXPRE=   1;  MAXMIX= -45

 Intra band minimization:
   WEIMIN = 0.0010     energy-eigenvalue tresh-hold
   EBREAK =  0.52E-06  absolut break condition
   DEPER  =   0.30     relativ break condition

[...]
  Local  -18613.30878-18613.30842 18429.94585     0.00149     0.00023     0.00044
  n-local   265.45302   266.10835   275.11248     0.48146     0.59742     0.55797
  augment    43.34237    43.34251    40.27771    -0.00004    -0.00005     0.00008
  Kinetic   588.08803   582.74111   624.85148    -2.96494    -1.82301    -1.83561
  Fock        0.00000     0.00000     0.00000     0.00000     0.00000     0.00000
  Total     -22.05810   -22.05810   -10.46332     0.00000     0.00000     0.00000
  in kB     -36.47782   -36.47782   -17.30336     0.00000     0.00000     0.00000

 VOLUME and BASIS-vectors are now :
  energy-cutoff  :      520.00
  volume of cell :      968.84
      direct lattice vectors                 reciprocal lattice vectors
     6.907777000 -0.000000000  0.000000000     0.144764372 -0.083579742  0.000000000
     3.453888000  5.982310000  0.000000000     0.000000000  0.167159509 -0.000000000
     0.000000000  0.000000000 23.444588000    -0.000000000  0.000000000  0.042653767

[...]

 FORCES acting on ions
    electron-ion (+dipol)            ewald-force                    non-local-force                 convergence-correction
   0.172E-03 0.982E-04 0.912E+00   0.461E-03 0.278E-03 -.899E+00   0.347E-17 0.000E+00 -.106E-01   -.949E-06 -.560E-06 0.478E-03
   -.172E-03 -.982E-04 -.912E+00   -.461E-03 -.278E-03 0.899E+00   0.694E-17 0.000E+00 0.106E-01   0.949E-06 0.560E-06 -.478E-03
   -.199E-04 -.378E-04 0.177E+03   -.141E-03 -.779E-04 -.172E+03   0.173E-16 -.139E-16 -.470E+01   0.255E-06 0.954E-07 0.272E-01
   0.199E-04 0.378E-04 -.177E+03   0.141E-03 0.779E-04 0.172E+03   0.139E-16 0.139E-16 0.470E+01   -.255E-06 -.954E-07 -.272E-01
   -.151E+02 0.154E+00 -.382E+03   0.139E+02 -.154E+00 0.384E+03   0.236E+01 -.778E-02 -.244E+01   -.762E-02 0.437E-03 -.711E-01
   0.769E+01 0.130E+02 -.382E+03   -.706E+01 -.119E+02 0.384E+03   -.118E+01 -.204E+01 -.244E+01   0.419E-02 0.639E-02 -.711E-01
   0.742E+01 -.132E+02 -.382E+03   -.679E+01 0.121E+02 0.384E+03   -.117E+01 0.204E+01 -.244E+01   0.343E-02 -.682E-02 -.711E-01
   0.151E+02 -.154E+00 0.382E+03   -.139E+02 0.154E+00 -.384E+03   -.236E+01 0.778E-02 0.244E+01   0.762E-02 -.437E-03 0.711E-01
   -.769E+01 -.130E+02 0.382E+03   0.706E+01 0.119E+02 -.384E+03   0.118E+01 0.204E+01 0.244E+01   -.419E-02 -.639E-02 0.711E-01
   -.742E+01 0.132E+02 0.382E+03   0.679E+01 -.121E+02 -.384E+03   0.117E+01 -.204E+01 0.244E+01   -.343E-02 0.682E-02 0.711E-01
   0.289E-10 -.150E-10 0.130E-09   0.888E-15 0.178E-14 -.171E-12   0.000E+00 0.000E+00 0.000E+00   0.222E-13 -.239E-13 -.587E-14

 POSITION                                       TOTAL-FORCE (eV/Angst)
      3.45388      1.99410     11.72054        -0.000000      0.000000      0.002079
      6.90778      3.98821     11.72405        -0.000000      0.000000     -0.002079
      0.00000      0.00000     10.50824        -0.000000      0.000000      0.243868
      0.00000      0.00000     12.93635        -0.000000      0.000000     -0.243868
      4.32819      0.00251     13.45138         1.086048     -0.006681     -0.917464
      1.29198      2.23274     13.45138        -0.548810     -0.937205     -0.917464
      4.74152      3.74706     13.45138        -0.537238      0.943886     -0.917464
      6.03348      5.97980      9.99321        -1.086048      0.006681      0.917464
      9.06969      3.74957      9.99321         0.548810      0.937205      0.917464
      5.62015      2.23525      9.99321         0.537238     -0.943886      0.917464
    total drift:                                0.000000     -0.000000      0.000000

  FREE ENERGIE OF THE ION-ELECTRON SYSTEM (eV)
  free  energy   TOTEN  =       -41.42337358 eV

  energy  without entropy=      -41.42337358  energy(sigma->0) =      -41.42337358

[...]

 d Force = 0.2799862E+00[ 0.181E-01, 0.542E+00]  d Energy = 0.3628339E+01-0.335E+01
 d Force =-0.1104947E+03[-0.124E+03,-0.968E+02]  d Ewald  =-0.1680056E+04 0.157E+04

 Steepest descent step on ions:
 trial-energy change:   -3.628339  1 .order   -3.306272   -5.813565   -0.798978
  (g-gl).g = 0.581E+01      g.g   = 0.581E+01  gl.gl    = 0.000E+00
 g(Force)  = 0.591E+00   g(Stress)= 0.522E+01 ortho     = 0.000E+00
 gamma     =   0.00000
 trial     =   1.00000
 opt step  =   1.11155  (harmonic =   1.15933) maximal distance =0.05823834
 next E    =   -45.096723   (d E  =  -3.67335)

[...]

 Broyden mixing:
  rms(total) = 0.29611E-02    rms(broyden)= 0.25671E-02
  rms(prec ) = 0.29566E-02
  weight for this iteration     100.00
  WARNING: grid for Broyden might be to small

[...]

 d Force =-0.7476654E-02[-0.164E-01, 0.143E-02]  d Energy =-0.5160467E-01 0.441E-01
 d Force =-0.1470757E+02[-0.149E+02,-0.145E+02]  d Ewald  =-0.2254527E+03 0.211E+03

[...]

 d Force = 0.3618379E-02[ 0.301E-02, 0.423E-02]  d Energy = 0.8916244E-01-0.855E-01
 d Force = 0.3784786E+01[ 0.377E+01, 0.380E+01]  d Ewald  = 0.5781983E+02-0.540E+02

[...]

 d Force = 0.3176153E-02[ 0.189E-02, 0.446E-02]  d Energy =-0.1438626E-01 0.176E-01
 d Force = 0.5548571E+01[ 0.552E+01, 0.558E+01]  d Ewald  = 0.8445946E+02-0.789E+02

[...]

 Broyden mixing:
  rms(total) = 0.32293E-02    rms(broyden)= 0.28611E-02
  rms(prec ) = 0.31476E-02
  weight for this iteration     100.00
  WARNING: grid for Broyden might be to small

[...]

 d Force =-0.4837193E-03[-0.549E-03,-0.419E-03]  d Energy = 0.3621509E-02-0.411E-02
 d Force =-0.1239647E+01[-0.124E+01,-0.124E+01]  d Ewald  =-0.1889248E+02 0.177E+02

[...]

 d Force = 0.5147838E-01[-0.312E-01, 0.134E+00]  d Energy = 0.6455037E-01-0.131E-01
 d Force =-0.6738217E+02[-0.677E+02,-0.671E+02]  d Ewald  = 0.2496314E+03-0.317E+03

 Conjugate gradient step on ions:
 trial-energy change:   -0.064550  1 .order   -0.083764   -0.261581    0.094053
  (g-gl).g = 0.275E+00      g.g   = 0.260E+00  gl.gl    = 0.581E+01
 g(Force)  = 0.137E+00   g(Stress)= 0.122E+00 ortho     =-0.151E-01
 gamma     =   0.04726
 trial     =   1.01021
 opt step  =   0.66989  (harmonic =   0.74305) maximal distance =0.01664294
 next E    =   -45.159633   (d E  =  -0.08113)

[...]

 d Force = 0.7446607E-03[-0.970E-02, 0.112E-01]  d Energy = 0.1037997E-01-0.964E-02
 d Force = 0.2356784E+02[ 0.235E+02, 0.236E+02]  d Ewald  =-0.8395284E+02 0.108E+03

[...]

 d Force = 0.4486209E-01[ 0.231E-01, 0.667E-01]  d Energy = 0.5351022E-01-0.865E-02
 d Force =-0.2279523E+02[-0.226E+02,-0.230E+02]  d Ewald  = 0.1816032E+03-0.204E+03

 Conjugate gradient step on ions:
 trial-energy change:   -0.053510  1 .order   -0.054733   -0.091044   -0.018423
  (g-gl).g = 0.477E-01      g.g   = 0.921E-01  gl.gl    = 0.260E+00
 g(Force)  = 0.654E-01   g(Stress)= 0.267E-01 ortho     = 0.245E-01
 gamma     =   0.18372
 trial     =   0.94215
 opt step  =   1.21704  (harmonic =   1.18115) maximal distance =0.02892690
 next E    =   -45.209604   (d E  =  -0.05617)

[...]

 d Force = 0.4967344E-02[ 0.320E-02, 0.674E-02]  d Energy = 0.2348379E-02 0.262E-02
 d Force =-0.6598687E+01[-0.658E+01,-0.661E+01]  d Ewald  = 0.5218685E+02-0.588E+02

[...]

 d Force = 0.2156060E-02[-0.635E-02, 0.107E-01]  d Energy = 0.8462347E-02-0.631E-02
 d Force =-0.2667715E+02[-0.267E+02,-0.267E+02]  d Ewald  = 0.2071828E+02-0.474E+02

 Conjugate gradient step on ions:
 trial-energy change:   -0.008462  1 .order   -0.008295   -0.026495    0.009905
  (g-gl).g = 0.359E-01      g.g   = 0.269E-01  gl.gl    = 0.921E-01
 g(Force)  = 0.624E-02   g(Stress)= 0.207E-01 ortho     =-0.831E-03
 gamma     =   0.39004
 trial     =   0.99713
 opt step  =   0.72578  (harmonic =   0.72578) maximal distance =0.00945244
 next E    =   -45.218937   (d E  =  -0.00964)

[...]

 eigenvalue-minimisations  :  1344
 total energy-change (2. order) :-0.1483474E-01  (-0.1004850E-01)
 number of electron      60.0000004 magnetization       2.0000003
 augmentation part        0.9730736 magnetization       1.7085488

[...]

 Broyden mixing:
  rms(total) = 0.76798E-02    rms(broyden)= 0.76798E-02
  rms(prec ) = 0.86864E-02
  weight for this iteration     100.00

 eigenvalues of (default mixing * dielectric matrix)
  average eigenvalue GAMMA=   0.9338
  1.8070  0.2638  0.7306

[...]

--------------------------------------- Iteration     12(   5)  ---------------------------------------

[...]

 eigenvalue-minimisations  :   784
 total energy-change (2. order) : 0.6797522E-04  (-0.1656553E-04)
 number of electron      60.0000005 magnetization       2.0000001
 augmentation part        1.1630017 magnetization       1.7061770

 Free energy of the ion-electron system (eV)
  alpha Z        PSCENC =        45.20957732
  Ewald energy   TEWEN  =      8372.62050199
  -Hartree energ DENC   =    -11049.94601165
  -exchange      EXHF   =         0.00000000
  -V(xc)+E(xc)   XCENC  =       -18.83691945
  PAW double counting   =      1800.15553347    -1692.05922600
  entropy T*S    EENTRO =         0.00000000
  eigenvalues    EBANDS =      -453.34092670
  atomic energy  EATOM  =      2950.97855467
  Solvation  Ediel_sol  =         0.00000000
  free energy    TOTEN  =       -45.21891635 eV

  energy without entropy =      -45.21891635  energy(sigma->0) =      -45.21891635

 average (electrostatic) potential at core
  the test charge radii are     1.0103  0.9892  1.0808
  (the norm of the test charge is              1.0000)
       1 -51.6106       2 -51.6106       3 -92.4550       4 -92.4550       5 -61.0426
       6 -61.0426       7 -61.0426       8 -61.0426       9 -61.0426      10 -61.0426

 E-fermi :  -2.4622     XC(G=0):  -3.6111     alpha+bet : -2.9131

[...]

 spin component 2

[...]

 k-point     5 :      -0.4000    0.2000    0.0000
  band No.  band energies     occupation
      1     -16.3105      1.00000
      2     -16.1771      1.00000
      3     -15.7657      1.00000
      4     -15.6589      1.00000
      5     -15.5301      1.00000
      6     -15.3630      1.00000
      7     -10.8106      1.00000
      8      -9.2214      1.00000
      9      -7.7566      1.00000
     10      -7.2630      1.00000
     11      -7.2185      1.00000
     12      -6.7497      1.00000
     13      -6.4243      1.00000
     14      -6.1369      1.00000
     15      -5.7950      1.00000
     16      -5.5101      1.00000
     17      -5.4519      1.00000
     18      -5.3342      1.00000
     19      -5.3021      1.00000
     20      -4.9329      1.00000
     21      -4.8935      1.00000
     22      -4.1202      1.00000
     23      -4.0331      1.00000
     24      -3.8754      1.00000
     25      -3.8138      1.00000
     26      -3.1234      1.00000
     27      -2.8130      1.00000
     28      -2.6960      1.00000
     29      -2.5068      1.00000
     30      -2.2428      0.00000
     31      -2.2133      0.00000
     32      -1.3825      0.00000
     33      -1.2683      0.00000
     34      -0.9698      0.00000
     35      -0.7285      0.00000
     36      -0.3726      0.00000
     37       0.3952      0.00000
     38       0.7974      0.00000
     39       1.1309      0.00000
     40       1.6837      0.00000
     41       1.8748      0.00000
     42       2.1284      0.00000
     43       2.7825      0.00000
     44       2.9486      0.00000
     45       3.0320      0.00000
     46       3.0376      0.00000
     47       3.4865      0.00000
     48       3.8413      0.00000

[...]

 soft charge-density along one line, spin component           2
         0         1         2         3         4         5         6         7         8         9
 total charge-density along one line

------------------------ aborting loop because EDIFF is reached ----------------------------------------

[...]

  FORCE on cell =-STRESS in cart. coord.  units (eV):
  Direction    XX          YY          ZZ          XY          YZ          ZX
  Alpha Z    45.20958    45.20958    45.20958
  Ewald   10242.85160 10242.84918-12113.08272    -0.00177    -0.00052    -0.00094
  Hartree 10727.09353 10727.09426-10403.04183    -0.00023     0.00007     0.00011
  E(xc)    -241.60365  -241.60366  -240.48357     0.00003     0.00001     0.00001
  Local  -21708.47361-21708.47323 21756.20047     0.00158     0.00027     0.00050
  n-local   269.80130   269.47342   278.41392    -0.10639     0.46064     0.40948
  augment    42.54894    42.54899    32.69934     0.00006     0.00002     0.00004
  Kinetic   624.24829   621.09878   644.18300    -2.28010     1.25268     1.49303
  Fock        0.00000     0.00000     0.00000     0.00000     0.00000     0.00000
  Total      -0.06336    -0.06336     0.09818     0.00000    -0.00000     0.00000
  in kB      -0.14215    -0.14215     0.22027     0.00000    -0.00000     0.00000

 VOLUME and BASIS-vectors are now :
  energy-cutoff  :      520.00
  volume of cell :      714.12
      direct lattice vectors                 reciprocal lattice vectors
     6.181741993  0.000000010 -0.000000000     0.161766700 -0.093396041  0.000000000
     3.090870649  5.353545363 -0.000000000    -0.000000000  0.186792104  0.000000000
    -0.000000000 -0.000000000 21.578268010     0.000000000  0.000000000  0.046342922

  length of vectors
     6.181741993  6.181741609 21.578268010     0.186792092  0.186792104  0.046342922

 FORCES acting on ions
    electron-ion (+dipol)            ewald-force                    non-local-force                 convergence-correction
   -.868E-04 -.526E-04 0.593E+00   0.592E-03 0.353E-03 -.597E+00   -.174E-17 0.347E-17 0.762E-02   -.216E-06 -.163E-06 -.326E-04
   0.868E-04 0.526E-04 -.593E+00   -.592E-03 -.353E-03 0.597E+00   0.165E-20 -.347E-17 -.762E-02   0.216E-06 0.163E-06 0.326E-04
   -.254E-04 -.443E-04 0.231E+03   -.185E-03 -.103E-03 -.224E+03   -.262E-16 0.227E-16 -.704E+01   -.743E-07 -.302E-07 -.247E-01
   0.254E-04 0.443E-04 -.231E+03   0.185E-03 0.103E-03 0.224E+03   -.153E-17 -.158E-16 0.704E+01   0.743E-07 0.302E-07 0.247E-01
   -.199E+02 -.137E-01 -.479E+03   0.177E+02 0.149E-01 0.481E+03   0.222E+01 -.410E-02 -.247E+01   0.119E-01 0.126E-03 0.578E-01
   0.992E+01 0.172E+02 -.479E+03   -.882E+01 -.153E+02 0.481E+03   -.111E+01 -.192E+01 -.247E+01   -.583E-02 -.103E-01 0.578E-01
   0.995E+01 -.172E+02 -.479E+03   -.884E+01 0.153E+02 0.481E+03   -.111E+01 0.193E+01 -.247E+01   -.605E-02 0.102E-01 0.578E-01
   0.199E+02 0.137E-01 0.479E+03   -.177E+02 -.149E-01 -.481E+03   -.222E+01 0.410E-02 0.247E+01   -.119E-01 -.126E-03 -.578E-01
   -.992E+01 -.172E+02 0.479E+03   0.882E+01 0.153E+02 -.481E+03   0.111E+01 0.192E+01 0.247E+01   0.583E-02 0.103E-01 -.578E-01
   -.995E+01 0.172E+02 0.479E+03   0.884E+01 -.153E+02 -.481E+03   0.111E+01 -.193E+01 0.247E+01   0.605E-02 -.102E-01 -.578E-01
   -.711E-10 -.350E-10 0.395E-09   0.142E-13 -.355E-14 0.568E-13   0.222E-15 0.000E+00 -.444E-15   -.810E-13 0.578E-12 0.301E-10

 POSITION                                       TOTAL-FORCE (eV/Angst)
      3.09087      1.78451     10.78785        -0.000000     -0.000000      0.003894
      6.18174      3.56903     10.79042         0.000000     -0.000000     -0.003894
     -0.00000     -0.00000      9.66108        -0.000000     -0.000000      0.028993
     -0.00000     -0.00000     11.91719         0.000000     -0.000000     -0.028993
      3.88073      0.00078     12.30387         0.024487     -0.002169     -0.004968
      1.15118      1.99235     12.30387        -0.014122     -0.020122     -0.004968
      4.24071      3.36042     12.30387        -0.010365      0.022291     -0.004968
      5.39188      5.35277      9.27440        -0.024487      0.002169      0.004968
      8.12143      3.36119      9.27440         0.014122      0.020122      0.004968
      5.03190      1.99312      9.27440         0.010365     -0.022291      0.004968
    total drift:                               -0.000000     -0.000000      0.000000

  FREE ENERGIE OF THE ION-ELECTRON SYSTEM (eV)
  free  energy   TOTEN  =       -45.21891635 eV

  energy  without entropy=      -45.21891635  energy(sigma->0) =      -45.21891635

 d Force = 0.1056003E-02[ 0.369E-03, 0.174E-02]  d Energy = 0.1158980E-02-0.103E-03
 d Force = 0.7336450E+01[ 0.733E+01, 0.734E+01]  d Ewald  =-0.5665456E+01 0.130E+02

 reached required accuracy - stopping structural energy minimisation

 total charge

[...]

 magnetization (x)

# of ion       s       p       d       tot
    1        0.011   0.013   1.100   1.124
    2        0.011   0.013   1.100   1.124
    3       -0.003   0.003   0.000   0.000
    4       -0.003   0.003   0.000   0.000
    5       -0.001  -0.043  -0.000  -0.044
    6       -0.001  -0.020  -0.001  -0.022
    7       -0.001  -0.037  -0.001  -0.039
    8       -0.001  -0.043  -0.000  -0.044
    9       -0.001  -0.020  -0.001  -0.022
   10       -0.001  -0.037  -0.001  -0.039
tot          0.009  -0.168   2.197   2.038

 BZINTS: Fermi energy: -2.462158; 60.000000 electrons
         Band energy:-453.340927;  BLOECHL correction:  0.000000