 vasp.5.4.4.18Apr17-6-g9f103f2a35 (build May  1 2020 15:48:39) complex
 executed on             LinuxGNU date 2020.06.20  15:04:40

 INCAR:
 POTCAR:   PAW_PBE Ni 06Sep2000
 POTCAR:   PAW_PBE Si 05Jan2001
 POTCAR:   PAW_PBE Ge 05Jan2001
 POTCAR:   PAW_PBE Se 06Sep2000

 POTCAR:   PAW_PBE Ni 06Sep2000
   VRHFIN =Ni:

   TITEL  = PAW_PBE Ni 06Sep2000
   POMASS =   58.690; ZVAL   =   10.000    mass and valenz
   ENMAX  =  269.533; ENMIN  =  202.150 eV
   QCUT   =   -4.451; QGAM   =    8.902    optimization parameters

   Description
     l     E      TYP  RCUT    TYP  RCUT
     2   .000     23  2.300
     2   .000     23  2.300
     0   .000     23  2.300
     0   .000     23  2.300
     1  -.200     23  2.300
     1   .000     23  2.300
     3   .000      7   .000

 POTCAR:   PAW_PBE Si 05Jan2001
   VRHFIN =Si: s2p2

   TITEL  = PAW_PBE Si 05Jan2001
   POMASS =   28.085; ZVAL   =    4.000    mass and valenz
   ENMAX  =  245.345; ENMIN  =  184.009 eV
   QCUT   =   -4.246; QGAM   =    8.493    optimization parameters

[...]

 POTCAR:   PAW_PBE Ge 05Jan2001
   VRHFIN =Ge: s2p2

   TITEL  = PAW_PBE Ge 05Jan2001
   POMASS =   72.610; ZVAL   =    4.000    mass and valenz
   ENMAX  =  173.807; ENMIN  =  130.355 eV
   QCUT   =   -3.574; QGAM   =    7.148    optimization parameters

[...]

 POTCAR:   PAW_PBE Se 06Sep2000
   VRHFIN =Se: s2p4

   TITEL  = PAW_PBE Se 06Sep2000
   POMASS =   78.960; ZVAL   =    6.000    mass and valenz
   ENMAX  =  211.534; ENMIN  =  158.651 eV
   QCUT   =   -3.943; QGAM   =    7.886    optimization parameters

   Description
     l     E      TYP  RCUT    TYP  RCUT
     0   .000     23  2.100
     0   .000     23  2.100
     1   .000     23  2.100
     1   .000     23  2.100
     2   .000     23  2.100
     3  -.100      7  2.100

 Optimization of the real space projectors (new method)

 maximal supplied QI-value         = 16.25
 optimisation between [QCUT,QGAM] = [ 11.54, 23.24] = [ 37.28,151.24] Ry
 Optimized for a Real-space Cutoff    1.49 Angstroem

   l    n(q)    QCUT    max X(q) W(low)/X(q) W(high)/X(q)  e(spline)
   2      9    11.539     4.811    0.20E-04    0.14E-04    0.45E-07
   2      9    11.539    15.146    0.24E-03    0.12E-03    0.20E-06
   0     10    11.539    14.357    0.18E-04    0.12E-05    0.14E-07
   0     10    11.539    43.282    0.39E-04    0.17E-04    0.23E-06
   1     10    11.539     5.514    0.99E-05    0.13E-04    0.19E-07
   1     10    11.539     7.697    0.38E-04    0.79E-04    0.91E-07
 Optimization of the real space projectors (new method)

[...]

   l    n(q)    QCUT    max X(q) W(low)/X(q) W(high)/X(q)  e(spline)
   0      9    11.539     8.651    0.22E-04    0.16E-04    0.10E-07
   0      9    11.539    33.192    0.11E-03    0.16E-03    0.65E-07
   1      8    11.539     5.899    0.37E-04    0.28E-04    0.43E-07
   1      8    11.539    27.289    0.22E-03    0.28E-04    0.14E-06
   2      8    11.539     4.673    0.11E-03    0.18E-03    0.58E-07
 Optimization of the real space projectors (new method)

 maximal supplied QI-value         = 17.95
 optimisation between [QCUT,QGAM] = [ 11.67, 23.34] = [ 38.13,152.52] Ry
 Optimized for a Real-space Cutoff    1.25 Angstroem

   l    n(q)    QCUT    max X(q) W(low)/X(q) W(high)/X(q)  e(spline)
   0      9    11.669     6.499    0.13E-04    0.81E-05    0.11E-07
   0      9    11.669    52.623    0.18E-03    0.46E-04    0.72E-07
   1      8    11.669     4.229    0.40E-04    0.45E-04    0.31E-07
   1      8    11.669    29.991    0.22E-03    0.36E-03    0.10E-06
   2      8    11.669     3.719    0.19E-03    0.46E-04    0.50E-07

 PAW_PBE Ni 06Sep2000                   :
 PAW_PBE Si 05Jan2001                   :
 PAW_PBE Ge 05Jan2001                   :
 PAW_PBE Se 06Sep2000                   :

 POSCAR: Ni2 Si Ge Se6
  positions in direct lattice
  velocities in cartesian coordinates
 exchange correlation table for  LEXCH =       42
   RHO(1)=    0.500       N(1)  =     2000
   RHO(2)=  100.500       N(2)  =     4000

 ion  position               nearest neighbor table
   1  0.333  0.333  0.500-   6 2.78   5 2.78   7 2.78   8 2.78  10 2.78   9 2.78
   2  0.667  0.667  0.500-   9 2.78   8 2.78  10 2.78   5 2.78   7 2.78   6 2.78
   3  0.000  0.000  0.448-   4 2.43   8 2.63  10 2.63   9 2.63
   4  0.000  0.000  0.552-   3 2.43   5 2.63   7 2.63   6 2.63
   5  0.626  0.000  0.574-   4 2.63   1 2.78   2 2.78
   6  0.000  0.373  0.574-   4 2.63   1 2.78   2 2.78
   7  0.373  0.626  0.574-   4 2.63   1 2.78   2 2.78
   8  0.374  1.000  0.426-   3 2.63   2 2.78   1 2.78
   9  1.000  0.627  0.426-   3 2.63   2 2.78   1 2.78
  10  0.627  0.374  0.426-   3 2.63   2 2.78   1 2.78

  LATTYP: Found a hexagonal cell.
 ALAT       =     6.9077769333
 C/A-ratio  =     3.3939410937

  Lattice vectors:

 A1 = (   3.4538890000,  -5.9823100000,   0.0000000000)
 A2 = (  -6.9077770000,   0.0000000000,   0.0000000000)
 A3 = (   0.0000000000,   0.0000000000, -23.4445880000)

Analysis of symmetry for initial positions (statically):
 Subroutine PRICEL returns:
 Original cell was already a primitive cell.

 Routine SETGRP: Setting up the symmetry group for a
 hexagonal supercell.

 Subroutine GETGRP returns: Found  3 space group operations
 (whereof  3 operations were pure point group operations)
 out of a pool of 24 trial point group operations.

The static configuration has the point symmetry C_3 .

Analysis of symmetry for dynamics (positions and initial velocities):
 Subroutine PRICEL returns:
 Original cell was already a primitive cell.

[...]

The dynamic configuration has the point symmetry C_3 .

Analysis of constrained symmetry for selective dynamics:
 Subroutine PRICEL returns:
 Original cell was already a primitive cell.

[...]

The constrained configuration has the point symmetry C_3 .

Analysis of structural, dynamic, and magnetic symmetry:
 Subroutine PRICEL returns:
 Original cell was already a primitive cell.

 Routine SETGRP: Setting up the symmetry group for a
 hexagonal supercell.

 Subroutine GETGRP returns: Found  3 space group operations
 (whereof  3 operations were pure point group operations)
 out of a pool of 24 trial point group operations.

The magnetic configuration has the point symmetry C_3 .

 Subroutine INISYM returns: Found  3 space group operations
 (whereof  3 operations are pure point group operations),
 and found     1 'primitive' translations

 KPOINTS: Kpoints from vasprun.xml

Automatic generation of k-mesh.
Space group operators:
 irot       det(A)        alpha          n_x          n_y          n_z        tau_x        tau_y        tau_z
    1     1.000000     0.000000     1.000000     0.000000     0.000000     0.000000     0.000000     0.000000
    2     1.000000   120.000000     0.000000     0.000000     1.000000     0.000000     0.000000     0.000000
    3     1.000000   120.000000     0.000000     0.000000    -1.000000     0.000000     0.000000     0.000000

 Subroutine IBZKPT returns following result:

 Found      5 irreducible k-points:

 Following reciprocal coordinates:
            Coordinates               Weight
  0.000000  0.000000  0.000000      1.000000
  0.200000  0.000000  0.000000      6.000000
  0.400000  0.000000  0.000000      6.000000
  0.400000  0.200000  0.000000      6.000000
 -0.400000  0.200000  0.000000      6.000000

 Following cartesian coordinates:
            Coordinates               Weight
  0.000000  0.000000  0.000000      1.000000
  0.028953 -0.016716  0.000000      6.000000
  0.057906 -0.033432  0.000000      6.000000
  0.057906  0.000000  0.000000      6.000000
 -0.057906  0.066864  0.000000      6.000000

 TETIRR: Found     15 inequivalent tetrahedra from      150

 SYSTEM =  unknown system
 POSCAR =  Ni2 Si Ge Se6

 Startparameter for this run:
   NWRITE =      2    write-flag & timer
   PREC   = accura    normal or accurate (medium, high low for compatibility)
   ISTART =      0    job   : 0-new  1-cont  2-samecut
   ICHARG =      2    charge: 1-file 2-atom 10-const
   ISPIN  =      2    spin polarized calculation?
   LNONCOLLINEAR =      F non collinear calculations
   LSORBIT =      F    spin-orbit coupling
   INIWAV =      1    electr: 0-lowe 1-rand  2-diag
   LASPH  =      F    aspherical Exc in radial PAW
   METAGGA=      F    non-selfconsistent MetaGGA calc.

 Electronic Relaxation 1
   ENCUT  =  520.0 eV  38.22 Ry    6.18 a.u.  12.84 12.84 43.59*2*pi/ulx,y,z
   ENINI  =  520.0     initial cutoff
   ENAUG  =  544.6 eV  augmentation charge cutoff
   NELM   =    400;   NELMIN=  2; NELMDL=  0     # of ELM steps
   EDIFF  = 0.1E-03   stopping-criterion for ELM
   LREAL  =      T    real-space projection
   NLSPLINE    = F    spline interpolate recip. space projectors
   LCOMPAT=      F    compatible to vasp.4.4
   GGA_COMPAT  = T    GGA compatible to vasp.4.4-vasp.4.6
   LMAXPAW     = -100 max onsite density
   LMAXMIX     =    2 max onsite mixed and CHGCAR
   VOSKOWN=      0    Vosko Wilk Nusair interpolation
   ROPT   =   -0.00025  -0.00025  -0.00025  -0.00025
 Ionic relaxation
   EDIFFG = 0.1E-02   stopping-criterion for IOM
   NSW    =     99    number of steps for IOM
   NBLOCK =      1;   KBLOCK =     99    inner block; outer block
   IBRION =      2    ionic relax: 0-MD 1-quasi-New 2-CG
   NFREE  =      1    steps in history (QN), initial steepest desc. (CG)
   ISIF   =      3    stress and relaxation
   IWAVPR =     11    prediction:  0-non 1-charg 2-wave 3-comb
   ISYM   =      2    0-nonsym 1-usesym 2-fastsym
   LCORR  =      T    Harris-Foulkes like correction to forces

   POTIM  = 0.5000    time-step for ionic-motion
   TEIN   =    0.0    initial temperature
   TEBEG  =    0.0;   TEEND  =   0.0 temperature during run
   SMASS  =  -3.00    Nose mass-parameter (am)
   estimated Nose-frequenzy (Omega)   =  0.10E-29 period in steps =****** mass=  -0.109E-26a.u.
   SCALEE = 1.0000    scale energy and forces
   NPACO  =    256;   APACO  = 16.0  distance and # of slots for P.C.
   PSTRESS=    0.0 pullay stress

  Mass of Ions in am
   POMASS =  58.69 28.09 72.61 78.96
  Ionic Valenz
   ZVAL   =  10.00  4.00  4.00  6.00
  Atomic Wigner-Seitz radii
  virtual crystal weights
   VCA    =   1.00  1.00  1.00  1.00
   NELECT =      64.0000    total number of electrons
   NUPDOWN=      -1.0000    fix difference up-down

 DOS related values:
   EMIN   =  10.00;   EMAX   =-10.00  energy-range for DOS
   EFERMI =   0.00
   ISMEAR =    -5;   SIGMA  =   0.05  broadening in eV -4-tet -1-fermi 0-gaus

 Electronic relaxation 2 (details)
   IALGO  =     38    algorithm
   LDIAG  =      T    sub-space diagonalisation (order eigenvalues)
   LSUBROT=      F    optimize rotation matrix (better conditioning)
   TURBO    =      0    0=normal 1=particle mesh
   IRESTART =      0    0=no restart 2=restart with 2 vectors
   NREBOOT  =      0    no. of reboots
   NMIN     =      0    reboot dimension
   EREF     =   0.00    reference energy to select bands
   IMIX   =      4    mixing-type and parameters
     AMIX     =   0.40;   BMIX     =  1.00
     AMIX_MAG =   1.60;   BMIX_MAG =  1.00
     AMIN     =   0.01
     WC   =   100.;   INIMIX=   1;  MIXPRE=   1;  MAXMIX= -45

 Intra band minimization:
   WEIMIN = 0.0010     energy-eigenvalue tresh-hold
[...]
    5        1.497   2.134   0.017   3.648
    6        1.494   2.185   0.017   3.696
    7        1.496   2.149   0.017   3.663
    8        1.496   2.128   0.018   3.641
    9        1.493   2.184   0.018   3.694
   10        1.495   2.144   0.018   3.657
tot         11.559  15.040  16.658  43.257

 magnetization (x)

[...]

  FORCE on cell =-STRESS in cart. coord.  units (eV):
  Direction    XX          YY          ZZ          XY          YZ          ZX
  Alpha Z    40.05543    40.05543    40.05543
  Ewald   10003.16019 10003.15816-11941.28445    -0.00208    -0.00052    -0.00095
  Hartree 10859.51549 10859.51662-10140.75154    -0.00050     0.00009     0.00013
  E(xc)    -267.67161  -267.67170  -267.49218     0.00010    -0.00001     0.00002
  Local  -21563.56919-21563.56929 21358.48864     0.00238     0.00029     0.00058
  n-local   225.79580   226.25915   231.99010     0.19364     0.31943     0.20107
  augment    74.43110    74.43121    71.43793     0.00003    -0.00002     0.00002
  Kinetic   607.26529   603.08274   635.20022    -2.28093    -0.53138    -0.69622
  Fock        0.00000     0.00000     0.00000     0.00000     0.00000     0.00000
  Total     -22.87759   -22.87759   -12.35584     0.00001     0.00000    -0.00000
  in kB     -37.83303   -37.83302   -20.43304     0.00001     0.00000    -0.00000

 VOLUME and BASIS-vectors are now :
  energy-cutoff  :      520.00
  volume of cell :      968.84
      direct lattice vectors                 reciprocal lattice vectors
     6.907777000 -0.000000000  0.000000000     0.144764372 -0.083579742  0.000000000
     3.453888000  5.982310000  0.000000000     0.000000000  0.167159509 -0.000000000
     0.000000000  0.000000000 23.444588000    -0.000000000  0.000000000  0.042653767

[...]

 FORCES acting on ions
    electron-ion (+dipol)            ewald-force                    non-local-force                 convergence-correction
   0.243E-03 0.152E-03 0.130E+01   0.643E-03 0.389E-03 -.118E+01   0.000E+00 0.000E+00 -.765E-01   0.439E-06 0.252E-06 -.412E-03
   -.260E-03 -.115E-03 -.108E+01   -.643E-03 -.389E-03 0.118E+01   0.139E-16 0.000E+00 -.788E-01   -.386E-06 -.220E-06 -.370E-03
   -.406E-04 -.112E-04 0.191E+03   -.141E-03 -.779E-04 -.186E+03   0.000E+00 -.139E-16 -.487E+01   -.409E-07 -.219E-07 -.365E-02
   0.645E-04 -.389E-04 -.189E+03   0.141E-03 0.779E-04 0.186E+03   0.347E-17 0.347E-17 0.247E+01   0.454E-07 0.246E-07 0.344E-02
   -.248E+02 0.154E+00 -.424E+03   0.233E+02 -.155E+00 0.425E+03   0.194E+01 -.627E-02 -.278E+01   -.153E-02 0.266E-02 0.720E-02
   0.125E+02 0.214E+02 -.424E+03   -.118E+02 -.201E+02 0.425E+03   -.977E+00 -.168E+01 -.278E+01   0.307E-02 -.461E-05 0.720E-02
   0.123E+02 -.215E+02 -.424E+03   -.115E+02 0.202E+02 0.425E+03   -.966E+00 0.169E+01 -.278E+01   -.154E-02 -.266E-02 0.720E-02
   0.246E+02 -.159E+00 0.424E+03   -.233E+02 0.155E+00 -.425E+03   -.230E+01 0.691E-02 0.283E+01   0.168E-02 0.266E-02 -.783E-02
   -.124E+02 -.212E+02 0.424E+03   0.118E+02 0.201E+02 -.425E+03   0.116E+01 0.199E+01 0.283E+01   0.147E-02 -.278E-02 -.783E-02
   -.122E+02 0.214E+02 0.424E+03   0.115E+02 -.202E+02 -.425E+03   0.114E+01 -.200E+01 0.283E+01   -.315E-02 0.121E-03 -.783E-02
   0.366E-04 -.432E-04 0.244E+01   0.355E-14 0.000E+00 -.171E-12   -.222E-15 0.000E+00 -.243E+01   0.562E-07 0.350E-07 -.288E-02

 POSITION                                       TOTAL-FORCE (eV/Angst)
      3.45388      1.99410     11.72054        -0.000000     -0.000000      0.038560
      6.90778      3.98821     11.72405        -0.000000      0.000000      0.022669
      0.00000      0.00000     10.50824        -0.000000      0.000000     -0.500748
      0.00000      0.00000     12.93635        -0.000000      0.000000      0.179844
      4.32819      0.00251     13.45138         0.434294     -0.004583     -1.224118
      1.29198      2.23274     13.45138        -0.221116     -0.373818     -1.224118
      4.74152      3.74706     13.45138        -0.213178      0.378401     -1.224118
      6.03348      5.97980      9.99321        -0.978906      0.005348      1.310677
      9.06969      3.74957      9.99321         0.494084      0.845083      1.310677
      5.62015      2.23525      9.99321         0.484821     -0.850431      1.310677
    total drift:                                0.000037     -0.000043      0.000405

  FREE ENERGIE OF THE ION-ELECTRON SYSTEM (eV)
  free  energy   TOTEN  =       -34.07039498 eV

  energy  without entropy=      -34.07039498  energy(sigma->0) =      -34.07039498

[...]

 d Force = 0.2427799E+00[-0.111E+00, 0.597E+00]  d Energy = 0.3402659E+01-0.316E+01
 d Force =-0.1575707E+03[-0.177E+03,-0.138E+03]  d Ewald  =-0.1942044E+04 0.178E+04

 Steepest descent step on ions:
 trial-energy change:   -3.402659  1 .order   -2.443700   -6.430073    1.542673
  (g-gl).g = 0.643E+01      g.g   = 0.643E+01  gl.gl    = 0.000E+00
 g(Force)  = 0.644E+00   g(Stress)= 0.579E+01 ortho     = 0.000E+00
 gamma     =   0.00000
 trial     =   1.00000
 opt step  =   0.88175  (harmonic =   0.80651) maximal distance =0.05575368
 next E    =   -37.562677   (d E  =  -3.49228)

[...]

 d Force = 0.6193103E-02[-0.249E-02, 0.149E-01]  d Energy = 0.4949523E-01-0.433E-01
 d Force = 0.2203078E+02[ 0.217E+02, 0.224E+02]  d Ewald  = 0.2664828E+03-0.244E+03

[...]

 d Force = 0.1034984E+00[ 0.738E-01, 0.133E+00]  d Energy = 0.1161739E+00-0.127E-01
 d Force =-0.2499560E+02[-0.252E+02,-0.248E+02]  d Ewald  =-0.5526594E+01-0.195E+02

 Conjugate gradient step on ions:
 trial-energy change:   -0.116174  1 .order   -0.107009   -0.135749   -0.078269
  (g-gl).g = 0.803E-01      g.g   = 0.138E+00  gl.gl    = 0.643E+01
 g(Force)  = 0.136E+00   g(Stress)= 0.186E-02 ortho     = 0.580E-01
 gamma     =   0.01249
 trial     =   0.97635
 opt step  =   1.51208  (harmonic =   2.30582) maximal distance =0.05607890
 next E    =   -37.661711   (d E  =  -0.13916)

[...]

 d Force = 0.3191552E-01[ 0.233E-01, 0.405E-01]  d Energy = 0.3357578E-01-0.166E-02
 d Force =-0.1387499E+02[-0.139E+02,-0.138E+02]  d Ewald  =-0.3114115E+01-0.108E+02

[...]

 d Force = 0.1688233E-01[-0.129E-01, 0.466E-01]  d Energy = 0.1664482E-01 0.238E-03
 d Force =-0.2793142E+02[-0.281E+02,-0.278E+02]  d Ewald  =-0.6301104E+01-0.216E+02

[...]

 d Force = 0.5275053E-02[ 0.186E-02, 0.869E-02]  d Energy = 0.5483451E-02-0.208E-03
 d Force = 0.1804721E+01[ 0.183E+01, 0.178E+01]  d Ewald  = 0.4571955E+02-0.439E+02

 Steepest descent step on ions:
 trial-energy change:   -0.005483  1 .order   -0.005417   -0.009357   -0.001477
  (g-gl).g = 0.184E-01      g.g   = 0.721E-02  gl.gl    = 0.138E+00
 g(Force)  = 0.670E-02   g(Stress)= 0.514E-03 ortho     =-0.120E-01
 gamma     =   0.00000
 trial     =   1.29779
 opt step  =   1.54113  (harmonic =   1.54113) maximal distance =0.00999795
 next E    =   -37.694500   (d E  =  -0.00556)

[...]

 d Force = 0.2130948E-03[ 0.769E-04, 0.349E-03]  d Energy = 0.1252483E-03 0.878E-04
 d Force = 0.3450442E+00[ 0.346E+00, 0.344E+00]  d Ewald  = 0.8557028E+01-0.821E+01

[...]

 d Force = 0.8564025E-03[ 0.505E-04, 0.166E-02]  d Energy =-0.1153824E-02 0.201E-02
 d Force = 0.2190373E+01[ 0.219E+01, 0.219E+01]  d Ewald  = 0.1171673E+02-0.953E+01

 Conjugate gradient step on ions:
 trial-energy change:    0.001154  1 .order    0.000010   -0.005162    0.005182
  (g-gl).g = 0.324E-02      g.g   = 0.365E-02  gl.gl    = 0.721E-02
 g(Force)  = 0.109E-02   g(Stress)= 0.256E-02 ortho     = 0.413E-03
 gamma     =   0.44872
 trial     =   1.34646
 opt step  =   0.46911  (harmonic =   0.67194) maximal distance =0.00130962
 next E    =   -37.695404   (d E  =  -0.00085)

[...]

 eigenvalue-minimisations  :  1184
 total energy-change (2. order) :-0.7665963E-04  (-0.1399003E-03)
 number of electron      63.9999995 magnetization       0.0070513
 augmentation part        4.7013785 magnetization      -0.0066408

[...]

 Broyden mixing:
  rms(total) = 0.61265E-02    rms(broyden)= 0.61235E-02
  rms(prec ) = 0.67229E-02
  weight for this iteration     100.00

 eigenvalues of (default mixing * dielectric matrix)
  average eigenvalue GAMMA=   0.8749
  1.6246  1.6246  0.7116  0.2682  0.1455

[...]

--------------------------------------- Iteration     10(   7)  ---------------------------------------

[...]

 eigenvalue-minimisations  :   832
 total energy-change (2. order) : 0.6789810E-04  (-0.1879723E-04)
 number of electron      63.9999995 magnetization       0.0064416
 augmentation part        4.7139268 magnetization       0.0061224

 Free energy of the ion-electron system (eV)
  alpha Z        PSCENC =        52.51505100
  Ewald energy   TEWEN  =      9697.17932231
  -Hartree energ DENC   =    -13242.33319947
  -exchange      EXHF   =         0.00000000
  -V(xc)+E(xc)   XCENC  =        36.86845853
  PAW double counting   =      2586.54889702    -2602.26780862
  entropy T*S    EENTRO =         0.00000000
  eigenvalues    EBANDS =      -489.66466444
  atomic energy  EATOM  =      3923.45879020
  Solvation  Ediel_sol  =         0.00000000
  free energy    TOTEN  =       -37.69515347 eV

  energy without entropy =      -37.69515347  energy(sigma->0) =      -37.69515347

 average (electrostatic) potential at core
  the test charge radii are     0.9791  0.9892  1.1631  1.0808
  (the norm of the test charge is              1.0000)
       1 -50.0326       2 -50.0346       3 -92.8155       4 -39.6422       5 -61.4125
       6 -61.4124       7 -61.4124       8 -61.2635       9 -61.2635      10 -61.2635

 E-fermi :  -2.5466     XC(G=0):  -3.3713     alpha+bet : -2.7015

[...]

 spin component 2

[...]

 k-point     5 :      -0.4000    0.2000    0.0000
  band No.  band energies     occupation
      1     -16.4151      1.00000
      2     -16.3126      1.00000
      3     -15.9057      1.00000
      4     -15.7739      1.00000
      5     -15.6965      1.00000
      6     -15.5040      1.00000
      7     -11.3558      1.00000
      8      -9.5833      1.00000
      9      -7.9277      1.00000
     10      -7.4194      1.00000
     11      -7.4088      1.00000
     12      -6.9185      1.00000
     13      -6.5595      1.00000
     14      -6.4672      1.00000
     15      -6.2219      1.00000
     16      -5.9493      1.00000
     17      -5.8403      1.00000
     18      -5.6989      1.00000
     19      -5.6519      1.00000
     20      -5.5056      1.00000
     21      -5.2775      1.00000
     22      -4.8272      1.00000
     23      -4.6150      1.00000
     24      -4.4685      1.00000
     25      -4.4155      1.00000
     26      -4.2577      1.00000
     27      -4.1179      1.00000
     28      -4.0497      1.00000
     29      -3.9423      1.00000
     30      -3.8782      1.00000
     31      -3.7350      1.00000
     32      -2.7050      1.00000
     33      -2.5506      0.28071
     34      -2.2933      0.00000
     35      -1.8805      0.00000
     36      -1.2464      0.00000
     37      -0.2952      0.00000
     38       0.4390      0.00000
     39       0.5993      0.00000
     40       1.3013      0.00000
     41       1.4439      0.00000
     42       1.6347      0.00000
     43       2.6605      0.00000
     44       2.7488      0.00000
     45       2.7933      0.00000
     46       2.9756      0.00000
     47       3.1924      0.00000
     48       3.7816      0.00000

[...]

 soft charge-density along one line, spin component           2
         0         1         2         3         4         5         6         7         8         9
 total charge-density along one line

------------------------ aborting loop because EDIFF is reached ----------------------------------------

[...]

  FORCE on cell =-STRESS in cart. coord.  units (eV):
  Direction    XX          YY          ZZ          XY          YZ          ZX
  Alpha Z    52.51505    52.51505    52.51505
  Ewald   11840.01766 11840.01556-13982.85668    -0.00244    -0.00056    -0.00102
  Hartree 12593.35888 12593.36011-11946.73298    -0.00058     0.00008     0.00013
  E(xc)    -273.51887  -273.51885  -273.26389     0.00000     0.00001     0.00000
  Local  -25155.36220-25155.36255 25179.04757     0.00263     0.00030     0.00057
  n-local   240.12345   241.08907   241.90678     0.54196     0.52896     0.49575
  augment    75.27711    75.27726    71.87522     0.00002     0.00004     0.00005
  Kinetic   631.78112   621.60066   657.61800    -5.70139    -1.97210    -1.70883
  Fock        0.00000     0.00000     0.00000     0.00000     0.00000     0.00000
  Total      -0.41575    -0.41575     0.10908     0.00000     0.00000     0.00000
  in kB      -0.90139    -0.90139     0.23649     0.00000     0.00000     0.00000

 VOLUME and BASIS-vectors are now :
  energy-cutoff  :      520.00
  volume of cell :      738.97
      direct lattice vectors                 reciprocal lattice vectors
     6.228077733  0.000000250 -0.000000000     0.160563189 -0.092701186  0.000000000
     3.114038298  5.393673401  0.000000000    -0.000000007  0.185402406 -0.000000000
    -0.000000000  0.000000000 21.998284899     0.000000000 -0.000000000  0.045458089

  length of vectors
     6.228077733  6.228077334 21.998284899     0.185402394  0.185402406  0.045458089

 FORCES acting on ions
    electron-ion (+dipol)            ewald-force                    non-local-force                 convergence-correction
   0.895E-04 0.356E-04 0.631E+01   0.784E-03 0.472E-03 -.639E+01   -.619E-20 0.278E-16 0.402E-01   0.617E-06 0.230E-06 -.632E-02
   -.976E-04 -.508E-04 0.486E+01   -.791E-03 -.476E-03 -.492E+01   -.278E-16 0.278E-16 0.215E-01   -.313E-06 -.765E-07 -.835E-02
   -.436E-04 0.155E-05 0.250E+03   -.189E-03 -.105E-03 -.246E+03   -.133E-16 0.121E-16 -.407E+01   -.464E-07 -.414E-07 0.131E-01
   0.506E-04 0.219E-04 -.240E+03   0.173E-03 0.967E-04 0.237E+03   -.393E-17 -.559E-17 0.300E+01   -.746E-07 -.423E-07 -.159E-01
   -.356E+02 -.106E+00 -.528E+03   0.338E+02 0.124E+00 0.531E+03   0.182E+01 -.385E-02 -.214E+01   -.634E-02 -.140E-01 -.372E-01
   0.177E+02 0.309E+02 -.528E+03   -.168E+02 -.294E+02 0.531E+03   -.914E+00 -.158E+01 -.214E+01   -.892E-02 0.125E-01 -.372E-01
   0.179E+02 -.308E+02 -.528E+03   -.170E+02 0.292E+02 0.531E+03   -.908E+00 0.158E+01 -.214E+01   0.153E-01 0.149E-02 -.372E-01
   0.281E+02 -.176E+00 0.522E+03   -.261E+02 0.193E+00 -.524E+03   -.198E+01 0.556E-02 0.212E+01   0.566E-02 -.134E-01 0.340E-01
   -.142E+02 -.242E+02 0.522E+03   0.132E+02 0.225E+02 -.524E+03   0.994E+00 0.171E+01 0.212E+01   -.144E-01 0.178E-02 0.340E-01
   -.139E+02 0.244E+02 0.522E+03   0.129E+02 -.227E+02 -.524E+03   0.984E+00 -.172E+01 0.212E+01   0.874E-02 0.116E-01 0.340E-01
   -.343E-04 0.475E-04 0.110E+01   0.355E-14 0.142E-13 0.227E-12   0.000E+00 -.666E-15 -.107E+01   0.233E-06 0.983E-07 -.273E-01

 POSITION                                       TOTAL-FORCE (eV/Angst)
      3.11404      1.79789     11.01103         0.000000     -0.000000     -0.043244
      6.22808      3.59578     11.01300         0.000000     -0.000000     -0.046734
     -0.00000      0.00000      9.78113         0.000000     -0.000000     -0.065886
     -0.00000      0.00000     12.13830         0.000000      0.000000      0.341481
      3.81435      0.00022     12.54928         0.030411      0.000823     -0.052319
      1.20705      2.09025     12.54928        -0.014493     -0.026748     -0.052319
      4.32072      3.30322     12.54928        -0.015918      0.025925     -0.052319
      5.41157      5.39193      9.44757        -0.033071      0.008281     -0.009554
      8.19184      3.40482      9.44757         0.023707      0.024500     -0.009554
      5.08082      1.99059      9.44757         0.009364     -0.032781     -0.009554
    total drift:                               -0.000034      0.000048     -0.004904

  FREE ENERGIE OF THE ION-ELECTRON SYSTEM (eV)
  free  energy   TOTEN  =       -37.69515347 eV

  energy  without entropy=      -37.69515347  energy(sigma->0) =      -37.69515347

 d Force =-0.3756030E-03[-0.719E-03,-0.324E-04]  d Energy = 0.1754378E-02-0.213E-02
 d Force =-0.1419687E+01[-0.142E+01,-0.142E+01]  d Ewald  =-0.7633390E+01 0.621E+01

 reached required accuracy - stopping structural energy minimisation

 total charge

[...]

 magnetization (x)

# of ion       s       p       d       tot
    1        0.000  -0.001   0.423   0.422
    2       -0.000   0.001  -0.420  -0.419
    3       -0.000   0.000   0.000   0.000
    4        0.000  -0.000   0.000  -0.000
    5        0.001   0.029   0.000   0.030
    6        0.000   0.008   0.000   0.009
    7       -0.001  -0.037  -0.000  -0.038
    8       -0.001  -0.026  -0.000  -0.027
    9        0.000  -0.007  -0.000  -0.007
   10        0.001   0.032   0.000   0.034
tot          0.000   0.001   0.003   0.004

 BZINTS: Fermi energy: -2.546624; 64.000000 electrons
         Band energy:-489.664664;  BLOECHL correction: -0.013724