 vasp.5.4.4.18Apr17-6-g9f103f2a35 (build May  1 2020 15:48:39) complex
 executed on             LinuxGNU date 2020.06.26  22:38:47

 INCAR:
 POTCAR:   PAW_PBE Ni 06Sep2000
 POTCAR:   PAW_PBE Ge 05Jan2001
 POTCAR:    PAW_PBE P 17Jan2003
 POTCAR:    PAW_PBE S 17Jan2003

 POTCAR:   PAW_PBE Ni 06Sep2000
   VRHFIN =Ni:

   TITEL  = PAW_PBE Ni 06Sep2000
   POMASS =   58.690; ZVAL   =   10.000    mass and valenz
   ENMAX  =  269.533; ENMIN  =  202.150 eV
   QCUT   =   -4.451; QGAM   =    8.902    optimization parameters

   Description
     l     E      TYP  RCUT    TYP  RCUT
     2   .000     23  2.300
     2   .000     23  2.300
     0   .000     23  2.300
     0   .000     23  2.300
     1  -.200     23  2.300
     1   .000     23  2.300
     3   .000      7   .000

 POTCAR:   PAW_PBE Ge 05Jan2001
   VRHFIN =Ge: s2p2

   TITEL  = PAW_PBE Ge 05Jan2001
   POMASS =   72.610; ZVAL   =    4.000    mass and valenz
   ENMAX  =  173.807; ENMIN  =  130.355 eV
   QCUT   =   -3.574; QGAM   =    7.148    optimization parameters

[...]

 POTCAR:    PAW_PBE P 17Jan2003
   VRHFIN =P : s2p3

[...]

 POTCAR:    PAW_PBE S 17Jan2003
   VRHFIN =S : s2p4

   TITEL  = PAW_PBE S 17Jan2003
   POMASS =   32.066; ZVAL   =    6.000    mass and valenz
   ENMAX  =  280.000; ENMIN  =  194.016 eV
   QCUT   =   -4.360; QGAM   =    8.721    optimization parameters

   Description
     l     E      TYP  RCUT    TYP  RCUT
     0   .000     23  1.900
     0   .000     23  1.900
     1   .000     23  1.900
     1   .000     23  1.900
     2   .000     23  1.900

 Optimization of the real space projectors (new method)

 maximal supplied QI-value         = 16.25
 optimisation between [QCUT,QGAM] = [ 11.54, 23.24] = [ 37.28,151.24] Ry
 Optimized for a Real-space Cutoff    1.49 Angstroem

   l    n(q)    QCUT    max X(q) W(low)/X(q) W(high)/X(q)  e(spline)
   2      9    11.539     4.811    0.20E-04    0.14E-04    0.45E-07
   2      9    11.539    15.146    0.24E-03    0.12E-03    0.20E-06
   0     10    11.539    14.357    0.18E-04    0.12E-05    0.14E-07
   0     10    11.539    43.282    0.39E-04    0.17E-04    0.23E-06
   1     10    11.539     5.514    0.99E-05    0.13E-04    0.19E-07
   1     10    11.539     7.697    0.38E-04    0.79E-04    0.91E-07
 Optimization of the real space projectors (new method)

[...]

   l    n(q)    QCUT    max X(q) W(low)/X(q) W(high)/X(q)  e(spline)
   0      8    11.508     6.651    0.19E-04    0.31E-05    0.49E-08
   0      8    11.508    90.285    0.95E-04    0.17E-03    0.51E-07
   1      8    11.508     4.328    0.14E-04    0.32E-04    0.22E-07
   1      8    11.508    54.583    0.16E-03    0.71E-04    0.89E-07
 Optimization of the real space projectors (new method)

 maximal supplied QI-value         = 19.84
 optimisation between [QCUT,QGAM] = [ 11.51, 23.22] = [ 37.09,150.92] Ry
 Optimized for a Real-space Cutoff    1.21 Angstroem

   l    n(q)    QCUT    max X(q) W(low)/X(q) W(high)/X(q)  e(spline)
   0      8    11.508     5.487    0.18E-04    0.22E-05    0.47E-08
   0      8    11.508    85.627    0.96E-04    0.18E-03    0.54E-07
   1      8    11.508     3.530    0.17E-04    0.28E-04    0.21E-07
   1      8    11.508    42.714    0.18E-03    0.63E-04    0.92E-07

 PAW_PBE Ni 06Sep2000                   :
 PAW_PBE Ge 05Jan2001                   :
  PAW_PBE P 17Jan2003                   :
  PAW_PBE S 17Jan2003                   :

 POSCAR: Ni2 Ge P S6
  positions in direct lattice
  velocities in cartesian coordinates
 exchange correlation table for  LEXCH =       42
   RHO(1)=    0.500       N(1)  =     2000
   RHO(2)=  100.500       N(2)  =     4000

 ion  position               nearest neighbor table
   1  0.333  0.333  0.500-   6 2.78   5 2.78   7 2.78   8 2.78  10 2.78   9 2.78
   2  0.667  0.667  0.500-   9 2.78   8 2.78  10 2.78   5 2.78   7 2.78   6 2.78
   3  0.000  0.000  0.448-   4 2.43   8 2.63  10 2.63   9 2.63
   4  0.000  0.000  0.552-   3 2.43   5 2.63   7 2.63   6 2.63
   5  0.626  0.000  0.574-   4 2.63   1 2.78   2 2.78
   6  0.000  0.373  0.574-   4 2.63   1 2.78   2 2.78
   7  0.373  0.626  0.574-   4 2.63   1 2.78   2 2.78
   8  0.374  1.000  0.426-   3 2.63   2 2.78   1 2.78
   9  1.000  0.627  0.426-   3 2.63   2 2.78   1 2.78
  10  0.627  0.374  0.426-   3 2.63   2 2.78   1 2.78

  LATTYP: Found a hexagonal cell.
 ALAT       =     6.9077769333
 C/A-ratio  =     3.3939410937

  Lattice vectors:

 A1 = (   3.4538890000,  -5.9823100000,   0.0000000000)
 A2 = (  -6.9077770000,   0.0000000000,   0.0000000000)
 A3 = (   0.0000000000,   0.0000000000, -23.4445880000)

Analysis of symmetry for initial positions (statically):
 Subroutine PRICEL returns:
 Original cell was already a primitive cell.

 Routine SETGRP: Setting up the symmetry group for a
 hexagonal supercell.

 Subroutine GETGRP returns: Found  3 space group operations
 (whereof  3 operations were pure point group operations)
 out of a pool of 24 trial point group operations.

The static configuration has the point symmetry C_3 .

Analysis of symmetry for dynamics (positions and initial velocities):
 Subroutine PRICEL returns:
 Original cell was already a primitive cell.

[...]

The dynamic configuration has the point symmetry C_3 .

Analysis of constrained symmetry for selective dynamics:
 Subroutine PRICEL returns:
 Original cell was already a primitive cell.

[...]

The constrained configuration has the point symmetry C_3 .

Analysis of structural, dynamic, and magnetic symmetry:
 Subroutine PRICEL returns:
 Original cell was already a primitive cell.

 Routine SETGRP: Setting up the symmetry group for a
 hexagonal supercell.

 Subroutine GETGRP returns: Found  3 space group operations
 (whereof  3 operations were pure point group operations)
 out of a pool of 24 trial point group operations.

The magnetic configuration has the point symmetry C_3 .

 Subroutine INISYM returns: Found  3 space group operations
 (whereof  3 operations are pure point group operations),
 and found     1 'primitive' translations

 KPOINTS: Kpoints from vasprun.xml

Automatic generation of k-mesh.
Space group operators:
 irot       det(A)        alpha          n_x          n_y          n_z        tau_x        tau_y        tau_z
    1     1.000000     0.000000     1.000000     0.000000     0.000000     0.000000     0.000000     0.000000
    2     1.000000   120.000000     0.000000     0.000000     1.000000     0.000000     0.000000     0.000000
    3     1.000000   120.000000     0.000000     0.000000    -1.000000     0.000000     0.000000     0.000000

 Subroutine IBZKPT returns following result:

 Found      5 irreducible k-points:

 Following reciprocal coordinates:
            Coordinates               Weight
  0.000000  0.000000  0.000000      1.000000
  0.200000  0.000000  0.000000      6.000000
  0.400000  0.000000  0.000000      6.000000
  0.400000  0.200000  0.000000      6.000000
 -0.400000  0.200000  0.000000      6.000000

 Following cartesian coordinates:
            Coordinates               Weight
  0.000000  0.000000  0.000000      1.000000
  0.028953 -0.016716  0.000000      6.000000
  0.057906 -0.033432  0.000000      6.000000
  0.057906  0.000000  0.000000      6.000000
 -0.057906  0.066864  0.000000      6.000000

 TETIRR: Found     15 inequivalent tetrahedra from      150

 SYSTEM =  unknown system
 POSCAR =  Ni2 Ge P S6

 Startparameter for this run:
   NWRITE =      2    write-flag & timer
   PREC   = accura    normal or accurate (medium, high low for compatibility)
   ISTART =      0    job   : 0-new  1-cont  2-samecut
   ICHARG =      2    charge: 1-file 2-atom 10-const
   ISPIN  =      2    spin polarized calculation?
   LNONCOLLINEAR =      F non collinear calculations
   LSORBIT =      F    spin-orbit coupling
   INIWAV =      1    electr: 0-lowe 1-rand  2-diag
   LASPH  =      F    aspherical Exc in radial PAW
   METAGGA=      F    non-selfconsistent MetaGGA calc.

 Electronic Relaxation 1
   ENCUT  =  520.0 eV  38.22 Ry    6.18 a.u.  12.84 12.84 43.59*2*pi/ulx,y,z
   ENINI  =  520.0     initial cutoff
   ENAUG  =  544.6 eV  augmentation charge cutoff
   NELM   =    400;   NELMIN=  2; NELMDL=  0     # of ELM steps
   EDIFF  = 0.1E-03   stopping-criterion for ELM
   LREAL  =      T    real-space projection
   NLSPLINE    = F    spline interpolate recip. space projectors
   LCOMPAT=      F    compatible to vasp.4.4
   GGA_COMPAT  = T    GGA compatible to vasp.4.4-vasp.4.6
   LMAXPAW     = -100 max onsite density
   LMAXMIX     =    2 max onsite mixed and CHGCAR
   VOSKOWN=      0    Vosko Wilk Nusair interpolation
   ROPT   =   -0.00025  -0.00025  -0.00025  -0.00025
 Ionic relaxation
   EDIFFG = 0.1E-02   stopping-criterion for IOM
   NSW    =     99    number of steps for IOM
   NBLOCK =      1;   KBLOCK =     99    inner block; outer block
   IBRION =      2    ionic relax: 0-MD 1-quasi-New 2-CG
   NFREE  =      1    steps in history (QN), initial steepest desc. (CG)
   ISIF   =      3    stress and relaxation
   IWAVPR =     11    prediction:  0-non 1-charg 2-wave 3-comb
   ISYM   =      2    0-nonsym 1-usesym 2-fastsym
   LCORR  =      T    Harris-Foulkes like correction to forces

   POTIM  = 0.5000    time-step for ionic-motion
   TEIN   =    0.0    initial temperature
   TEBEG  =    0.0;   TEEND  =   0.0 temperature during run
   SMASS  =  -3.00    Nose mass-parameter (am)
   estimated Nose-frequenzy (Omega)   =  0.10E-29 period in steps =****** mass=  -0.109E-26a.u.
   SCALEE = 1.0000    scale energy and forces
   NPACO  =    256;   APACO  = 16.0  distance and # of slots for P.C.
   PSTRESS=    0.0 pullay stress

  Mass of Ions in am
   POMASS =  58.69 72.61 30.97 32.07
  Ionic Valenz
   ZVAL   =  10.00  4.00  5.00  6.00
  Atomic Wigner-Seitz radii
  virtual crystal weights
   VCA    =   1.00  1.00  1.00  1.00
   NELECT =      65.0000    total number of electrons
   NUPDOWN=      -1.0000    fix difference up-down

 DOS related values:
   EMIN   =  10.00;   EMAX   =-10.00  energy-range for DOS
   EFERMI =   0.00
   ISMEAR =    -5;   SIGMA  =   0.05  broadening in eV -4-tet -1-fermi 0-gaus

 Electronic relaxation 2 (details)
   IALGO  =     38    algorithm
   LDIAG  =      T    sub-space diagonalisation (order eigenvalues)
   LSUBROT=      F    optimize rotation matrix (better conditioning)
   TURBO    =      0    0=normal 1=particle mesh
   IRESTART =      0    0=no restart 2=restart with 2 vectors
   NREBOOT  =      0    no. of reboots
   NMIN     =      0    reboot dimension
   EREF     =   0.00    reference energy to select bands
   IMIX   =      4    mixing-type and parameters
     AMIX     =   0.40;   BMIX     =  1.00
     AMIX_MAG =   1.60;   BMIX_MAG =  1.00
     AMIN     =   0.01
     WC   =   100.;   INIMIX=   1;  MIXPRE=   1;  MAXMIX= -45

 Intra band minimization:
   WEIMIN = 0.0010     energy-eigenvalue tresh-hold
   EBREAK =  0.52E-06  absolut break condition
   DEPER  =   0.30     relativ break condition

   TIME   =   0.40     timestep for ELM

  volume/ion in A,a.u.               =      96.88       653.80
  Fermi-wavevector in a.u.,A,eV,Ry     =   0.665216  1.257076  6.020745  0.442512
  Thomas-Fermi vector in A             =   1.739143

 Write flags
[...]
  n-local   426.02437   427.27642   441.27553     0.53331    -0.03101    -0.22535
  augment    -9.34514    -9.34503   -14.60761    -0.00002    -0.00025     0.00020
  Kinetic   671.60987   668.96419   716.46735    -1.56745    -0.10901    -0.49405
  Fock        0.00000     0.00000     0.00000     0.00000     0.00000     0.00000
  Total     -28.92370   -28.92369   -15.91817     0.00000     0.00000     0.00000
  in kB     -47.83156   -47.83155   -26.32411     0.00000     0.00000     0.00000

 VOLUME and BASIS-vectors are now :
  energy-cutoff  :      520.00
  volume of cell :      968.84
      direct lattice vectors                 reciprocal lattice vectors
     6.907777000 -0.000000000  0.000000000     0.144764372 -0.083579742  0.000000000
     3.453888000  5.982310000  0.000000000     0.000000000  0.167159509 -0.000000000
     0.000000000  0.000000000 23.444588000    -0.000000000  0.000000000  0.042653767

[...]

 FORCES acting on ions
    electron-ion (+dipol)            ewald-force                    non-local-force                 convergence-correction
   0.229E-03 0.105E-03 0.991E+01   0.658E-03 0.396E-03 -.101E+02   -.347E-17 0.694E-17 0.159E+00   0.601E-06 0.382E-06 0.154E-01
   -.237E-03 -.127E-03 0.750E+01   -.658E-03 -.396E-03 -.773E+01   0.694E-17 0.694E-17 0.174E+00   -.632E-06 -.356E-06 0.150E-01
   -.793E-04 0.735E-04 0.199E+03   -.141E-03 -.779E-04 -.199E+03   -.694E-17 -.347E-17 -.110E+01   -.528E-07 0.419E-08 0.269E-01
   0.270E-04 0.546E-05 -.235E+03   0.176E-03 0.974E-04 0.233E+03   0.000E+00 0.139E-16 0.278E+01   0.487E-07 0.316E-07 -.249E-01
   -.178E+02 0.150E+00 -.426E+03   0.153E+02 -.146E+00 0.429E+03   0.383E+01 -.697E-02 -.500E+01   -.138E-01 0.132E-02 -.499E-01
   0.904E+01 0.154E+02 -.426E+03   -.778E+01 -.132E+02 0.429E+03   -.192E+01 -.331E+01 -.500E+01   0.806E-02 0.113E-01 -.499E-01
   0.878E+01 -.155E+02 -.426E+03   -.752E+01 0.133E+02 0.429E+03   -.191E+01 0.332E+01 -.500E+01   0.577E-02 -.126E-01 -.499E-01
   0.247E+02 -.160E+00 0.431E+03   -.219E+02 0.154E+00 -.435E+03   -.374E+01 0.950E-02 0.495E+01   0.114E-01 0.142E-02 0.648E-01
   -.125E+02 -.213E+02 0.431E+03   0.111E+02 0.189E+02 -.435E+03   0.188E+01 0.324E+01 0.495E+01   -.447E-02 -.106E-01 0.648E-01
   -.122E+02 0.214E+02 0.431E+03   0.108E+02 -.191E+02 -.435E+03   0.186E+01 -.325E+01 0.495E+01   -.694E-02 0.918E-02 0.648E-01
   -.436E-04 0.337E-04 -.195E+01   0.000E+00 0.355E-14 0.568E-13   0.111E-14 -.444E-15 0.188E+01   0.400E-07 0.132E-06 0.769E-01

 POSITION                                       TOTAL-FORCE (eV/Angst)
      3.45388      1.99410     11.72054         0.000000      0.000000     -0.023505
      6.90778      3.98821     11.72405         0.000000      0.000000     -0.043699
      0.00000      0.00000     10.50824         0.000000      0.000000     -0.540253
      0.00000      0.00000     12.93635         0.000000      0.000000      0.793795
      4.32819      0.00251     13.45138         1.299541     -0.001397     -1.679924
      1.29198      2.23274     13.45138        -0.650980     -1.124737     -1.679924
      4.74152      3.74706     13.45138        -0.648560      1.126134     -1.679924
      6.03348      5.97980      9.99321        -0.981142      0.004026      1.617812
      9.06969      3.74957      9.99321         0.494058      0.847681      1.617812
      5.62015      2.23525      9.99321         0.487085     -0.851707      1.617812
    total drift:                               -0.000044      0.000034      0.000317

  FREE ENERGIE OF THE ION-ELECTRON SYSTEM (eV)
  free  energy   TOTEN  =       -35.01098420 eV

  energy  without entropy=      -35.01098420  energy(sigma->0) =      -35.01098420

[...]

 d Force = 0.6664316E+00[ 0.248E+00, 0.109E+01]  d Energy = 0.7405746E+01-0.674E+01
 d Force =-0.2096899E+03[-0.243E+03,-0.177E+03]  d Ewald  =-0.2638190E+04 0.243E+04

 Steepest descent step on ions:
 trial-energy change:   -7.405746  1 .order   -5.976391  -10.495679   -1.457103
  (g-gl).g = 0.105E+02      g.g   = 0.105E+02  gl.gl    = 0.000E+00
 g(Force)  = 0.120E+01   g(Stress)= 0.929E+01 ortho     = 0.000E+00
 gamma     =   0.00000
 trial     =   1.00000
 opt step  =   1.07963  (harmonic =   1.16121) maximal distance =0.08426270
 next E    =   -42.475469   (d E  =  -7.46448)

[...]

 Conjugate gradient step on ions:
 trial-energy change:   -0.149155  1 .order   -0.148538   -0.235249   -0.061826
  (g-gl).g = 0.389E+00      g.g   = 0.237E+00  gl.gl    = 0.105E+02
 g(Force)  = 0.230E+00   g(Stress)= 0.674E-02 ortho     =-0.152E+00
 gamma     =   0.03708
 trial     =   1.01593
 opt step  =   1.36798  (harmonic =   1.37811) maximal distance =0.05879741
 next E    =   -42.644543   (d E  =  -0.15989)

[...]

 d Force = 0.2623388E-01[ 0.155E-01, 0.370E-01]  d Energy = 0.2848958E-01-0.226E-02
 d Force =-0.2191581E+01[-0.214E+01,-0.225E+01]  d Ewald  = 0.1605758E+03-0.163E+03

 Conjugate gradient step on ions:
 trial-energy change:   -0.028490  1 .order   -0.028379   -0.052729   -0.004029
  (g-gl).g = 0.270E-01      g.g   = 0.479E-01  gl.gl    = 0.237E+00
 g(Force)  = 0.327E-01   g(Stress)= 0.152E-01 ortho     = 0.548E-02
 gamma     =   0.11404
 trial     =   1.08634
 opt step  =   1.17621  (harmonic =   1.17621) maximal distance =0.01690797
 next E    =   -42.674460   (d E  =  -0.02855)

[...]

 d Force =-0.1038319E-01[-0.253E-01, 0.454E-02]  d Energy =-0.7302661E-02-0.308E-02
 d Force =-0.1829069E+02[-0.183E+02,-0.183E+02]  d Ewald  =-0.1648132E+03 0.147E+03

[...]

 d Force = 0.1036627E-01[ 0.195E-02, 0.188E-01]  d Energy = 0.8342133E-02 0.202E-02
 d Force = 0.1347188E+02[ 0.135E+02, 0.135E+02]  d Ewald  = 0.1224772E+03-0.109E+03

[...]

 d Force = 0.5151958E-02[ 0.514E-02, 0.516E-02]  d Energy =-0.1198192E-02 0.635E-02
 d Force =-0.8123153E+01[-0.807E+01,-0.818E+01]  d Ewald  =-0.8568563E+02 0.776E+02

[...]

 d Force = 0.2762521E-01[ 0.264E-01, 0.288E-01]  d Energy =-0.1016025E-01 0.378E-01
 d Force =-0.7471705E+02[-0.745E+02,-0.749E+02]  d Ewald  =-0.4378449E+03 0.363E+03

[...]

 d Force =-0.1574910E-01[-0.163E-01,-0.152E-01]  d Energy = 0.6503560E-02-0.223E-01
 d Force = 0.4357606E+02[ 0.437E+02, 0.435E+02]  d Ewald  = 0.2628859E+03-0.219E+03

[...]

 Conjugate gradient step on ions:
 trial-energy change:   -0.013689  1 .order   -0.013963   -0.018163   -0.009763
  (g-gl).g = 0.294E-01      g.g   = 0.317E-01  gl.gl    = 0.429E-01
 g(Force)  = 0.135E-01   g(Stress)= 0.182E-01 ortho     =-0.680E-03
 gamma     =   0.68570
 trial     =   0.58081
 opt step  =   1.25591  (harmonic =   1.25591) maximal distance =0.03798385
 next E    =   -42.756913   (d E  =  -0.01964)

[...]

 d Force = 0.5025632E-02[ 0.205E-02, 0.800E-02]  d Energy = 0.6203422E-02-0.118E-02
 d Force =-0.4403226E+02[-0.439E+02,-0.442E+02]  d Ewald  = 0.1671881E+02-0.608E+02

[...]

 d Force = 0.4232577E-03[-0.203E-03, 0.105E-02]  d Energy = 0.6435666E-04 0.359E-03
 d Force =-0.9043557E+01[-0.904E+01,-0.905E+01]  d Ewald  =-0.2959424E+02 0.206E+02

[...]

 d Force = 0.5543812E-03[ 0.565E-03, 0.544E-03]  d Energy = 0.5145866E-03 0.398E-04
 d Force =-0.5610462E+01[-0.561E+01,-0.561E+01]  d Ewald  =-0.4475608E+02 0.391E+02

 Conjugate gradient step on ions:
 trial-energy change:   -0.000515  1 .order   -0.000912   -0.002180    0.000355
  (g-gl).g = 0.256E-02      g.g   = 0.250E-02  gl.gl    = 0.109E-01
 g(Force)  = 0.820E-03   g(Stress)= 0.168E-02 ortho     = 0.112E-02
 gamma     =   0.23421
 trial     =   0.78818
 opt step  =   0.67781  (harmonic =   0.67781) maximal distance =0.00325501
 next E    =   -42.763406   (d E  =  -0.00094)

[...]

 eigenvalue-minimisations  :   992
 total energy-change (2. order) : 0.6750425E-03  (-0.1057797E-03)
 number of electron      64.9999990 magnetization      -0.0225680
 augmentation part        6.2571469 magnetization      -0.0103066

[...]

 Broyden mixing:
  rms(total) = 0.29216E-02    rms(broyden)= 0.29214E-02
  rms(prec ) = 0.35541E-02
  weight for this iteration     100.00

 eigenvalues of (default mixing * dielectric matrix)
  average eigenvalue GAMMA=   0.7575
  1.5473  0.3200  0.4052

[...]

--------------------------------------- Iteration     25(   5)  ---------------------------------------

[...]

 eigenvalue-minimisations  :   896
 total energy-change (2. order) :-0.2684373E-04  (-0.6092548E-05)
 number of electron      64.9999990 magnetization      -0.0225557
 augmentation part        6.2567414 magnetization      -0.0128211

 Free energy of the ion-electron system (eV)
  alpha Z        PSCENC =        40.20990303
  Ewald energy   TEWEN  =     12425.90425630
  -Hartree energ DENC   =    -16132.24450631
  -exchange      EXHF   =         0.00000000
  -V(xc)+E(xc)   XCENC  =       130.17530184
  PAW double counting   =      2554.27045294    -2645.70723094
  entropy T*S    EENTRO =         0.00000000
  eigenvalues    EBANDS =      -528.82430410
  atomic energy  EATOM  =      4113.45303949
  Solvation  Ediel_sol  =         0.00000000
  free energy    TOTEN  =       -42.76308775 eV

  energy without entropy =      -42.76308775  energy(sigma->0) =      -42.76308775

 average (electrostatic) potential at core
  the test charge radii are     0.9791  1.1631  0.9587  0.9698
  (the norm of the test charge is              1.0000)
       1 -50.2441       2 -50.2463       3 -40.0655       4 -93.1931       5 -94.7081
       6 -94.7081       7 -94.7081       8 -94.6259       9 -94.6259      10 -94.6258

 E-fermi :  -2.8327     XC(G=0):  -3.6673     alpha+bet : -2.8177

[...]

 spin component 2

[...]

 k-point     5 :      -0.4000    0.2000    0.0000
  band No.  band energies     occupation
      1     -18.2136      1.00000
      2     -16.6155      1.00000
      3     -16.3662      1.00000
      4     -16.2015      1.00000
      5     -15.9315      1.00000
      6     -15.7052      1.00000
      7     -12.1506      1.00000
      8     -10.7733      1.00000
      9      -8.9162      1.00000
     10      -8.4904      1.00000
     11      -8.2101      1.00000
     12      -7.7177      1.00000
     13      -7.5362      1.00000
     14      -7.0108      1.00000
     15      -6.8035      1.00000
     16      -6.5581      1.00000
     17      -6.4262      1.00000
     18      -6.3669      1.00000
     19      -6.1094      1.00000
     20      -5.9446      1.00000
     21      -5.7981      1.00000
     22      -5.1957      1.00000
     23      -5.0744      1.00000
     24      -4.9514      1.00000
     25      -4.7604      1.00000
     26      -4.5839      1.00000
     27      -4.4877      1.00000
     28      -4.3782      1.00000
     29      -4.1538      1.00000
     30      -4.1191      1.00000
     31      -4.0196      1.00000
     32      -3.1007      1.00000
     33      -2.9329      0.99869
     34      -2.3903      0.00000
     35      -2.1423      0.00000
     36      -1.3345      0.00000
     37      -0.5552      0.00000
     38       0.3595      0.00000
     39       0.6945      0.00000
     40       1.0408      0.00000
     41       1.3113      0.00000
     42       1.4241      0.00000
     43       2.6350      0.00000
     44       2.7412      0.00000
     45       2.8417      0.00000
     46       3.0894      0.00000
     47       3.1039      0.00000
     48       3.6088      0.00000

[...]

 soft charge-density along one line, spin component           2
         0         1         2         3         4         5         6         7         8         9
 total charge-density along one line

------------------------ aborting loop because EDIFF is reached ----------------------------------------

[...]

  FORCE on cell =-STRESS in cart. coord.  units (eV):
  Direction    XX          YY          ZZ          XY          YZ          ZX
  Alpha Z    40.20990    40.20990    40.20990
  Ewald   14779.50028 14779.49734-17133.09594    -0.00228    -0.00064    -0.00115
  Hartree 15526.71441 15526.71541-14918.43898    -0.00048     0.00006     0.00010
  E(xc)    -272.35236  -272.35249  -272.05813     0.00013     0.00000     0.00001
  Local  -31217.93225-31217.93181 31096.45466     0.00232     0.00038     0.00070
  n-local   444.41994   445.74506   448.44171     0.58806     0.34585     0.27345
  augment    -7.75590    -7.75572   -12.50511     0.00000    -0.00025     0.00020
  Kinetic   711.04020   701.32176   750.70169    -4.99726    -1.38531    -1.71746
  Fock        0.00000     0.00000     0.00000     0.00000     0.00000     0.00000
  Total      -0.35316    -0.35316    -0.29020    -0.00000     0.00000    -0.00000
  in kB      -0.83258    -0.83258    -0.68415    -0.00000     0.00000    -0.00000

 VOLUME and BASIS-vectors are now :
  energy-cutoff  :      520.00
  volume of cell :      679.61
      direct lattice vectors                 reciprocal lattice vectors
     5.881119428  0.000000501  0.000000000     0.170035664 -0.098170112 -0.000000000
     2.940559008  5.093198878  0.000000000    -0.000000017  0.196340271  0.000000000
     0.000000000 -0.000000000 22.688593569    -0.000000000  0.000000000  0.044075011

  length of vectors
     5.881119428  5.881119119 22.688593569     0.196340261  0.196340271  0.044075011

 FORCES acting on ions
    electron-ion (+dipol)            ewald-force                    non-local-force                 convergence-correction
   -.917E-04 -.115E-03 -.212E+02   0.927E-03 0.548E-03 0.206E+02   0.144E-16 0.120E-16 0.530E+00   -.304E-07 -.276E-06 0.204E-02
   0.133E-03 0.597E-04 -.192E+02   -.885E-03 -.524E-03 0.186E+02   -.134E-16 -.189E-17 0.547E+00   -.132E-06 -.335E-06 0.373E-02
   -.573E-05 -.851E-04 0.329E+03   -.221E-03 -.124E-03 -.327E+03   0.525E-17 0.270E-16 -.179E+01   -.227E-07 -.127E-07 -.167E-01
   0.599E-04 -.208E-04 -.307E+03   0.266E-03 0.149E-03 0.301E+03   0.128E-16 -.770E-16 0.621E+01   -.404E-07 -.195E-07 0.156E-01
   -.481E+01 -.115E-01 -.602E+03   0.159E+01 0.381E-01 0.606E+03   0.322E+01 0.585E-03 -.395E+01   -.959E-02 -.290E-01 0.236E-01
   0.239E+01 0.417E+01 -.602E+03   -.765E+00 -.140E+01 0.606E+03   -.161E+01 -.279E+01 -.395E+01   -.203E-01 0.228E-01 0.236E-01
   0.241E+01 -.416E+01 -.602E+03   -.830E+00 0.136E+01 0.606E+03   -.161E+01 0.279E+01 -.395E+01   0.299E-01 0.620E-02 0.236E-01
   0.326E+02 -.186E+00 0.607E+03   -.289E+02 0.243E+00 -.611E+03   -.367E+01 -.255E-01 0.358E+01   0.455E-02 -.342E-01 -.166E-01
   -.164E+02 -.281E+02 0.607E+03   0.147E+02 0.249E+02 -.611E+03   0.181E+01 0.319E+01 0.358E+01   -.319E-01 0.132E-01 -.166E-01
   -.161E+02 0.283E+02 0.607E+03   0.143E+02 -.252E+02 -.611E+03   0.186E+01 -.316E+01 0.358E+01   0.273E-01 0.210E-01 -.166E-01
   0.189E-03 -.122E-03 -.442E+01   0.178E-14 0.107E-13 0.000E+00   -.444E-15 0.000E+00 0.440E+01   -.334E-06 -.718E-06 0.255E-01

 POSITION                                       TOTAL-FORCE (eV/Angst)
      2.94056      1.69773     11.47002         0.000000      0.000000     -0.026413
      5.88112      3.39547     11.46697         0.000000      0.000000     -0.015356
      0.00000     -0.00000     10.16939         0.000000      0.000000     -0.067475
      0.00000     -0.00000     12.50332         0.000000      0.000000     -0.104903
      3.85601     -0.00148     12.97436        -0.006889     -0.000956      0.019101
      1.01127      1.75454     12.97436         0.002616      0.006444      0.019101
      3.95440      3.34014     12.97436         0.004273     -0.005488      0.019101
      2.26161      0.00012      9.98399        -0.025185     -0.002830      0.052282
      1.80985      3.13452      9.98399         0.010142      0.023225      0.052282
      4.75020      1.95856      9.98399         0.015043     -0.020396      0.052282
    total drift:                                0.000189     -0.000123      0.001275

  FREE ENERGIE OF THE ION-ELECTRON SYSTEM (eV)
  free  energy   TOTEN  =       -42.76308775 eV

  energy  without entropy=      -42.76308775  energy(sigma->0) =      -42.76308775

 d Force =-0.7619939E-04[-0.735E-04,-0.789E-04]  d Energy = 0.1039752E-03-0.180E-03
 d Force = 0.7830802E+00[ 0.783E+00, 0.783E+00]  d Ewald  = 0.6263979E+01-0.548E+01

 reached required accuracy - stopping structural energy minimisation

 total charge

[...]

 magnetization (x)

# of ion       s       p       d       tot
    1       -0.000   0.001  -0.708  -0.707
    2        0.000  -0.001   0.693   0.692
    3        0.000  -0.000  -0.000  -0.000
    4       -0.000  -0.000   0.000  -0.000
    5        0.000  -0.009   0.000  -0.009
    6       -0.000  -0.007   0.000  -0.007
    7       -0.000   0.013   0.000   0.013
    8       -0.001   0.007   0.000   0.006
    9        0.000   0.007   0.000   0.007
   10        0.001  -0.019   0.000  -0.018
tot         -0.000  -0.008  -0.015  -0.023

 BZINTS: Fermi energy: -2.832658; 65.000000 electrons
         Band energy:-528.824304;  BLOECHL correction: -0.023730