 vasp.5.4.4.18Apr17-6-g9f103f2a35 (build May  1 2020 15:48:39) complex
 executed on             LinuxGNU date 2020.07.06  05:26:19

 INCAR:
 POTCAR:   PAW_PBE Fe 06Sep2000
 POTCAR:    PAW_PBE P 17Jan2003
 POTCAR:   PAW_PBE Se 06Sep2000

 POTCAR:   PAW_PBE Fe 06Sep2000
   VRHFIN =Fe:  d7 s1

   TITEL  = PAW_PBE Fe 06Sep2000
   POMASS =   55.847; ZVAL   =    8.000    mass and valenz
   ENMAX  =  267.883; ENMIN  =  200.912 eV
   QCUT   =   -4.437; QGAM   =    8.874    optimization parameters

   Description
     l     E      TYP  RCUT    TYP  RCUT
     2   .000     23  2.300
     2   .000     23  2.300
     0   .000     23  2.300
     0   .000     23  2.300
     1  -.200     23  2.300
     1   .000     23  2.300
     3   .000      7   .000

 POTCAR:    PAW_PBE P 17Jan2003
   VRHFIN =P : s2p3

   TITEL  = PAW_PBE P 17Jan2003
   POMASS =   30.974; ZVAL   =    5.000    mass and valenz
   ENMAX  =  270.000; ENMIN  =  191.280 eV
   QCUT   =   -4.330; QGAM   =    8.659    optimization parameters

[...]

 POTCAR:   PAW_PBE Se 06Sep2000
   VRHFIN =Se: s2p4

   TITEL  = PAW_PBE Se 06Sep2000
   POMASS =   78.960; ZVAL   =    6.000    mass and valenz
   ENMAX  =  211.534; ENMIN  =  158.651 eV
   QCUT   =   -3.943; QGAM   =    7.886    optimization parameters

   Description
     l     E      TYP  RCUT    TYP  RCUT
     0   .000     23  2.100
     0   .000     23  2.100
     1   .000     23  2.100
     1   .000     23  2.100
     2   .000     23  2.100
     3  -.100      7  2.100

 Optimization of the real space projectors (new method)

 maximal supplied QI-value         = 16.25
 optimisation between [QCUT,QGAM] = [ 11.54, 23.24] = [ 37.28,151.24] Ry
 Optimized for a Real-space Cutoff    1.53 Angstroem

   l    n(q)    QCUT    max X(q) W(low)/X(q) W(high)/X(q)  e(spline)
   2     10    11.539     4.378    0.86E-05    0.15E-04    0.46E-07
   2     10    11.539    23.237    0.11E-03    0.14E-03    0.22E-06
   0     11    11.539    17.641    0.19E-04    0.14E-05    0.18E-07
   0     11    11.539    50.908    0.43E-04    0.16E-04    0.30E-06
   1     10    11.539     6.148    0.11E-04    0.38E-05    0.26E-07
   1     10    11.539     8.345    0.44E-04    0.25E-04    0.11E-06
 Optimization of the real space projectors (new method)

[...]

   l    n(q)    QCUT    max X(q) W(low)/X(q) W(high)/X(q)  e(spline)
   0      8    11.508     6.651    0.19E-04    0.31E-05    0.49E-08
   0      8    11.508    90.285    0.95E-04    0.17E-03    0.51E-07
   1      8    11.508     4.328    0.14E-04    0.32E-04    0.22E-07
   1      8    11.508    54.583    0.16E-03    0.71E-04    0.89E-07
 Optimization of the real space projectors (new method)

 maximal supplied QI-value         = 17.95
 optimisation between [QCUT,QGAM] = [ 11.67, 23.34] = [ 38.13,152.52] Ry
 Optimized for a Real-space Cutoff    1.25 Angstroem

   l    n(q)    QCUT    max X(q) W(low)/X(q) W(high)/X(q)  e(spline)
   0      9    11.669     6.499    0.13E-04    0.81E-05    0.11E-07
   0      9    11.669    52.623    0.18E-03    0.46E-04    0.72E-07
   1      8    11.669     4.229    0.40E-04    0.45E-04    0.31E-07
   1      8    11.669    29.991    0.22E-03    0.36E-03    0.10E-06
   2      8    11.669     3.719    0.19E-03    0.46E-04    0.50E-07

 PAW_PBE Fe 06Sep2000                   :
  PAW_PBE P 17Jan2003                   :
 PAW_PBE Se 06Sep2000                   :

 POSCAR: Fe2 P2 Se6
  positions in direct lattice
  velocities in cartesian coordinates
 exchange correlation table for  LEXCH =       42
   RHO(1)=    0.500       N(1)  =     2000
   RHO(2)=  100.500       N(2)  =     4000

 ion  position               nearest neighbor table
   1  0.333  0.333  0.500-   6 2.78   5 2.78   7 2.78   8 2.78  10 2.78   9 2.78
   2  0.667  0.667  0.500-   9 2.78   8 2.78  10 2.78   5 2.78   7 2.78   6 2.78
   3  0.000  0.000  0.448-   4 2.43   8 2.63  10 2.63   9 2.63
   4  0.000  0.000  0.552-   3 2.43   5 2.63   7 2.63   6 2.63
   5  0.626  0.000  0.574-   4 2.63   1 2.78   2 2.78
   6  0.000  0.373  0.574-   4 2.63   1 2.78   2 2.78
   7  0.373  0.626  0.574-   4 2.63   1 2.78   2 2.78
   8  0.374  1.000  0.426-   3 2.63   2 2.78   1 2.78
   9  1.000  0.627  0.426-   3 2.63   2 2.78   1 2.78
  10  0.627  0.374  0.426-   3 2.63   2 2.78   1 2.78

  LATTYP: Found a hexagonal cell.
 ALAT       =     6.9077769333
 C/A-ratio  =     3.3939410937

  Lattice vectors:

 A1 = (   3.4538890000,  -5.9823100000,   0.0000000000)
 A2 = (  -6.9077770000,   0.0000000000,   0.0000000000)
 A3 = (   0.0000000000,   0.0000000000, -23.4445880000)

Analysis of symmetry for initial positions (statically):
 Subroutine PRICEL returns:
 Original cell was already a primitive cell.

 Routine SETGRP: Setting up the symmetry group for a
 hexagonal supercell.

 Subroutine GETGRP returns: Found  6 space group operations
 (whereof  6 operations were pure point group operations)
 out of a pool of 24 trial point group operations.

The static configuration has the point symmetry S_6 .

Analysis of symmetry for dynamics (positions and initial velocities):
 Subroutine PRICEL returns:
 Original cell was already a primitive cell.

[...]

The dynamic configuration has the point symmetry S_6 .

Analysis of constrained symmetry for selective dynamics:
 Subroutine PRICEL returns:
 Original cell was already a primitive cell.

[...]

The constrained configuration has the point symmetry S_6 .

Analysis of structural, dynamic, and magnetic symmetry:
 Subroutine PRICEL returns:
 Original cell was already a primitive cell.

 Routine SETGRP: Setting up the symmetry group for a
 hexagonal supercell.

 Subroutine GETGRP returns: Found  6 space group operations
 (whereof  6 operations were pure point group operations)
 out of a pool of 24 trial point group operations.

The magnetic configuration has the point symmetry S_6 .

 Subroutine INISYM returns: Found  6 space group operations
 (whereof  6 operations are pure point group operations),
 and found     1 'primitive' translations

 KPOINTS: Kpoints from vasprun.xml

Automatic generation of k-mesh.
Space group operators:
 irot       det(A)        alpha          n_x          n_y          n_z        tau_x        tau_y        tau_z
    1     1.000000     0.000000     1.000000     0.000000     0.000000     0.000000     0.000000     0.000000
    2    -1.000000     0.000000     1.000000     0.000000     0.000000     0.000000     0.000000     0.000000
    3     1.000000   120.000000     0.000000     0.000000     1.000000     0.000000     0.000000     0.000000
    4    -1.000000   120.000000     0.000000     0.000000     1.000000     0.000000     0.000000     0.000000
    5     1.000000   120.000000     0.000000     0.000000    -1.000000     0.000000     0.000000     0.000000
    6    -1.000000   120.000000     0.000000     0.000000    -1.000000     0.000000     0.000000     0.000000

 Subroutine IBZKPT returns following result:

 Found      5 irreducible k-points:

 Following reciprocal coordinates:
            Coordinates               Weight
  0.000000  0.000000  0.000000      1.000000
  0.200000  0.000000  0.000000      6.000000
  0.400000  0.000000  0.000000      6.000000
  0.400000  0.200000  0.000000      6.000000
 -0.400000  0.200000  0.000000      6.000000

 Following cartesian coordinates:
            Coordinates               Weight
  0.000000  0.000000  0.000000      1.000000
  0.028953 -0.016716  0.000000      6.000000
  0.057906 -0.033432  0.000000      6.000000
  0.057906  0.000000  0.000000      6.000000
 -0.057906  0.066864  0.000000      6.000000

 TETIRR: Found     15 inequivalent tetrahedra from      150

 SYSTEM =  unknown system
 POSCAR =  Fe2 P2 Se6

 Startparameter for this run:
   NWRITE =      2    write-flag & timer
   PREC   = accura    normal or accurate (medium, high low for compatibility)
   ISTART =      0    job   : 0-new  1-cont  2-samecut
   ICHARG =      2    charge: 1-file 2-atom 10-const
   ISPIN  =      2    spin polarized calculation?
   LNONCOLLINEAR =      F non collinear calculations
   LSORBIT =      F    spin-orbit coupling
   INIWAV =      1    electr: 0-lowe 1-rand  2-diag
   LASPH  =      F    aspherical Exc in radial PAW
   METAGGA=      F    non-selfconsistent MetaGGA calc.

 Electronic Relaxation 1
   ENCUT  =  520.0 eV  38.22 Ry    6.18 a.u.  12.84 12.84 43.59*2*pi/ulx,y,z
   ENINI  =  520.0     initial cutoff
   ENAUG  =  511.4 eV  augmentation charge cutoff
   NELM   =    400;   NELMIN=  2; NELMDL=  0     # of ELM steps
   EDIFF  = 0.1E-03   stopping-criterion for ELM
   LREAL  =      T    real-space projection
   NLSPLINE    = F    spline interpolate recip. space projectors
   LCOMPAT=      F    compatible to vasp.4.4
   GGA_COMPAT  = T    GGA compatible to vasp.4.4-vasp.4.6
   LMAXPAW     = -100 max onsite density
   LMAXMIX     =    2 max onsite mixed and CHGCAR
   VOSKOWN=      0    Vosko Wilk Nusair interpolation
   ROPT   =   -0.00025  -0.00025  -0.00025
 Ionic relaxation
   EDIFFG = 0.1E-02   stopping-criterion for IOM
   NSW    =     99    number of steps for IOM
   NBLOCK =      1;   KBLOCK =     99    inner block; outer block
   IBRION =      2    ionic relax: 0-MD 1-quasi-New 2-CG
   NFREE  =      1    steps in history (QN), initial steepest desc. (CG)
   ISIF   =      3    stress and relaxation
   IWAVPR =     11    prediction:  0-non 1-charg 2-wave 3-comb
   ISYM   =      2    0-nonsym 1-usesym 2-fastsym
   LCORR  =      T    Harris-Foulkes like correction to forces

   POTIM  = 0.5000    time-step for ionic-motion
   TEIN   =    0.0    initial temperature
   TEBEG  =    0.0;   TEEND  =   0.0 temperature during run
   SMASS  =  -3.00    Nose mass-parameter (am)
   estimated Nose-frequenzy (Omega)   =  0.10E-29 period in steps =****** mass=  -0.109E-26a.u.
   SCALEE = 1.0000    scale energy and forces
   NPACO  =    256;   APACO  = 16.0  distance and # of slots for P.C.
   PSTRESS=    0.0 pullay stress

  Mass of Ions in am
   POMASS =  55.85 30.97 78.96
  Ionic Valenz
   ZVAL   =   8.00  5.00  6.00
  Atomic Wigner-Seitz radii
  virtual crystal weights
   VCA    =   1.00  1.00  1.00
   NELECT =      62.0000    total number of electrons
   NUPDOWN=      -1.0000    fix difference up-down

 DOS related values:
   EMIN   =  10.00;   EMAX   =-10.00  energy-range for DOS
   EFERMI =   0.00
   ISMEAR =    -5;   SIGMA  =   0.05  broadening in eV -4-tet -1-fermi 0-gaus

 Electronic relaxation 2 (details)
   IALGO  =     38    algorithm
   LDIAG  =      T    sub-space diagonalisation (order eigenvalues)
   LSUBROT=      F    optimize rotation matrix (better conditioning)
   TURBO    =      0    0=normal 1=particle mesh
   IRESTART =      0    0=no restart 2=restart with 2 vectors
   NREBOOT  =      0    no. of reboots
   NMIN     =      0    reboot dimension
   EREF     =   0.00    reference energy to select bands
   IMIX   =      4    mixing-type and parameters
     AMIX     =   0.40;   BMIX     =  1.00
     AMIX_MAG =   1.60;   BMIX_MAG =  1.00
     AMIN     =   0.01
     WC   =   100.;   INIMIX=   1;  MIXPRE=   1;  MAXMIX= -45

 Intra band minimization:
   WEIMIN = 0.0010     energy-eigenvalue tresh-hold
   EBREAK =  0.52E-06  absolut break condition
   DEPER  =   0.30     relativ break condition

[...]
  Kinetic   629.05131   627.07276   665.78633    -2.62161     0.00793    -0.18266
  Fock        0.00000     0.00000     0.00000     0.00000     0.00000     0.00000
  Total     -21.59709   -21.59709   -14.40921     0.00000     0.00000     0.00000
  in kB     -35.71544   -35.71544   -23.82874     0.00000     0.00000     0.00000

 VOLUME and BASIS-vectors are now :
  energy-cutoff  :      520.00
  volume of cell :      968.84
      direct lattice vectors                 reciprocal lattice vectors
     6.907777000 -0.000000000  0.000000000     0.144764372 -0.083579742  0.000000000
     3.453888000  5.982310000  0.000000000     0.000000000  0.167159509 -0.000000000
     0.000000000  0.000000000 23.444588000    -0.000000000  0.000000000  0.042653767

[...]

 FORCES acting on ions
    electron-ion (+dipol)            ewald-force                    non-local-force                 convergence-correction
   0.174E-03 0.840E-04 0.928E+00   0.484E-03 0.288E-03 -.916E+00   -.139E-16 -.139E-16 -.104E-01   0.526E-06 0.287E-06 0.264E-03
   -.174E-03 -.840E-04 -.928E+00   -.484E-03 -.288E-03 0.916E+00   0.278E-16 0.139E-16 0.104E-01   -.526E-06 -.287E-06 -.264E-03
   -.385E-04 -.175E-04 0.229E+03   -.176E-03 -.974E-04 -.230E+03   0.104E-16 0.347E-17 0.187E+01   0.268E-07 0.102E-07 0.169E+00
   0.385E-04 0.175E-04 -.229E+03   0.176E-03 0.974E-04 0.230E+03   0.642E-16 -.347E-17 -.187E+01   -.268E-07 -.102E-07 -.169E+00
   -.528E+01 0.144E+00 -.395E+03   0.453E+01 -.143E+00 0.397E+03   0.165E+01 -.506E-02 -.227E+01   -.924E-01 -.533E-04 -.389E+00
   0.277E+01 0.450E+01 -.395E+03   -.239E+01 -.385E+01 0.397E+03   -.828E+00 -.142E+01 -.227E+01   0.461E-01 0.800E-01 -.389E+00
   0.251E+01 -.465E+01 -.395E+03   -.214E+01 0.400E+01 0.397E+03   -.819E+00 0.143E+01 -.227E+01   0.462E-01 -.800E-01 -.389E+00
   0.528E+01 -.144E+00 0.395E+03   -.453E+01 0.143E+00 -.397E+03   -.165E+01 0.506E-02 0.227E+01   0.924E-01 0.533E-04 0.389E+00
   -.277E+01 -.450E+01 0.395E+03   0.239E+01 0.385E+01 -.397E+03   0.828E+00 0.142E+01 0.227E+01   -.461E-01 -.800E-01 0.389E+00
   -.251E+01 0.465E+01 0.395E+03   0.214E+01 -.400E+01 -.397E+03   0.819E+00 -.143E+01 0.227E+01   -.462E-01 0.800E-01 0.389E+00
   0.154E-10 -.986E-10 0.221E-09   0.102E-13 -.266E-14 -.171E-12   -.222E-15 0.000E+00 0.888E-15   -.610E-14 -.196E-13 0.443E-11

 POSITION                                       TOTAL-FORCE (eV/Angst)
      3.45388      1.99410     11.72054         0.000000      0.000000      0.002125
      6.90778      3.98821     11.72405        -0.000000     -0.000000     -0.002125
      0.00000      0.00000     10.50824         0.000000      0.000000      0.362939
      0.00000      0.00000     12.93635        -0.000000     -0.000000     -0.362939
      4.32819      0.00251     13.45138         0.806251     -0.003191     -1.076170
      1.29198      2.23274     13.45138        -0.405888     -0.696638     -1.076170
      4.74152      3.74706     13.45138        -0.400362      0.699829     -1.076170
      6.03348      5.97980      9.99321        -0.806251      0.003191      1.076170
      9.06969      3.74957      9.99321         0.405888      0.696638      1.076170
      5.62015      2.23525      9.99321         0.400362     -0.699829      1.076170
    total drift:                                0.000000     -0.000000      0.000000

  FREE ENERGIE OF THE ION-ELECTRON SYSTEM (eV)
  free  energy   TOTEN  =       -40.24908445 eV

  energy  without entropy=      -40.24908445  energy(sigma->0) =      -40.24908445

[...]

 d Force = 0.3508603E+00[ 0.209E+00, 0.492E+00]  d Energy = 0.3836602E+01-0.349E+01
 d Force =-0.1375308E+03[-0.153E+03,-0.122E+03]  d Ewald  =-0.1505008E+04 0.137E+04

 Steepest descent step on ions:
 trial-energy change:   -3.836602  1 .order   -3.846225   -6.038148   -1.654301
  (g-gl).g = 0.604E+01      g.g   = 0.604E+01  gl.gl    = 0.000E+00
 g(Force)  = 0.536E+00   g(Stress)= 0.550E+01 ortho     = 0.000E+00
 gamma     =   0.00000
 trial     =   1.00000
 opt step  =   1.37736  (harmonic =   1.37736) maximal distance =0.07150894
 next E    =   -44.407445   (d E  =  -4.15836)

[...]

 d Force =-0.9436455E-02[-0.101E+00, 0.823E-01]  d Energy =-0.2534121E+00 0.244E+00
 d Force =-0.6350686E+02[-0.665E+02,-0.605E+02]  d Ewald  =-0.7035707E+03 0.640E+03

[...]

 d Force = 0.2521597E-01[-0.200E-01, 0.705E-01]  d Energy = 0.3825726E+00-0.357E+00
 d Force = 0.4407200E+02[ 0.427E+02, 0.455E+02]  d Ewald  = 0.4692410E+03-0.425E+03

[...]

 d Force = 0.6276889E-01[ 0.262E-01, 0.993E-01]  d Energy = 0.1365553E+00-0.738E-01
 d Force =-0.7764278E+02[-0.773E+02,-0.780E+02]  d Ewald  = 0.3400081E+03-0.418E+03

 Conjugate gradient step on ions:
 trial-energy change:   -0.136555  1 .order   -0.130853   -0.221364   -0.040342
  (g-gl).g = 0.419E-01      g.g   = 0.214E+00  gl.gl    = 0.604E+01
 g(Force)  = 0.977E-01   g(Stress)= 0.117E+00 ortho     = 0.173E+00
 gamma     =   0.00694
 trial     =   1.02629
 opt step  =   1.21324  (harmonic =   1.25501) maximal distance =0.02791400
 next E    =   -44.355111   (d E  =  -0.14026)

[...]

 d Force = 0.3988047E-01[ 0.469E-02, 0.751E-01]  d Energy = 0.4309565E-01-0.322E-02
 d Force =-0.2109839E+02[-0.207E+02,-0.215E+02]  d Ewald  = 0.2248644E+03-0.246E+03

 Conjugate gradient step on ions:
 trial-energy change:   -0.043096  1 .order   -0.045949   -0.093579    0.001681
  (g-gl).g = 0.795E-01      g.g   = 0.864E-01  gl.gl    = 0.214E+00
 g(Force)  = 0.668E-01   g(Stress)= 0.196E-01 ortho     = 0.435E-02
 gamma     =   0.37054
 trial     =   1.06368
 opt step  =   1.04091  (harmonic =   1.04491) maximal distance =0.03400068
 next E    =   -44.398566   (d E  =  -0.04311)

[...]

 d Force =-0.1170633E-03[-0.135E-03,-0.992E-04]  d Energy = 0.3552262E-03-0.472E-03
 d Force = 0.4456756E+00[ 0.446E+00, 0.445E+00]  d Ewald  =-0.4756192E+01 0.520E+01

[...]

 d Force = 0.1306412E-02[ 0.211E-04, 0.259E-02]  d Energy = 0.1318087E-02-0.117E-04
 d Force =-0.4363569E+01[-0.438E+01,-0.435E+01]  d Ewald  =-0.6076473E+01 0.171E+01

 Conjugate gradient step on ions:
 trial-energy change:   -0.001318  1 .order   -0.001712   -0.006368    0.002943
  (g-gl).g = 0.127E-01      g.g   = 0.629E-02  gl.gl    = 0.864E-01
 g(Force)  = 0.158E-02   g(Stress)= 0.471E-02 ortho     =-0.188E-02
 gamma     =   0.14756
 trial     =   1.05913
 opt step  =   0.72436  (harmonic =   0.72436) maximal distance =0.00401224
 next E    =   -44.401081   (d E  =  -0.00218)

[...]

 d Force =-0.1546925E-03[-0.303E-03,-0.591E-05]  d Energy = 0.4457641E-03-0.600E-03
 d Force = 0.1388184E+01[ 0.139E+01, 0.139E+01]  d Ewald  = 0.1921712E+01-0.534E+00

[...]

 d Force = 0.1274887E-02[ 0.405E-03, 0.215E-02]  d Energy = 0.1331130E-02-0.562E-04
 d Force = 0.2922111E+01[ 0.292E+01, 0.293E+01]  d Ewald  =-0.7175794E+01 0.101E+02

[...]

 d Force = 0.1301592E-04[-0.920E-04, 0.118E-03]  d Energy = 0.6764297E-04-0.546E-04
 d Force = 0.8493051E+00[ 0.849E+00, 0.850E+00]  d Ewald  =-0.2095541E+01 0.294E+01

[...]

 d Force =-0.3620135E-06[-0.950E-04, 0.942E-04]  d Energy =-0.3992378E-03 0.399E-03
 d Force = 0.4103625E+01[ 0.411E+01, 0.410E+01]  d Ewald  =-0.1770937E+02 0.218E+02

 Conjugate gradient step on ions:
 trial-energy change:    0.000399  1 .order    0.000213   -0.000673    0.001100
  (g-gl).g = 0.112E-02      g.g   = 0.751E-03  gl.gl    = 0.264E-02
 g(Force)  = 0.224E-03   g(Stress)= 0.527E-03 ortho     =-0.260E-03
 gamma     =   0.42214
 trial     =   1.05003
 opt step  =   0.39867  (harmonic =   0.39867) maximal distance =0.00067376
 next E    =   -44.402194   (d E  =  -0.00013)

[...]

 eigenvalue-minimisations  :  1184
 total energy-change (2. order) :-0.5593188E-02  (-0.3072959E-02)
 number of electron      62.0000005 magnetization      -0.0000000
 augmentation part        0.4638561 magnetization      -0.0000014

[...]

 Broyden mixing:
  rms(total) = 0.33849E-02    rms(broyden)= 0.33849E-02
  rms(prec ) = 0.38773E-02
  weight for this iteration     100.00

 eigenvalues of (default mixing * dielectric matrix)
  average eigenvalue GAMMA=   1.0017
  0.2240  1.1001  1.6810

[...]

--------------------------------------- Iteration     14(   5)  ---------------------------------------

[...]

 eigenvalue-minimisations  :   656
 total energy-change (2. order) : 0.6198507E-05  (-0.3201107E-05)
 number of electron      62.0000005 magnetization      -0.0000000
 augmentation part        0.5875319 magnetization       0.0000016

 Free energy of the ion-electron system (eV)
  alpha Z        PSCENC =        50.66379759
  Ewald energy   TEWEN  =      8657.40098280
  -Hartree energ DENC   =    -11470.72990263
  -exchange      EXHF   =         0.00000000
  -V(xc)+E(xc)   XCENC  =         6.90641458
  PAW double counting   =      1864.61196007    -1775.81074456
  entropy T*S    EENTRO =         0.00000000
  eigenvalues    EBANDS =      -474.80197773
  atomic energy  EATOM  =      3097.35731227
  Solvation  Ediel_sol  =         0.00000000
  free energy    TOTEN  =       -44.40215761 eV

  energy without entropy =      -44.40215761  energy(sigma->0) =      -44.40215761

 average (electrostatic) potential at core
  the test charge radii are     1.0103  0.9587  1.0808
  (the norm of the test charge is              1.0000)
       1 -50.7412       2 -50.7412       3 -92.6214       4 -92.6214       5 -61.2056
       6 -61.2056       7 -61.2055       8 -61.2056       9 -61.2056      10 -61.2055

 E-fermi :  -2.1745     XC(G=0):  -3.7409     alpha+bet : -2.9728

[...]

 spin component 2

[...]

 k-point     5 :      -0.4000    0.2000    0.0000
  band No.  band energies     occupation
      1     -17.5180      1.00000
      2     -16.3915      1.00000
      3     -16.1759      1.00000
      4     -16.0023      1.00000
      5     -15.5966      1.00000
      6     -15.4735      1.00000
      7     -13.1075      1.00000
      8     -11.2809      1.00000
      9      -8.3973      1.00000
     10      -7.9353      1.00000
     11      -7.8655      1.00000
     12      -7.3375      1.00000
     13      -6.9992      1.00000
     14      -6.3924      1.00000
     15      -6.0021      1.00000
     16      -5.8031      1.00000
     17      -5.7662      1.00000
     18      -5.6293      1.00000
     19      -5.5775      1.00000
     20      -5.1048      1.00000
     21      -5.0329      1.00000
     22      -4.5588      1.00000
     23      -4.0796      1.00000
     24      -4.0088      1.00000
     25      -3.7295      1.00000
     26      -3.4070      1.00000
     27      -2.7032      1.00000
     28      -2.6991      1.00000
     29      -2.3881      1.00000
     30      -2.3001      1.00000
     31      -2.2569      1.00000
     32      -2.0069      0.00000
     33      -1.1675      0.00000
     34      -1.1067      0.00000
     35      -0.6417      0.00000
     36      -0.3822      0.00000
     37      -0.3542      0.00000
     38      -0.1375      0.00000
     39       0.5026      0.00000
     40       0.7189      0.00000
     41       1.0927      0.00000
     42       1.1526      0.00000
     43       2.8563      0.00000
     44       3.0584      0.00000
     45       3.0764      0.00000
     46       3.1411      0.00000
     47       3.3730      0.00000
     48       3.7699      0.00000

[...]

 soft charge-density along one line, spin component           2
         0         1         2         3         4         5         6         7         8         9
 total charge-density along one line

------------------------ aborting loop because EDIFF is reached ----------------------------------------

[...]

  FORCE on cell =-STRESS in cart. coord.  units (eV):
  Direction    XX          YY          ZZ          XY          YZ          ZX
  Alpha Z    50.66380    50.66380    50.66380
  Ewald   10672.01564 10672.01258-12686.63004    -0.00182    -0.00060    -0.00107
  Hartree 11163.18899 11163.18972-10855.38781    -0.00015     0.00008     0.00012
  E(xc)    -249.80432  -249.80434  -250.02595     0.00004     0.00001     0.00001
  Local  -22628.87788-22628.87695 22704.91817     0.00152     0.00032     0.00059
  n-local   299.75437   300.21650   307.39165     0.02038    -0.18926    -0.12214
  augment    30.18869    30.18883    25.64453    -0.00004     0.00005     0.00003
  Kinetic   666.00183   659.58271   703.59192    -3.73152     0.87473     0.95014
  Fock        0.00000     0.00000     0.00000     0.00000     0.00000     0.00000
  Total       0.15198     0.15198     0.16627     0.00000     0.00000    -0.00000
  in kB       0.35445     0.35445     0.38779     0.00000     0.00000    -0.00000

 VOLUME and BASIS-vectors are now :
  energy-cutoff  :      520.00
  volume of cell :      686.96
      direct lattice vectors                 reciprocal lattice vectors
     6.166259826  0.000000002 -0.000000000     0.162172861 -0.093630539 -0.000000000
     3.083129577  5.340137412 -0.000000000    -0.000000000  0.187261099  0.000000000
     0.000000000 -0.000000000 20.862031001     0.000000000  0.000000000  0.047933972

  length of vectors
     6.166259826  6.166259447 20.862031001     0.187261087  0.187261099  0.047933972

 FORCES acting on ions
    electron-ion (+dipol)            ewald-force                    non-local-force                 convergence-correction
   -.118E-03 -.656E-04 0.674E+00   0.652E-03 0.386E-03 -.681E+00   0.139E-16 -.347E-21 0.992E-02   -.593E-07 -.106E-06 -.525E-03
   0.118E-03 0.656E-04 -.674E+00   -.652E-03 -.386E-03 0.681E+00   0.416E-16 0.347E-21 -.992E-02   0.593E-07 0.106E-06 0.525E-03
   -.495E-04 -.320E-04 0.304E+03   -.230E-03 -.129E-03 -.304E+03   -.352E-20 -.208E-16 -.606E+00   -.294E-07 -.804E-08 -.549E-02
   0.495E-04 0.320E-04 -.304E+03   0.230E-03 0.129E-03 0.304E+03   0.352E-20 0.692E-17 0.606E+00   0.294E-07 0.804E-08 0.549E-02
   -.119E+02 -.901E-01 -.494E+03   0.948E+01 0.933E-01 0.496E+03   0.243E+01 -.511E-02 -.239E+01   0.590E-02 -.283E-04 0.136E-01
   0.587E+01 0.103E+02 -.494E+03   -.466E+01 -.825E+01 0.496E+03   -.122E+01 -.210E+01 -.239E+01   -.297E-02 -.509E-02 0.136E-01
   0.603E+01 -.103E+02 -.494E+03   -.482E+01 0.816E+01 0.496E+03   -.121E+01 0.211E+01 -.239E+01   -.292E-02 0.512E-02 0.136E-01
   0.119E+02 0.901E-01 0.494E+03   -.948E+01 -.933E-01 -.496E+03   -.243E+01 0.511E-02 0.239E+01   -.590E-02 0.283E-04 -.136E-01
   -.587E+01 -.103E+02 0.494E+03   0.466E+01 0.825E+01 -.496E+03   0.122E+01 0.210E+01 0.239E+01   0.297E-02 0.509E-02 -.136E-01
   -.603E+01 0.103E+02 0.494E+03   0.482E+01 -.816E+01 -.496E+03   0.121E+01 -.211E+01 0.239E+01   0.292E-02 -.512E-02 -.136E-01
   0.167E-09 0.435E-09 -.442E-09   -.124E-13 0.000E+00 0.114E-12   -.222E-15 0.000E+00 -.444E-15   0.527E-13 -.674E-13 0.404E-10

 POSITION                                       TOTAL-FORCE (eV/Angst)
      3.08313      1.78004     10.42940        -0.000000      0.000000      0.002726
      6.16626      3.56009     10.43263        -0.000000     -0.000000     -0.002726
      0.00000     -0.00000      9.34467        -0.000000      0.000000      0.005139
      0.00000     -0.00000     11.51736        -0.000000     -0.000000     -0.005139
      3.85864      0.00057     11.87707         0.017008     -0.001305      0.021359
      1.15431      1.99818     11.87707        -0.009634     -0.014077      0.021359
      4.23645      3.34139     11.87707        -0.007374      0.015382      0.021359
      5.39075      5.33956      8.98496        -0.017008      0.001305     -0.021359
      8.09508      3.34196      8.98496         0.009634      0.014077     -0.021359
      5.01294      1.99875      8.98496         0.007374     -0.015382     -0.021359
    total drift:                                0.000000      0.000000     -0.000000

  FREE ENERGIE OF THE ION-ELECTRON SYSTEM (eV)
  free  energy   TOTEN  =       -44.40215761 eV

  energy  without entropy=      -44.40215761  energy(sigma->0) =      -44.40215761

 d Force = 0.1978559E-04[-0.196E-04, 0.592E-04]  d Energy = 0.4906169E-03-0.471E-03
 d Force =-0.2548373E+01[-0.255E+01,-0.255E+01]  d Ewald  = 0.1099178E+02-0.135E+02

 reached required accuracy - stopping structural energy minimisation

 total charge

[...]

 magnetization (x)

# of ion       s       p       d       tot
    1       -0.000   0.000  -0.000  -0.000
    2       -0.000   0.000  -0.000  -0.000
    3        0.000   0.000   0.000   0.000
    4        0.000   0.000   0.000   0.000
    5       -0.000   0.000   0.000   0.000
    6       -0.000  -0.000   0.000  -0.000
    7       -0.000   0.000  -0.000   0.000
    8       -0.000   0.000   0.000   0.000
    9       -0.000  -0.000   0.000  -0.000
   10       -0.000   0.000  -0.000   0.000
tot         -0.000   0.000  -0.000  -0.000

 BZINTS: Fermi energy: -2.174508; 62.000000 electrons
         Band energy:-474.801978;  BLOECHL correction:  0.000000