 vasp.5.4.4.18Apr17-6-g9f103f2a35 (build May  1 2020 15:48:39) complex
 executed on             LinuxGNU date 2020.06.20  05:30:26

 INCAR:
 POTCAR:   PAW_PBE Ni 06Sep2000
 POTCAR:   PAW_PBE Si 05Jan2001
 POTCAR:    PAW_PBE P 17Jan2003
 POTCAR:   PAW_PBE Te 08Apr2002

 POTCAR:   PAW_PBE Ni 06Sep2000
   VRHFIN =Ni:

   TITEL  = PAW_PBE Ni 06Sep2000
   POMASS =   58.690; ZVAL   =   10.000    mass and valenz
   ENMAX  =  269.533; ENMIN  =  202.150 eV
   QCUT   =   -4.451; QGAM   =    8.902    optimization parameters

   Description
     l     E      TYP  RCUT    TYP  RCUT
     2   .000     23  2.300
     2   .000     23  2.300
     0   .000     23  2.300
     0   .000     23  2.300
     1  -.200     23  2.300
     1   .000     23  2.300
     3   .000      7   .000

 POTCAR:   PAW_PBE Si 05Jan2001
   VRHFIN =Si: s2p2

   TITEL  = PAW_PBE Si 05Jan2001
   POMASS =   28.085; ZVAL   =    4.000    mass and valenz
   ENMAX  =  245.345; ENMIN  =  184.009 eV
   QCUT   =   -4.246; QGAM   =    8.493    optimization parameters

[...]

 POTCAR:    PAW_PBE P 17Jan2003
   VRHFIN =P : s2p3

   TITEL  = PAW_PBE P 17Jan2003
   POMASS =   30.974; ZVAL   =    5.000    mass and valenz
   ENMAX  =  270.000; ENMIN  =  191.280 eV
   QCUT   =   -4.330; QGAM   =    8.659    optimization parameters

[...]

 POTCAR:   PAW_PBE Te 08Apr2002
   VRHFIN =Te: s2p4

   TITEL  = PAW_PBE Te 08Apr2002
   POMASS =  127.600; ZVAL   =    6.000    mass and valenz
   ENMAX  =  174.982; ENMIN  =  131.236 eV
   QCUT   =   -3.586; QGAM   =    7.172    optimization parameters

   Description
     l     E      TYP  RCUT    TYP  RCUT
     0   .000     23  2.300
     0   .000     23  2.300
     1   .000     23  2.300
     1   .000     23  2.300
     2   .000     23  2.300
     3  -.100     23  2.300

 Optimization of the real space projectors (new method)

 maximal supplied QI-value         = 16.25
 optimisation between [QCUT,QGAM] = [ 11.54, 23.24] = [ 37.28,151.24] Ry
 Optimized for a Real-space Cutoff    1.49 Angstroem

   l    n(q)    QCUT    max X(q) W(low)/X(q) W(high)/X(q)  e(spline)
   2      9    11.539     4.811    0.20E-04    0.14E-04    0.45E-07
   2      9    11.539    15.146    0.24E-03    0.12E-03    0.20E-06
   0     10    11.539    14.357    0.18E-04    0.12E-05    0.14E-07
   0     10    11.539    43.282    0.39E-04    0.17E-04    0.23E-06
   1     10    11.539     5.514    0.99E-05    0.13E-04    0.19E-07
   1     10    11.539     7.697    0.38E-04    0.79E-04    0.91E-07
 Optimization of the real space projectors (new method)

[...]

   l    n(q)    QCUT    max X(q) W(low)/X(q) W(high)/X(q)  e(spline)
   0      8    11.508     6.651    0.19E-04    0.31E-05    0.49E-08
   0      8    11.508    90.285    0.95E-04    0.17E-03    0.51E-07
   1      8    11.508     4.328    0.14E-04    0.32E-04    0.22E-07
   1      8    11.508    54.583    0.16E-03    0.71E-04    0.89E-07
 Optimization of the real space projectors (new method)

 maximal supplied QI-value         = 16.25
 optimisation between [QCUT,QGAM] = [ 11.54, 23.24] = [ 37.28,151.24] Ry
 Optimized for a Real-space Cutoff    1.36 Angstroem

   l    n(q)    QCUT    max X(q) W(low)/X(q) W(high)/X(q)  e(spline)
   0      9    11.539     7.090    0.13E-04    0.25E-05    0.51E-08
   0      9    11.539   101.654    0.53E-04    0.69E-04    0.12E-06
   1      9    11.539     5.276    0.20E-04    0.98E-05    0.24E-07
   1      9    11.539    81.891    0.24E-03    0.13E-04    0.15E-06
   2      9    11.539     5.599    0.30E-04    0.97E-04    0.54E-07

 PAW_PBE Ni 06Sep2000                   :
 PAW_PBE Si 05Jan2001                   :
  PAW_PBE P 17Jan2003                   :
 PAW_PBE Te 08Apr2002                   :

 POSCAR: Ni2 Si P Te6
  positions in direct lattice
  velocities in cartesian coordinates
 exchange correlation table for  LEXCH =       42
   RHO(1)=    0.500       N(1)  =     2000
   RHO(2)=  100.500       N(2)  =     4000

 ion  position               nearest neighbor table
   1  0.333  0.333  0.500-   6 2.78   5 2.78   7 2.78   8 2.78  10 2.78   9 2.78
   2  0.667  0.667  0.500-   9 2.78   8 2.78  10 2.78   5 2.78   7 2.78   6 2.78
   3  0.000  0.000  0.448-   4 2.43   8 2.63  10 2.63   9 2.63
   4  0.000  0.000  0.552-   3 2.43   5 2.63   7 2.63   6 2.63
   5  0.626  0.000  0.574-   4 2.63   1 2.78   2 2.78
   6  0.000  0.373  0.574-   4 2.63   1 2.78   2 2.78
   7  0.373  0.626  0.574-   4 2.63   1 2.78   2 2.78
   8  0.374  1.000  0.426-   3 2.63   2 2.78   1 2.78
   9  1.000  0.627  0.426-   3 2.63   2 2.78   1 2.78
  10  0.627  0.374  0.426-   3 2.63   2 2.78   1 2.78

  LATTYP: Found a hexagonal cell.
 ALAT       =     6.9077769333
 C/A-ratio  =     3.3939410937

  Lattice vectors:

 A1 = (   3.4538890000,  -5.9823100000,   0.0000000000)
 A2 = (  -6.9077770000,   0.0000000000,   0.0000000000)
 A3 = (   0.0000000000,   0.0000000000, -23.4445880000)

Analysis of symmetry for initial positions (statically):
 Subroutine PRICEL returns:
 Original cell was already a primitive cell.

 Routine SETGRP: Setting up the symmetry group for a
 hexagonal supercell.

 Subroutine GETGRP returns: Found  3 space group operations
 (whereof  3 operations were pure point group operations)
 out of a pool of 24 trial point group operations.

The static configuration has the point symmetry C_3 .

Analysis of symmetry for dynamics (positions and initial velocities):
 Subroutine PRICEL returns:
 Original cell was already a primitive cell.

[...]

The dynamic configuration has the point symmetry C_3 .

Analysis of constrained symmetry for selective dynamics:
 Subroutine PRICEL returns:
 Original cell was already a primitive cell.

[...]

The constrained configuration has the point symmetry C_3 .

Analysis of structural, dynamic, and magnetic symmetry:
 Subroutine PRICEL returns:
 Original cell was already a primitive cell.

 Routine SETGRP: Setting up the symmetry group for a
 hexagonal supercell.

 Subroutine GETGRP returns: Found  3 space group operations
 (whereof  3 operations were pure point group operations)
 out of a pool of 24 trial point group operations.

The magnetic configuration has the point symmetry C_3 .

 Subroutine INISYM returns: Found  3 space group operations
 (whereof  3 operations are pure point group operations),
 and found     1 'primitive' translations

 KPOINTS: Kpoints from vasprun.xml

Automatic generation of k-mesh.
Space group operators:
 irot       det(A)        alpha          n_x          n_y          n_z        tau_x        tau_y        tau_z
    1     1.000000     0.000000     1.000000     0.000000     0.000000     0.000000     0.000000     0.000000
    2     1.000000   120.000000     0.000000     0.000000     1.000000     0.000000     0.000000     0.000000
    3     1.000000   120.000000     0.000000     0.000000    -1.000000     0.000000     0.000000     0.000000

 Subroutine IBZKPT returns following result:

 Found      5 irreducible k-points:

 Following reciprocal coordinates:
            Coordinates               Weight
  0.000000  0.000000  0.000000      1.000000
  0.200000  0.000000  0.000000      6.000000
  0.400000  0.000000  0.000000      6.000000
  0.400000  0.200000  0.000000      6.000000
 -0.400000  0.200000  0.000000      6.000000

 Following cartesian coordinates:
            Coordinates               Weight
  0.000000  0.000000  0.000000      1.000000
  0.028953 -0.016716  0.000000      6.000000
  0.057906 -0.033432  0.000000      6.000000
  0.057906  0.000000  0.000000      6.000000
 -0.057906  0.066864  0.000000      6.000000

 TETIRR: Found     15 inequivalent tetrahedra from      150

 SYSTEM =  unknown system
 POSCAR =  Ni2 Si P Te6

 Startparameter for this run:
   NWRITE =      2    write-flag & timer
   PREC   = accura    normal or accurate (medium, high low for compatibility)
   ISTART =      0    job   : 0-new  1-cont  2-samecut
   ICHARG =      2    charge: 1-file 2-atom 10-const
   ISPIN  =      2    spin polarized calculation?
   LNONCOLLINEAR =      F non collinear calculations
   LSORBIT =      F    spin-orbit coupling
   INIWAV =      1    electr: 0-lowe 1-rand  2-diag
   LASPH  =      F    aspherical Exc in radial PAW
   METAGGA=      F    non-selfconsistent MetaGGA calc.

 Electronic Relaxation 1
   ENCUT  =  520.0 eV  38.22 Ry    6.18 a.u.  12.84 12.84 43.59*2*pi/ulx,y,z
   ENINI  =  520.0     initial cutoff
   ENAUG  =  544.6 eV  augmentation charge cutoff
   NELM   =    400;   NELMIN=  2; NELMDL=  0     # of ELM steps
   EDIFF  = 0.1E-03   stopping-criterion for ELM
   LREAL  =      T    real-space projection
   NLSPLINE    = F    spline interpolate recip. space projectors
   LCOMPAT=      F    compatible to vasp.4.4
   GGA_COMPAT  = T    GGA compatible to vasp.4.4-vasp.4.6
   LMAXPAW     = -100 max onsite density
   LMAXMIX     =    2 max onsite mixed and CHGCAR
   VOSKOWN=      0    Vosko Wilk Nusair interpolation
   ROPT   =   -0.00025  -0.00025  -0.00025  -0.00025
 Ionic relaxation
   EDIFFG = 0.1E-02   stopping-criterion for IOM
   NSW    =     99    number of steps for IOM
   NBLOCK =      1;   KBLOCK =     99    inner block; outer block
   IBRION =      2    ionic relax: 0-MD 1-quasi-New 2-CG
   NFREE  =      1    steps in history (QN), initial steepest desc. (CG)
   ISIF   =      3    stress and relaxation
   IWAVPR =     11    prediction:  0-non 1-charg 2-wave 3-comb
   ISYM   =      2    0-nonsym 1-usesym 2-fastsym
   LCORR  =      T    Harris-Foulkes like correction to forces

   POTIM  = 0.5000    time-step for ionic-motion
   TEIN   =    0.0    initial temperature
   TEBEG  =    0.0;   TEEND  =   0.0 temperature during run
   SMASS  =  -3.00    Nose mass-parameter (am)
   estimated Nose-frequenzy (Omega)   =  0.10E-29 period in steps =****** mass=  -0.109E-26a.u.
   SCALEE = 1.0000    scale energy and forces
   NPACO  =    256;   APACO  = 16.0  distance and # of slots for P.C.
   PSTRESS=    0.0 pullay stress

  Mass of Ions in am
   POMASS =  58.69 28.09 30.97127.60
  Ionic Valenz
   ZVAL   =  10.00  4.00  5.00  6.00
  Atomic Wigner-Seitz radii
  virtual crystal weights
   VCA    =   1.00  1.00  1.00  1.00
   NELECT =      65.0000    total number of electrons
   NUPDOWN=      -1.0000    fix difference up-down

 DOS related values:
   EMIN   =  10.00;   EMAX   =-10.00  energy-range for DOS
   EFERMI =   0.00
   ISMEAR =    -5;   SIGMA  =   0.05  broadening in eV -4-tet -1-fermi 0-gaus

 Electronic relaxation 2 (details)
   IALGO  =     38    algorithm
   LDIAG  =      T    sub-space diagonalisation (order eigenvalues)
   LSUBROT=      F    optimize rotation matrix (better conditioning)
   TURBO    =      0    0=normal 1=particle mesh
   IRESTART =      0    0=no restart 2=restart with 2 vectors
   NREBOOT  =      0    no. of reboots
   NMIN     =      0    reboot dimension
   EREF     =   0.00    reference energy to select bands
   IMIX   =      4    mixing-type and parameters
     AMIX     =   0.40;   BMIX     =  1.00
     AMIX_MAG =   1.60;   BMIX_MAG =  1.00
     AMIN     =   0.01
     WC   =   100.;   INIMIX=   1;  MIXPRE=   1;  MAXMIX= -45

 Intra band minimization:
   WEIMIN = 0.0010     energy-eigenvalue tresh-hold
   EBREAK =  0.52E-06  absolut break condition
[...]
    7        1.412   1.850   0.034   3.296
    8        1.404   1.887   0.033   3.324
    9        1.397   1.905   0.033   3.335
   10        1.402   1.890   0.033   3.324
tot         11.014  13.943  16.872  41.829

 magnetization (x)

[...]

  FORCE on cell =-STRESS in cart. coord.  units (eV):
  Direction    XX          YY          ZZ          XY          YZ          ZX
  Alpha Z    17.18023    17.18023    17.18023
  Ewald   10336.73094 10336.72865-12334.57977    -0.00203    -0.00054    -0.00098
  Hartree 11106.66110 11106.66217-10445.46946    -0.00039     0.00009     0.00014
  E(xc)    -281.55648  -281.55531  -281.70841    -0.00097     0.00012     0.00002
  Local  -22320.99676-22320.99639 21865.48327     0.00222     0.00035     0.00067
  n-local   677.54388   677.55667   694.49311    -0.28859    -0.39333    -0.58066
  augment   -70.80552   -70.80534   -80.14178     0.00002    -0.00003    -0.00002
  Kinetic   529.66128   520.46855   555.72655    -5.21651    -1.04566    -1.28782
  Fock        0.00000     0.00000     0.00000     0.00000     0.00000     0.00000
  Total     -10.17106   -10.17105    -9.01626     0.00000     0.00000     0.00000
  in kB     -16.82003   -16.82003   -14.91032     0.00000     0.00000     0.00000

 VOLUME and BASIS-vectors are now :
  energy-cutoff  :      520.00
  volume of cell :      968.84
      direct lattice vectors                 reciprocal lattice vectors
     6.907777000 -0.000000000  0.000000000     0.144764372 -0.083579742  0.000000000
     3.453888000  5.982310000  0.000000000     0.000000000  0.167159509 -0.000000000
     0.000000000  0.000000000 23.444588000    -0.000000000  0.000000000  0.042653767

[...]

 FORCES acting on ions
    electron-ion (+dipol)            ewald-force                    non-local-force                 convergence-correction
   0.257E-03 0.136E-03 0.953E+01   0.658E-03 0.396E-03 -.101E+02   0.000E+00 0.000E+00 0.338E+00   0.531E-07 -.799E-07 0.251E+00
   -.251E-03 -.117E-03 0.715E+01   -.658E-03 -.396E-03 -.773E+01   0.139E-16 -.278E-16 0.313E+00   0.142E-06 -.125E-06 0.267E+00
   -.145E-04 -.371E-04 0.199E+03   -.141E-03 -.779E-04 -.199E+03   -.278E-16 0.000E+00 0.358E+00   -.483E-05 -.390E-05 0.181E+00
   0.190E-04 0.493E-04 -.235E+03   0.176E-03 0.974E-04 0.233E+03   0.694E-17 0.000E+00 0.113E+01   0.580E-07 0.938E-07 0.479E-01
   -.185E+02 0.170E+00 -.426E+03   0.153E+02 -.146E+00 0.429E+03   0.336E+01 -.112E-01 -.412E+01   -.134E-01 -.177E-01 0.110E-01
   0.939E+01 0.159E+02 -.426E+03   -.778E+01 -.132E+02 0.429E+03   -.169E+01 -.290E+01 -.412E+01   -.858E-02 0.205E-01 0.110E-01
   0.909E+01 -.161E+02 -.426E+03   -.752E+01 0.133E+02 0.429E+03   -.167E+01 0.292E+01 -.412E+01   0.220E-01 -.280E-02 0.110E-01
   0.254E+02 -.157E+00 0.431E+03   -.219E+02 0.154E+00 -.435E+03   -.376E+01 0.108E-01 0.437E+01   0.178E-01 0.143E-02 0.329E+00
   -.128E+02 -.219E+02 0.431E+03   0.111E+02 0.189E+02 -.435E+03   0.189E+01 0.325E+01 0.437E+01   -.766E-02 -.161E-01 0.329E+00
   -.126E+02 0.221E+02 0.431E+03   0.108E+02 -.191E+02 -.435E+03   0.187E+01 -.326E+01 0.437E+01   -.101E-01 0.147E-01 0.329E+00
   -.401E-04 0.123E-03 -.463E+01   0.000E+00 0.355E-14 0.568E-13   0.222E-15 -.444E-15 0.289E+01   -.135E-04 0.212E-04 0.177E+01

 POSITION                                       TOTAL-FORCE (eV/Angst)
      3.45388      1.99410     11.72054         0.000000      0.000000     -0.000726
      6.90778      3.98821     11.72405        -0.000000      0.000000     -0.004109
      0.00000      0.00000     10.50824         0.000000      0.000000      0.697162
      0.00000      0.00000     12.93635         0.000000      0.000000     -0.683123
      4.32819      0.00251     13.45138         0.164329     -0.004917     -0.628052
      1.29198      2.23274     13.45138        -0.086423     -0.139854     -0.628052
      4.74152      3.74706     13.45138        -0.077906      0.144772     -0.628052
      6.03348      5.97980      9.99321        -0.274826      0.008647      0.624984
      9.06969      3.74957      9.99321         0.144902      0.233683      0.624984
      5.62015      2.23525      9.99321         0.129924     -0.242330      0.624984
    total drift:                               -0.000054      0.000145      0.028717

  FREE ENERGIE OF THE ION-ELECTRON SYSTEM (eV)
  free  energy   TOTEN  =       -33.34206247 eV

  energy  without entropy=      -33.34206247  energy(sigma->0) =      -33.34206247

[...]

 d Force = 0.1412631E-01[-0.157E-01, 0.440E-01]  d Energy = 0.5276009E+00-0.513E+00
 d Force =-0.1438361E+02[-0.150E+02,-0.137E+02]  d Ewald  =-0.5213622E+03 0.507E+03

 Steepest descent step on ions:
 trial-energy change:   -0.527601  1 .order   -0.441920   -1.436284    0.552443
  (g-gl).g = 0.144E+01      g.g   = 0.144E+01  gl.gl    = 0.000E+00
 g(Force)  = 0.460E-01   g(Stress)= 0.139E+01 ortho     = 0.000E+00
 gamma     =   0.00000
 trial     =   1.00000
 opt step  =   0.76824  (harmonic =   0.72221) maximal distance =0.02583810
 next E    =   -33.932614   (d E  =  -0.59055)

[...]

 d Force = 0.2169304E-02[ 0.492E-03, 0.385E-02]  d Energy = 0.4728912E-01-0.451E-01
 d Force = 0.3642721E+01[ 0.360E+01, 0.368E+01]  d Ewald  = 0.1264026E+03-0.123E+03

[...]

 d Force =-0.7259858E-04[-0.864E-04,-0.588E-04]  d Energy = 0.1659924E-01-0.167E-01
 d Force =-0.4314505E+00[-0.432E+00,-0.431E+00]  d Ewald  =-0.1510641E+02 0.147E+02

[...]

 d Force =-0.5895801E-03[-0.866E-03,-0.313E-03]  d Energy =-0.1954129E-01 0.190E-01
 d Force =-0.1571548E+01[-0.158E+01,-0.156E+01]  d Ewald  =-0.5529839E+02 0.537E+02

[...]

 Conjugate gradient step on ions:
 trial-energy change:   -0.020582  1 .order   -0.020923   -0.027398   -0.014448
  (g-gl).g = 0.998E-01      g.g   = 0.331E-01  gl.gl    = 0.144E+01
 g(Force)  = 0.626E-03   g(Stress)= 0.325E-01 ortho     =-0.667E-01
 gamma     =   0.06950
 trial     =   0.96188
 opt step  =   2.03506  (harmonic =   2.03506) maximal distance =0.00535790
 next E    =   -33.957949   (d E  =  -0.02898)

[...]

 Conjugate gradient step on ions:
 trial-energy change:   -0.015051  1 .order   -0.017125   -0.023055   -0.011195
  (g-gl).g = 0.267E-01      g.g   = 0.343E-01  gl.gl    = 0.331E-01
 g(Force)  = 0.287E-01   g(Stress)= 0.565E-02 ortho     =-0.975E-03
 gamma     =   0.80484
 trial     =   0.68722
 opt step  =   1.33597  (harmonic =   1.33597) maximal distance =0.04188000
 next E    =   -33.978957   (d E  =  -0.02241)

[...]

 Conjugate gradient step on ions:
 trial-energy change:   -0.003667  1 .order   -0.003723   -0.006261   -0.001185
  (g-gl).g = 0.761E-02      g.g   = 0.762E-02  gl.gl    = 0.343E-01
 g(Force)  = 0.146E-02   g(Stress)= 0.616E-02 ortho     = 0.216E-03
 gamma     =   0.22154
 trial     =   0.81697
 opt step  =   1.00774  (harmonic =   1.00774) maximal distance =0.01512588
 next E    =   -33.980819   (d E  =  -0.00386)

[...]

 d Force = 0.2668240E-04[-0.254E-04, 0.788E-04]  d Energy = 0.1599529E-03-0.133E-03
 d Force = 0.9762474E+00[ 0.977E+00, 0.975E+00]  d Ewald  = 0.3379961E+00 0.638E+00

[...]

 d Force = 0.2773623E-03[ 0.260E-03, 0.295E-03]  d Energy = 0.1778388E-03 0.995E-04
 d Force = 0.1306468E+00[ 0.132E+00, 0.130E+00]  d Ewald  = 0.2240748E+02-0.223E+02

 Conjugate gradient step on ions:
 trial-energy change:   -0.000178  1 .order   -0.000595   -0.000732   -0.000458
  (g-gl).g = 0.103E-02      g.g   = 0.820E-03  gl.gl    = 0.762E-02
 g(Force)  = 0.363E-03   g(Stress)= 0.457E-03 ortho     = 0.268E-03
 gamma     =   0.13496
 trial     =   0.85513
 opt step  =   2.27802  (harmonic =   2.27802) maximal distance =0.00734977
 next E    =   -33.981760   (d E  =  -0.00098)

[...]

 eigenvalue-minimisations  :  1296
 total energy-change (2. order) :-0.4650230E-03  (-0.8629702E-03)
 number of electron      65.0000020 magnetization       0.0018209
 augmentation part        4.5082437 magnetization      -0.0127369

[...]

 Broyden mixing:
  rms(total) = 0.83142E-02    rms(broyden)= 0.82877E-02
  rms(prec ) = 0.97769E-02
  weight for this iteration     100.00

 eigenvalues of (default mixing * dielectric matrix)
  average eigenvalue GAMMA=   0.8280
  2.2185  0.7093  0.2594  0.1247

[...]

--------------------------------------- Iteration     15(   6)  ---------------------------------------

[...]

 eigenvalue-minimisations  :   880
 total energy-change (2. order) : 0.9721553E-04  (-0.4817011E-04)
 number of electron      65.0000020 magnetization       0.0016499
 augmentation part        4.5115503 magnetization       0.0033152

 Free energy of the ion-electron system (eV)
  alpha Z        PSCENC =        19.57169296
  Ewald energy   TEWEN  =      7976.80803624
  -Hartree energ DENC   =    -11430.19555523
  -exchange      EXHF   =         0.00000000
  -V(xc)+E(xc)   XCENC  =      -119.62281780
  PAW double counting   =      2564.82346735    -2432.63067782
  entropy T*S    EENTRO =         0.00000000
  eigenvalues    EBANDS =      -403.27702984
  atomic energy  EATOM  =      3790.54222716
  Solvation  Ediel_sol  =         0.00000000
  free energy    TOTEN  =       -33.98065697 eV

  energy without entropy =      -33.98065697  energy(sigma->0) =      -33.98065697

 average (electrostatic) potential at core
  the test charge radii are     0.9791  0.9892  0.9587  1.1897
  (the norm of the test charge is              1.0000)
       1 -48.7257       2 -48.7275       3 -91.8469       4 -91.3284       5 -96.4650
       6 -96.4650       7 -96.4650       8 -96.1995       9 -96.1995      10 -96.1994

 E-fermi :  -1.3706     XC(G=0):  -3.4578     alpha+bet : -3.3750

[...]

 spin component 2

[...]

 k-point     5 :      -0.4000    0.2000    0.0000
  band No.  band energies     occupation
      1     -14.7357      1.00000
      2     -13.6830      1.00000
      3     -13.3269      1.00000
      4     -13.1201      1.00000
      5     -12.8575      1.00000
      6     -12.6807      1.00000
      7     -10.8538      1.00000
      8      -8.6217      1.00000
      9      -6.9032      1.00000
     10      -6.4392      1.00000
     11      -6.2389      1.00000
     12      -5.6752      1.00000
     13      -5.6370      1.00000
     14      -5.1471      1.00000
     15      -4.9206      1.00000
     16      -4.7605      1.00000
     17      -4.7169      1.00000
     18      -4.5008      1.00000
     19      -4.4029      1.00000
     20      -4.2219      1.00000
     21      -4.1056      1.00000
     22      -3.7435      1.00000
     23      -3.4611      1.00000
     24      -3.3226      1.00000
     25      -3.3028      1.00000
     26      -3.2200      1.00000
     27      -3.0624      1.00000
     28      -2.9484      1.00000
     29      -2.9037      1.00000
     30      -2.8045      1.00000
     31      -2.6598      1.00000
     32      -1.5925      1.00000
     33      -1.4840      0.97847
     34      -1.2969      0.00000
     35      -0.8401      0.00000
     36      -0.7289      0.00000
     37       0.0878      0.00000
     38       0.2381      0.00000
     39       0.7320      0.00000
     40       1.3574      0.00000
     41       1.6673      0.00000
     42       1.7555      0.00000
     43       2.7538      0.00000
     44       3.1669      0.00000
     45       3.1737      0.00000
     46       3.2207      0.00000
     47       3.4375      0.00000
     48       3.9801      0.00000

[...]

 soft charge-density along one line, spin component           2
         0         1         2         3         4         5         6         7         8         9
 total charge-density along one line

------------------------ aborting loop because EDIFF is reached ----------------------------------------

[...]

  FORCE on cell =-STRESS in cart. coord.  units (eV):
  Direction    XX          YY          ZZ          XY          YZ          ZX
  Alpha Z    19.57169    19.57169    19.57169
  Ewald   10055.23825 10055.23568-12133.66973    -0.00221    -0.00060    -0.00110
  Hartree 10788.36017 10788.36129-10150.79636    -0.00039     0.00009     0.00015
  E(xc)    -284.17760  -284.17741  -284.07134    -0.00012     0.00002     0.00001
  Local  -21729.85370-21729.85320 21364.18481     0.00233     0.00038     0.00072
  n-local   687.53866   686.97425   699.66499    -0.53342     0.25425     0.44800
  augment   -71.53879   -71.53863   -79.11483     0.00001     0.00004     0.00005
  Kinetic   540.32480   530.51345   564.38368    -5.57276    -1.31946    -1.27168
  Fock        0.00000     0.00000     0.00000     0.00000     0.00000     0.00000
  Total       0.27531     0.27531     0.15292     0.00000     0.00000     0.00000
  in kB       0.51866     0.51866     0.28808     0.00000     0.00000     0.00000

 VOLUME and BASIS-vectors are now :
  energy-cutoff  :      520.00
  volume of cell :      850.45
      direct lattice vectors                 reciprocal lattice vectors
     6.719045231 -0.000000099 -0.000000000     0.148830668 -0.085927423  0.000000000
     3.359522245  5.818863476 -0.000000000     0.000000003  0.171854864 -0.000000000
    -0.000000000  0.000000000 21.752276226     0.000000000  0.000000000  0.045972200

  length of vectors
     6.719045231  6.719044713 21.752276226     0.171854851  0.171854864  0.045972200

 FORCES acting on ions
    electron-ion (+dipol)            ewald-force                    non-local-force                 convergence-correction
   0.167E-03 0.852E-04 0.102E+02   0.735E-03 0.441E-03 -.105E+02   -.213E-18 0.218E-18 0.360E+00   0.261E-06 0.844E-06 0.214E-02
   -.177E-03 -.862E-04 0.740E+01   -.726E-03 -.436E-03 -.771E+01   -.183E-18 0.141E-16 0.309E+00   -.657E-06 0.458E-06 0.289E-02
   -.235E-04 -.802E-05 0.211E+03   -.148E-03 -.820E-04 -.210E+03   0.455E-18 -.467E-18 -.769E+00   0.297E-07 0.132E-07 0.312E-01
   0.570E-04 0.656E-05 -.253E+03   0.190E-03 0.105E-03 0.252E+03   0.274E-16 -.274E-16 0.662E+00   0.163E-07 -.526E-08 -.402E-01
   -.217E+02 0.106E+00 -.443E+03   0.192E+02 -.129E+00 0.446E+03   0.226E+01 -.392E-02 -.365E+01   -.174E-03 0.222E-01 -.545E-01
   0.110E+02 0.188E+02 -.443E+03   -.972E+01 -.166E+02 0.446E+03   -.113E+01 -.195E+01 -.365E+01   0.193E-01 -.109E-01 -.545E-01
   0.108E+02 -.189E+02 -.443E+03   -.950E+01 0.167E+02 0.446E+03   -.112E+01 0.196E+01 -.365E+01   -.191E-01 -.112E-01 -.545E-01
   0.292E+02 -.164E+00 0.450E+03   -.260E+02 0.135E+00 -.454E+03   -.331E+01 0.185E-01 0.401E+01   0.138E-02 0.220E-01 0.557E-01
   -.148E+02 -.252E+02 0.450E+03   0.131E+02 0.225E+02 -.454E+03   0.167E+01 0.286E+01 0.401E+01   0.184E-01 -.122E-01 0.557E-01
   -.145E+02 0.254E+02 0.450E+03   0.129E+02 -.226E+02 -.454E+03   0.164E+01 -.287E+01 0.401E+01   -.198E-01 -.981E-02 0.557E-01
   0.649E-04 -.252E-07 -.165E+01   0.142E-13 -.213E-13 0.114E-12   -.666E-15 -.444E-15 0.164E+01   -.313E-06 0.135E-05 -.397E-03

 POSITION                                       TOTAL-FORCE (eV/Angst)
      3.35952      1.93962     10.88438         0.000000      0.000000      0.000505
      6.71905      3.87924     10.88839         0.000000      0.000000      0.002114
     -0.00000      0.00000      9.75243         0.000000     -0.000000      0.003545
     -0.00000      0.00000     12.04693         0.000000      0.000000      0.074550
      4.20993      0.00244     12.48041        -0.248133     -0.003906      0.009345
      1.25668      2.17174     12.48041         0.120684      0.216842      0.009345
      4.61197      3.64469     12.48041         0.127449     -0.212936      0.009345
      5.86864      5.81642      9.27186        -0.091044      0.010331     -0.036250
      8.82189      3.64712      9.27186         0.054469      0.073680     -0.036250
      5.46660      2.17418      9.27186         0.036575     -0.084012     -0.036250
    total drift:                                0.000065      0.000001     -0.014668

  FREE ENERGIE OF THE ION-ELECTRON SYSTEM (eV)
  free  energy   TOTEN  =       -33.98065697 eV

  energy  without entropy=      -33.98065697  energy(sigma->0) =      -33.98065697

 d Force = 0.3958957E-03[ 0.359E-03, 0.432E-03]  d Energy =-0.3050818E-03 0.701E-03
 d Force = 0.2211441E+00[ 0.224E+00, 0.219E+00]  d Ewald  = 0.3725580E+02-0.370E+02

 reached required accuracy - stopping structural energy minimisation

 total charge

[...]

 magnetization (x)

# of ion       s       p       d       tot
    1       -0.000   0.001  -0.277  -0.276
    2        0.000  -0.001   0.277   0.277
    3       -0.000  -0.000   0.000  -0.000
    4        0.000   0.000   0.000   0.000
    5        0.001   0.006  -0.000   0.007
    6        0.000  -0.001  -0.000  -0.001
    7       -0.001  -0.005   0.000  -0.005
    8       -0.000   0.010   0.000   0.010
    9       -0.000   0.003   0.000   0.003
   10        0.000  -0.013  -0.000  -0.013
tot          0.000   0.001   0.001   0.001

 BZINTS: Fermi energy: -1.370606; 65.000000 electrons
         Band energy:-403.277030;  BLOECHL correction: -0.032178