 vasp.5.4.4.18Apr17-6-g9f103f2a35 (build May  1 2020 15:48:39) complex
 executed on             LinuxGNU date 2020.06.12  18:02:04

 INCAR:
 POTCAR:   PAW_PBE Cr 06Sep2000
 POTCAR:    PAW_PBE P 17Jan2003
 POTCAR:   PAW_PBE Te 08Apr2002

 POTCAR:   PAW_PBE Cr 06Sep2000
   VRHFIN =Cr : d5 s1

   TITEL  = PAW_PBE Cr 06Sep2000
   POMASS =   51.996; ZVAL   =    6.000    mass and valenz
   ENMAX  =  227.082; ENMIN  =  170.311 eV
   QCUT   =   -4.085; QGAM   =    8.171    optimization parameters

   Description
     l     E      TYP  RCUT    TYP  RCUT
     2   .000     23  2.500
     2   .000     23  2.500
     0   .000     23  2.500
     0   .000     23  2.500
     1  -.400     23  2.500
     1  2.000     23  2.500
     3   .000      7   .000

 POTCAR:    PAW_PBE P 17Jan2003
   VRHFIN =P : s2p3

   TITEL  = PAW_PBE P 17Jan2003
   POMASS =   30.974; ZVAL   =    5.000    mass and valenz
   ENMAX  =  270.000; ENMIN  =  191.280 eV
   QCUT   =   -4.330; QGAM   =    8.659    optimization parameters

[...]

 POTCAR:   PAW_PBE Te 08Apr2002
   VRHFIN =Te: s2p4

   TITEL  = PAW_PBE Te 08Apr2002
   POMASS =  127.600; ZVAL   =    6.000    mass and valenz
   ENMAX  =  174.982; ENMIN  =  131.236 eV
   QCUT   =   -3.586; QGAM   =    7.172    optimization parameters

   Description
     l     E      TYP  RCUT    TYP  RCUT
     0   .000     23  2.300
     0   .000     23  2.300
     1   .000     23  2.300
     1   .000     23  2.300
     2   .000     23  2.300
     3  -.100     23  2.300

 Optimization of the real space projectors (new method)

 maximal supplied QI-value         = 15.12
 optimisation between [QCUT,QGAM] = [ 11.64, 23.28] = [ 37.95,151.78] Ry
 Optimized for a Real-space Cutoff    1.49 Angstroem

   l    n(q)    QCUT    max X(q) W(low)/X(q) W(high)/X(q)  e(spline)
   2      9    11.641     4.777    0.25E-04    0.21E-05    0.63E-07
   2      9    11.641    31.132    0.13E-03    0.22E-03    0.64E-06
   0     10    11.641    20.416    0.11E-04    0.74E-05    0.19E-07
   0     10    11.641    45.408    0.10E-03    0.85E-04    0.30E-06
   1     10    11.641     7.848    0.22E-04    0.23E-04    0.56E-07
   1     10    11.641     9.895    0.85E-04    0.54E-04    0.16E-06
 Optimization of the real space projectors (new method)

[...]

   l    n(q)    QCUT    max X(q) W(low)/X(q) W(high)/X(q)  e(spline)
   0      8    11.508     6.651    0.19E-04    0.31E-05    0.49E-08
   0      8    11.508    90.285    0.95E-04    0.17E-03    0.51E-07
   1      8    11.508     4.328    0.14E-04    0.32E-04    0.22E-07
   1      8    11.508    54.583    0.16E-03    0.71E-04    0.89E-07
 Optimization of the real space projectors (new method)

 maximal supplied QI-value         = 16.25
 optimisation between [QCUT,QGAM] = [ 11.54, 23.24] = [ 37.28,151.24] Ry
 Optimized for a Real-space Cutoff    1.36 Angstroem

   l    n(q)    QCUT    max X(q) W(low)/X(q) W(high)/X(q)  e(spline)
   0      9    11.539     7.090    0.13E-04    0.25E-05    0.51E-08
   0      9    11.539   101.654    0.53E-04    0.69E-04    0.12E-06
   1      9    11.539     5.276    0.20E-04    0.98E-05    0.24E-07
   1      9    11.539    81.891    0.24E-03    0.13E-04    0.15E-06
   2      9    11.539     5.599    0.30E-04    0.97E-04    0.54E-07

 PAW_PBE Cr 06Sep2000                   :
  PAW_PBE P 17Jan2003                   :
 PAW_PBE Te 08Apr2002                   :

 POSCAR: Cr2 P2 Te6
  positions in direct lattice
 exchange correlation table for  LEXCH =       42
   RHO(1)=    0.500       N(1)  =     2000
   RHO(2)=  100.500       N(2)  =     4000

 ion  position               nearest neighbor table
   1  0.333  0.333  0.500-   6 2.78   5 2.78   7 2.78   8 2.78  10 2.78   9 2.78
   2  0.667  0.667  0.500-   9 2.78   8 2.78  10 2.78   5 2.78   7 2.78   6 2.78
   3  0.000  0.000  0.448-   4 2.43   8 2.63  10 2.63   9 2.63
   4  0.000  0.000  0.552-   3 2.43   5 2.63   7 2.63   6 2.63
   5  0.626  0.000  0.574-   4 2.63   1 2.78   2 2.78
   6  0.000  0.373  0.574-   4 2.63   1 2.78   2 2.78
   7  0.373  0.626  0.574-   4 2.63   1 2.78   2 2.78
   8  0.374  1.000  0.426-   3 2.63   2 2.78   1 2.78
   9  1.000  0.627  0.426-   3 2.63   2 2.78   1 2.78
  10  0.627  0.374  0.426-   3 2.63   2 2.78   1 2.78

  LATTYP: Found a hexagonal cell.
 ALAT       =     6.9077769333
 C/A-ratio  =     3.3939410937

  Lattice vectors:

 A1 = (   3.4538890000,  -5.9823100000,   0.0000000000)
 A2 = (  -6.9077770000,   0.0000000000,   0.0000000000)
 A3 = (   0.0000000000,   0.0000000000, -23.4445880000)

Analysis of symmetry for initial positions (statically):
 Subroutine PRICEL returns:
 Original cell was already a primitive cell.

 Routine SETGRP: Setting up the symmetry group for a
 hexagonal supercell.

 Subroutine GETGRP returns: Found  6 space group operations
 (whereof  6 operations were pure point group operations)
 out of a pool of 24 trial point group operations.

The static configuration has the point symmetry S_6 .

Analysis of symmetry for dynamics (positions and initial velocities):
 Subroutine PRICEL returns:
 Original cell was already a primitive cell.

[...]

The dynamic configuration has the point symmetry S_6 .

Analysis of constrained symmetry for selective dynamics:
 Subroutine PRICEL returns:
 Original cell was already a primitive cell.

[...]

The constrained configuration has the point symmetry S_6 .

Analysis of structural, dynamic, and magnetic symmetry:
 Subroutine PRICEL returns:
 Original cell was already a primitive cell.

 Routine SETGRP: Setting up the symmetry group for a
 hexagonal supercell.

 Subroutine GETGRP returns: Found  6 space group operations
 (whereof  6 operations were pure point group operations)
 out of a pool of 24 trial point group operations.

The magnetic configuration has the point symmetry S_6 .

 Subroutine INISYM returns: Found  6 space group operations
 (whereof  6 operations are pure point group operations),
 and found     1 'primitive' translations

 KPOINTS: Kpoints from vasprun.xml

Automatic generation of k-mesh.
Space group operators:
 irot       det(A)        alpha          n_x          n_y          n_z        tau_x        tau_y        tau_z
    1     1.000000     0.000000     1.000000     0.000000     0.000000     0.000000     0.000000     0.000000
    2    -1.000000     0.000000     1.000000     0.000000     0.000000     0.000000     0.000000     0.000000
    3     1.000000   120.000000     0.000000     0.000000     1.000000     0.000000     0.000000     0.000000
    4    -1.000000   120.000000     0.000000     0.000000     1.000000     0.000000     0.000000     0.000000
    5     1.000000   120.000000     0.000000     0.000000    -1.000000     0.000000     0.000000     0.000000
    6    -1.000000   120.000000     0.000000     0.000000    -1.000000     0.000000     0.000000     0.000000

 Subroutine IBZKPT returns following result:

 Found      5 irreducible k-points:

 Following reciprocal coordinates:
            Coordinates               Weight
  0.000000  0.000000  0.000000      1.000000
  0.200000  0.000000  0.000000      6.000000
  0.400000  0.000000  0.000000      6.000000
  0.400000  0.200000  0.000000      6.000000
 -0.400000  0.200000  0.000000      6.000000

 Following cartesian coordinates:
            Coordinates               Weight
  0.000000  0.000000  0.000000      1.000000
  0.028953 -0.016716  0.000000      6.000000
  0.057906 -0.033432  0.000000      6.000000
  0.057906  0.000000  0.000000      6.000000
 -0.057906  0.066864  0.000000      6.000000

 TETIRR: Found     15 inequivalent tetrahedra from      150

 SYSTEM =  unknown system
 POSCAR =  Cr2 P2 Te6

 Startparameter for this run:
   NWRITE =      2    write-flag & timer
   PREC   = accura    normal or accurate (medium, high low for compatibility)
   ISTART =      0    job   : 0-new  1-cont  2-samecut
   ICHARG =      2    charge: 1-file 2-atom 10-const
   ISPIN  =      2    spin polarized calculation?
   LNONCOLLINEAR =      F non collinear calculations
   LSORBIT =      F    spin-orbit coupling
   INIWAV =      1    electr: 0-lowe 1-rand  2-diag
   LASPH  =      F    aspherical Exc in radial PAW
   METAGGA=      F    non-selfconsistent MetaGGA calc.

 Electronic Relaxation 1
   ENCUT  =  520.0 eV  38.22 Ry    6.18 a.u.  12.84 12.84 43.59*2*pi/ulx,y,z
   ENINI  =  520.0     initial cutoff
   ENAUG  =  402.1 eV  augmentation charge cutoff
   NELM   =    400;   NELMIN=  2; NELMDL=  0     # of ELM steps
   EDIFF  = 0.1E-03   stopping-criterion for ELM
   LREAL  =      T    real-space projection
   NLSPLINE    = F    spline interpolate recip. space projectors
   LCOMPAT=      F    compatible to vasp.4.4
   GGA_COMPAT  = T    GGA compatible to vasp.4.4-vasp.4.6
   LMAXPAW     = -100 max onsite density
   LMAXMIX     =    2 max onsite mixed and CHGCAR
   VOSKOWN=      0    Vosko Wilk Nusair interpolation
   ROPT   =   -0.00025  -0.00025  -0.00025
 Ionic relaxation
   EDIFFG = 0.1E-02   stopping-criterion for IOM
   NSW    =     99    number of steps for IOM
   NBLOCK =      1;   KBLOCK =     99    inner block; outer block
   IBRION =      2    ionic relax: 0-MD 1-quasi-New 2-CG
   NFREE  =      1    steps in history (QN), initial steepest desc. (CG)
   ISIF   =      3    stress and relaxation
   IWAVPR =     11    prediction:  0-non 1-charg 2-wave 3-comb
   ISYM   =      2    0-nonsym 1-usesym 2-fastsym
   LCORR  =      T    Harris-Foulkes like correction to forces

   POTIM  = 0.5000    time-step for ionic-motion
   TEIN   =    0.0    initial temperature
   TEBEG  =    0.0;   TEEND  =   0.0 temperature during run
   SMASS  =  -3.00    Nose mass-parameter (am)
   estimated Nose-frequenzy (Omega)   =  0.10E-29 period in steps =****** mass=  -0.109E-26a.u.
   SCALEE = 1.0000    scale energy and forces
   NPACO  =    256;   APACO  = 16.0  distance and # of slots for P.C.
   PSTRESS=    0.0 pullay stress

  Mass of Ions in am
   POMASS =  52.00 30.97127.60
  Ionic Valenz
   ZVAL   =   6.00  5.00  6.00
  Atomic Wigner-Seitz radii
  virtual crystal weights
   VCA    =   1.00  1.00  1.00
   NELECT =      58.0000    total number of electrons
   NUPDOWN=      -1.0000    fix difference up-down

 DOS related values:
   EMIN   =  10.00;   EMAX   =-10.00  energy-range for DOS
   EFERMI =   0.00
   ISMEAR =    -5;   SIGMA  =   0.05  broadening in eV -4-tet -1-fermi 0-gaus

 Electronic relaxation 2 (details)
   IALGO  =     38    algorithm
   LDIAG  =      T    sub-space diagonalisation (order eigenvalues)
   LSUBROT=      F    optimize rotation matrix (better conditioning)
   TURBO    =      0    0=normal 1=particle mesh
   IRESTART =      0    0=no restart 2=restart with 2 vectors
   NREBOOT  =      0    no. of reboots
   NMIN     =      0    reboot dimension
   EREF     =   0.00    reference energy to select bands
   IMIX   =      4    mixing-type and parameters
     AMIX     =   0.40;   BMIX     =  1.00
     AMIX_MAG =   1.60;   BMIX_MAG =  1.00
     AMIN     =   0.01
     WC   =   100.;   INIMIX=   1;  MIXPRE=   1;  MAXMIX= -45

 Intra band minimization:
   WEIMIN = 0.0010     energy-eigenvalue tresh-hold
   EBREAK =  0.52E-06  absolut break condition
   DEPER  =   0.30     relativ break condition

   TIME   =   0.40     timestep for ELM

[...]
     37      -0.5376      0.00000
     38      -0.1301      0.00000
     39      -0.1301      0.00000
     40       0.2833      0.00000
     41       0.5760      0.00000
     42       0.5761      0.00000
     43       1.6753      0.00000
     44       1.6885      0.00000
     45       2.1697      0.00000
     46       2.3749      0.00000
     47       2.9276      0.00000
     48       2.9277      0.00000

[...]

 soft charge-density along one line, spin component           1
         0         1         2         3         4         5         6         7         8         9
 total charge-density along one line

[...]

------------------------ aborting loop because EDIFF is reached ----------------------------------------

 total charge

# of ion       s       p       d       tot
    1        0.328   0.397   4.255   4.980
    2        0.328   0.397   4.255   4.980
    3        1.126   1.260   0.000   2.387
    4        1.126   1.260   0.000   2.387
    5        1.404   1.944   0.035   3.384
    6        1.392   1.902   0.037   3.330
    7        1.401   1.931   0.036   3.368
    8        1.404   1.944   0.035   3.384
    9        1.392   1.902   0.037   3.330
   10        1.401   1.931   0.036   3.368
tot         11.303  14.869   8.725  34.898

 magnetization (x)

[...]

  FORCE on cell =-STRESS in cart. coord.  units (eV):
  Direction    XX          YY          ZZ          XY          YZ          ZX
  Alpha Z    12.19922    12.19922    12.19922
  Ewald    7992.72397  7992.72161 -9523.21780    -0.00104    -0.00041    -0.00075
  Hartree  8324.77485  8324.77524 -8179.61763     0.00002     0.00006     0.00009
  E(xc)    -229.38416  -229.38417  -229.76698     0.00004     0.00002     0.00001
  Local  -17227.96655-17227.96546 16756.59674     0.00075     0.00026     0.00048
  n-local   751.29965   751.52113   769.77329    -0.14671     0.41870     0.28873
  augment  -121.04294  -121.04282  -129.05769    -0.00001     0.00003     0.00001
  Kinetic   498.52347   490.63374   518.15765    -5.47829    -0.50596    -0.55402
  Fock        0.00000     0.00000     0.00000     0.00000     0.00000     0.00000
  Total      -2.70700    -2.70700    -4.93318     0.00000     0.00000    -0.00000
  in kB      -4.47661    -4.47661    -8.15808     0.00000     0.00000    -0.00000

 VOLUME and BASIS-vectors are now :
  energy-cutoff  :      520.00
  volume of cell :      968.84
      direct lattice vectors                 reciprocal lattice vectors
     6.907777000 -0.000000000  0.000000000     0.144764372 -0.083579742  0.000000000
     3.453888000  5.982310000  0.000000000     0.000000000  0.167159509 -0.000000000
     0.000000000  0.000000000 23.444588000    -0.000000000  0.000000000  0.042653767

[...]

 FORCES acting on ions
    electron-ion (+dipol)            ewald-force                    non-local-force                 convergence-correction
   -.266E-04 -.216E-04 0.651E+00   0.323E-03 0.191E-03 -.652E+00   0.173E-17 0.000E+00 -.239E-03   0.578E-05 0.334E-05 -.819E-04
   0.266E-04 0.216E-04 -.651E+00   -.323E-03 -.191E-03 0.652E+00   -.694E-17 0.000E+00 0.239E-03   -.578E-05 -.334E-05 0.819E-04
   -.381E-04 -.231E-04 0.210E+03   -.176E-03 -.973E-04 -.213E+03   -.252E-16 -.126E-16 0.354E+01   -.207E-05 -.114E-05 -.187E-01
   0.381E-04 0.231E-04 -.210E+03   0.176E-03 0.973E-04 0.213E+03   -.325E-17 0.126E-16 -.354E+01   0.207E-05 0.114E-05 0.187E-01
   0.207E+01 0.145E+00 -.351E+03   -.488E+01 -.141E+00 0.355E+03   0.268E+01 -.111E-01 -.426E+01   -.538E-02 0.117E-04 0.210E-01
   -.911E+00 -.187E+01 -.351E+03   0.232E+01 0.430E+01 0.355E+03   -.135E+01 -.232E+01 -.426E+01   0.270E-02 0.465E-02 0.210E-01
   -.116E+01 0.172E+01 -.351E+03   0.256E+01 -.416E+01 0.355E+03   -.133E+01 0.233E+01 -.426E+01   0.268E-02 -.467E-02 0.210E-01
   -.207E+01 -.145E+00 0.351E+03   0.488E+01 0.141E+00 -.355E+03   -.268E+01 0.111E-01 0.426E+01   0.538E-02 -.117E-04 -.210E-01
   0.911E+00 0.187E+01 0.351E+03   -.232E+01 -.430E+01 -.355E+03   0.135E+01 0.232E+01 0.426E+01   -.270E-02 -.465E-02 -.210E-01
   0.116E+01 -.172E+01 0.351E+03   -.256E+01 0.416E+01 -.355E+03   0.133E+01 -.233E+01 0.426E+01   -.268E-02 0.467E-02 -.210E-01
   -.438E-07 -.124E-06 -.489E-07   0.888E-14 0.533E-14 0.568E-13   0.222E-15 0.000E+00 -.888E-15   0.892E-14 -.100E-13 -.144E-11

 POSITION                                       TOTAL-FORCE (eV/Angst)
      3.45388      1.99410     11.72054        -0.000000      0.000000     -0.001648
      6.90778      3.98821     11.72405         0.000000     -0.000000      0.001648
      0.00000      0.00000     10.50824        -0.000000      0.000000      0.952554
      0.00000      0.00000     12.93635         0.000000      0.000000     -0.952554
      4.32819      0.00251     13.45138        -0.133925     -0.007034     -0.258526
      1.29198      2.23274     13.45138         0.060871      0.119500     -0.258526
      4.74152      3.74706     13.45138         0.073054     -0.112466     -0.258526
      6.03348      5.97980      9.99321         0.133925      0.007034      0.258526
      9.06969      3.74957      9.99321        -0.060871     -0.119500      0.258526
      5.62015      2.23525      9.99321        -0.073054      0.112466      0.258526
    total drift:                               -0.000000     -0.000000     -0.000000

  FREE ENERGIE OF THE ION-ELECTRON SYSTEM (eV)
  free  energy   TOTEN  =       -42.95638913 eV

  energy  without entropy=      -42.95638913  energy(sigma->0) =      -42.95638913

[...]

 d Force = 0.5514966E-01[ 0.248E-01, 0.855E-01]  d Energy = 0.1438790E+00-0.887E-01
 d Force =-0.1930688E+02[-0.195E+02,-0.191E+02]  d Ewald  =-0.6598261E-01-0.192E+02

 Steepest descent step on ions:
 trial-energy change:   -0.143879  1 .order   -0.138264   -0.275655   -0.000874
  (g-gl).g = 0.276E+00      g.g   = 0.276E+00  gl.gl    = 0.000E+00
 g(Force)  = 0.875E-01   g(Stress)= 0.188E+00 ortho     = 0.000E+00
 gamma     =   0.00000
 trial     =   1.00000
 opt step  =   1.00283  (harmonic =   1.00318) maximal distance =0.04608395
 next E    =   -43.100269   (d E  =  -0.14388)

[...]

 d Force = 0.7165972E-04[ 0.712E-04, 0.721E-04]  d Energy =-0.3462667E-03 0.418E-03
 d Force =-0.5672611E-01[-0.567E-01,-0.567E-01]  d Ewald  = 0.3030738E-02-0.598E-01

[...]

 d Force = 0.2873386E-02[-0.420E-02, 0.995E-02]  d Energy = 0.1072510E-01-0.785E-02
 d Force =-0.7893850E+01[-0.786E+01,-0.792E+01]  d Ewald  = 0.1188292E+03-0.127E+03

 Conjugate gradient step on ions:
 trial-energy change:   -0.010725  1 .order   -0.011751   -0.026762    0.003261
  (g-gl).g = 0.303E-01      g.g   = 0.271E-01  gl.gl    = 0.276E+00
 g(Force)  = 0.722E-02   g(Stress)= 0.199E-01 ortho     =-0.322E-02
 gamma     =   0.10999
 trial     =   1.00057
 opt step  =   0.86838  (harmonic =   0.89190) maximal distance =0.01585175
 next E    =   -43.110865   (d E  =  -0.01094)

[...]

 d Force = 0.4192608E-03[ 0.280E-03, 0.558E-03]  d Energy = 0.4558228E-03-0.366E-04
 d Force = 0.1044479E+01[ 0.104E+01, 0.104E+01]  d Ewald  =-0.1557259E+02 0.166E+02

[...]

 d Force = 0.1581791E-03[-0.604E-04, 0.377E-03]  d Energy = 0.6913854E-03-0.533E-03
 d Force = 0.1402894E+01[ 0.140E+01, 0.140E+01]  d Ewald  = 0.1103648E+02-0.963E+01

 Conjugate gradient step on ions:
 trial-energy change:   -0.000691  1 .order   -0.000459   -0.001246    0.000329
  (g-gl).g =-0.782E-03      g.g   = 0.128E-02  gl.gl    = 0.271E-01
 g(Force)  = 0.325E-03   g(Stress)= 0.959E-03 ortho     = 0.174E-03
 gamma     =  -0.02887
 trial     =   0.97413
 opt step  =   0.77078  (harmonic =   0.77078) maximal distance =0.00256483
 next E    =   -43.111596   (d E  =  -0.00049)

[...]

 eigenvalue-minimisations  :   960
 total energy-change (2. order) : 0.1041399E-03  (-0.5882156E-04)
 number of electron      57.9999994 magnetization       5.8208434
 augmentation part       -2.9731153 magnetization       4.0247807

 Broyden mixing:
  rms(total) = 0.61542E-02    rms(broyden)= 0.61542E-02
  rms(prec ) = 0.71085E-02
  weight for this iteration     100.00

 eigenvalues of (default mixing * dielectric matrix)
  average eigenvalue GAMMA=   0.4724
  0.4724

[...]

--------------------------------------- Iteration      7(   3)  ---------------------------------------

[...]

 eigenvalue-minimisations  :   744
 total energy-change (2. order) :-0.3769391E-04  (-0.3895587E-04)
 number of electron      57.9999994 magnetization       5.8208434
 augmentation part       -2.9731153 magnetization       4.0247807

 Free energy of the ion-electron system (eV)
  alpha Z        PSCENC =        12.72641774
  Ewald energy   TEWEN  =      6350.30073435
  -Hartree energ DENC   =     -8363.52646074
  -exchange      EXHF   =         0.00000000
  -V(xc)+E(xc)   XCENC  =      -205.54146961
  PAW double counting   =      1249.89359310     -952.11057382
  entropy T*S    EENTRO =         0.00000000
  eigenvalues    EBANDS =      -390.91096104
  atomic energy  EATOM  =      2256.05692028
  Solvation  Ediel_sol  =         0.00000000
  free energy    TOTEN  =       -43.11179976 eV

  energy without entropy =      -43.11179976  energy(sigma->0) =      -43.11179976

 average (electrostatic) potential at core
  the test charge radii are     1.1394  0.9587  1.1897
  (the norm of the test charge is              1.0000)
       1 -50.3658       2 -50.3658       3 -91.7063       4 -91.7063       5 -96.3654
       6 -96.3654       7 -96.3654       8 -96.3654       9 -96.3654      10 -96.3654

 E-fermi :  -1.4688     XC(G=0):  -3.3661     alpha+bet : -3.1994

[...]

 spin component 2

[...]

 k-point     5 :      -0.4000    0.2000    0.0000
  band No.  band energies     occupation
      1     -15.2398      1.00000
      2     -13.6339      1.00000
      3     -13.5673      1.00000
      4     -13.2469      1.00000
      5     -12.9693      1.00000
      6     -12.8298      1.00000
      7     -11.5706      1.00000
      8     -10.1011      1.00000
      9      -6.8643      1.00000
     10      -6.5518      1.00000
     11      -6.4837      1.00000
     12      -5.9873      1.00000
     13      -5.6041      1.00000
     14      -5.1740      1.00000
     15      -4.7969      1.00000
     16      -4.5994      1.00000
     17      -4.4300      1.00000
     18      -4.4021      1.00000
     19      -4.2576      1.00000
     20      -4.0332      1.00000
     21      -3.5880      1.00000
     22      -3.5554      1.00000
     23      -3.1651      1.00000
     24      -3.0204      1.00000
     25      -2.9687      1.00000
     26      -2.3638      1.00000
     27      -1.6897      0.98542
     28      -1.1594      0.00000
     29      -0.9217      0.00000
     30      -0.4789      0.00000
     31      -0.4044      0.00000
     32      -0.2723      0.00000
     33      -0.0677      0.00000
     34       0.0822      0.00000
     35       0.1733      0.00000
     36       0.5153      0.00000
     37       0.5984      0.00000
     38       0.6708      0.00000
     39       0.9905      0.00000
     40       1.0200      0.00000
     41       1.3569      0.00000
     42       1.4332      0.00000
     43       2.9243      0.00000
     44       2.9725      0.00000
     45       3.0491      0.00000
     46       3.1498      0.00000
     47       3.2060      0.00000
     48       3.5095      0.00000

[...]

 soft charge-density along one line, spin component           2
         0         1         2         3         4         5         6         7         8         9
 total charge-density along one line

------------------------ aborting loop because EDIFF is reached ----------------------------------------

[...]

  FORCE on cell =-STRESS in cart. coord.  units (eV):
  Direction    XX          YY          ZZ          XY          YZ          ZX
  Alpha Z    12.72642    12.72642    12.72642
  Ewald    7893.26158  7893.25916 -9436.22265    -0.00106    -0.00044    -0.00080
  Hartree  8218.76603  8218.76641 -8076.94082     0.00003     0.00006     0.00010
  E(xc)    -230.40287  -230.40286  -230.72348     0.00002     0.00002     0.00002
  Local  -17025.23702-17025.23588 16564.39421     0.00075     0.00027     0.00050
  n-local   753.18430   753.10771   773.98161    -0.25847     0.53266     0.42301
  augment  -121.05370  -121.05361  -129.36489     0.00002     0.00002     0.00002
  Kinetic   502.73458   494.43747   521.76789    -5.65421    -0.46042    -0.46887
  Fock        0.00000     0.00000     0.00000     0.00000     0.00000     0.00000
  Total      -0.20794    -0.20794    -0.38171     0.00000     0.00000     0.00000
  in kB      -0.35873    -0.35873    -0.65852     0.00000     0.00000     0.00000

 VOLUME and BASIS-vectors are now :
  energy-cutoff  :      520.00
  volume of cell :      928.70
      direct lattice vectors                 reciprocal lattice vectors
     6.855653776  0.000000006 -0.000000000     0.145865009 -0.084215195  0.000000000
     3.427826395  5.937169975  0.000000000    -0.000000000  0.168430415 -0.000000000
    -0.000000000  0.000000000 22.816419022     0.000000000 -0.000000000  0.043828087

  length of vectors
     6.855653776  6.855653222 22.816419022     0.168430401  0.168430415  0.043828087

 FORCES acting on ions
    electron-ion (+dipol)            ewald-force                    non-local-force                 convergence-correction
   -.489E-04 -.307E-04 0.672E+00   0.339E-03 0.200E-03 -.675E+00   0.104E-16 0.347E-17 -.147E-02   0.170E-07 0.713E-08 0.776E-04
   0.489E-04 0.307E-04 -.672E+00   -.339E-03 -.200E-03 0.675E+00   -.694E-17 0.697E-23 0.147E-02   -.170E-07 -.713E-08 -.776E-04
   -.383E-04 -.246E-04 0.213E+03   -.172E-03 -.951E-04 -.216E+03   0.128E-16 -.562E-17 0.317E+01   -.441E-08 -.113E-07 0.220E-01
   0.383E-04 0.246E-04 -.213E+03   0.172E-03 0.951E-04 0.216E+03   0.220E-17 0.121E-16 -.317E+01   0.441E-08 0.113E-07 -.220E-01
   0.134E+01 0.149E+00 -.357E+03   -.408E+01 -.146E+00 0.361E+03   0.263E+01 -.969E-02 -.404E+01   -.922E-02 0.108E-04 -.524E-01
   -.542E+00 -.124E+01 -.357E+03   0.191E+01 0.361E+01 0.361E+03   -.132E+01 -.227E+01 -.404E+01   0.462E-02 0.798E-02 -.524E-01
   -.800E+00 0.109E+01 -.357E+03   0.217E+01 -.346E+01 0.361E+03   -.131E+01 0.228E+01 -.404E+01   0.460E-02 -.799E-02 -.524E-01
   -.134E+01 -.149E+00 0.357E+03   0.408E+01 0.146E+00 -.361E+03   -.263E+01 0.969E-02 0.404E+01   0.922E-02 -.108E-04 0.524E-01
   0.542E+00 0.124E+01 0.357E+03   -.191E+01 -.361E+01 -.361E+03   0.132E+01 0.227E+01 0.404E+01   -.462E-02 -.798E-02 0.524E-01
   0.800E+00 -.109E+01 0.357E+03   -.217E+01 0.346E+01 -.361E+03   0.131E+01 -.228E+01 0.404E+01   -.460E-02 0.799E-02 0.524E-01
   -.446E-10 -.965E-10 0.321E-10   0.000E+00 -.622E-14 0.568E-13   -.222E-15 -.444E-15 0.000E+00   0.156E-13 -.897E-14 0.838E-11

 POSITION                                       TOTAL-FORCE (eV/Angst)
      3.42782      1.97905     11.40650        -0.000000     -0.000000     -0.004873
      6.85566      3.95812     11.40992        -0.000000     -0.000000      0.004873
     -0.00000      0.00000     10.28476        -0.000000     -0.000000     -0.007479
     -0.00000      0.00000     12.53166        -0.000000     -0.000000      0.007479
      4.29553      0.00249     13.09097        -0.120176     -0.006044     -0.002547
      1.28223      2.21589     13.09097         0.054854      0.107098     -0.002547
      4.70574      3.71879     13.09097         0.065322     -0.101054     -0.002547
      5.98795      5.93468      9.72545         0.120176      0.006044      0.002547
      9.00125      3.72128      9.72545        -0.054854     -0.107098      0.002547
      5.57774      2.21838      9.72545        -0.065322      0.101054      0.002547
    total drift:                               -0.000000     -0.000000      0.000000

  FREE ENERGIE OF THE ION-ELECTRON SYSTEM (eV)
  free  energy   TOTEN  =       -43.11179976 eV

  energy  without entropy=      -43.11179976  energy(sigma->0) =      -43.11179976

 d Force = 0.1232057E-05[-0.101E-04, 0.126E-04]  d Energy = 0.5547498E-05-0.432E-05
 d Force =-0.2922537E+00[-0.292E+00,-0.292E+00]  d Ewald  =-0.2300945E+01 0.201E+01

 reached required accuracy - stopping structural energy minimisation

 total charge

[...]

 magnetization (x)

# of ion       s       p       d       tot
    1        0.041   0.048   2.879   2.968
    2        0.041   0.048   2.879   2.968
    3        0.004   0.013   0.000   0.017
    4        0.004   0.013   0.000   0.017
    5        0.002  -0.068   0.005  -0.061
    6       -0.001  -0.066   0.005  -0.062
    7        0.000  -0.071   0.005  -0.066
    8        0.002  -0.068   0.005  -0.061
    9       -0.001  -0.066   0.005  -0.062
   10        0.000  -0.071   0.005  -0.066
tot          0.091  -0.290   5.789   5.590

 BZINTS: Fermi energy: -1.468829; 58.000000 electrons
         Band energy:-390.910961;  BLOECHL correction: -0.039606