 vasp.5.4.4.18Apr17-6-g9f103f2a35 (build May  1 2020 15:48:39) complex
 executed on             LinuxGNU date 2020.06.13  18:31:04

 INCAR:
 POTCAR:   PAW_PBE Cr 06Sep2000
 POTCAR:   PAW_PBE Si 05Jan2001
 POTCAR:   PAW_PBE Te 08Apr2002

 POTCAR:   PAW_PBE Cr 06Sep2000
   VRHFIN =Cr : d5 s1

   TITEL  = PAW_PBE Cr 06Sep2000
   POMASS =   51.996; ZVAL   =    6.000    mass and valenz
   ENMAX  =  227.082; ENMIN  =  170.311 eV
   QCUT   =   -4.085; QGAM   =    8.171    optimization parameters

   Description
     l     E      TYP  RCUT    TYP  RCUT
     2   .000     23  2.500
     2   .000     23  2.500
     0   .000     23  2.500
     0   .000     23  2.500
     1  -.400     23  2.500
     1  2.000     23  2.500
     3   .000      7   .000

 POTCAR:   PAW_PBE Si 05Jan2001
   VRHFIN =Si: s2p2

   TITEL  = PAW_PBE Si 05Jan2001
   POMASS =   28.085; ZVAL   =    4.000    mass and valenz
   ENMAX  =  245.345; ENMIN  =  184.009 eV
   QCUT   =   -4.246; QGAM   =    8.493    optimization parameters

[...]

 POTCAR:   PAW_PBE Te 08Apr2002
   VRHFIN =Te: s2p4

   TITEL  = PAW_PBE Te 08Apr2002
   POMASS =  127.600; ZVAL   =    6.000    mass and valenz
   ENMAX  =  174.982; ENMIN  =  131.236 eV
   QCUT   =   -3.586; QGAM   =    7.172    optimization parameters

   Description
     l     E      TYP  RCUT    TYP  RCUT
     0   .000     23  2.300
     0   .000     23  2.300
     1   .000     23  2.300
     1   .000     23  2.300
     2   .000     23  2.300
     3  -.100     23  2.300

 Optimization of the real space projectors (new method)

 maximal supplied QI-value         = 15.12
 optimisation between [QCUT,QGAM] = [ 11.64, 23.28] = [ 37.95,151.78] Ry
 Optimized for a Real-space Cutoff    1.49 Angstroem

   l    n(q)    QCUT    max X(q) W(low)/X(q) W(high)/X(q)  e(spline)
   2      9    11.641     4.777    0.25E-04    0.21E-05    0.63E-07
   2      9    11.641    31.132    0.13E-03    0.22E-03    0.64E-06
   0     10    11.641    20.416    0.11E-04    0.74E-05    0.19E-07
   0     10    11.641    45.408    0.10E-03    0.85E-04    0.30E-06
   1     10    11.641     7.848    0.22E-04    0.23E-04    0.56E-07
   1     10    11.641     9.895    0.85E-04    0.54E-04    0.16E-06
 Optimization of the real space projectors (new method)

[...]

   l    n(q)    QCUT    max X(q) W(low)/X(q) W(high)/X(q)  e(spline)
   0      8    11.508     8.708    0.18E-04    0.44E-05    0.47E-08
   0      8    11.508   106.241    0.70E-04    0.15E-03    0.51E-07
   1      8    11.508     5.901    0.63E-05    0.23E-04    0.21E-07
   1      8    11.508    73.241    0.15E-03    0.36E-04    0.79E-07
 Optimization of the real space projectors (new method)

 maximal supplied QI-value         = 16.25
 optimisation between [QCUT,QGAM] = [ 11.54, 23.24] = [ 37.28,151.24] Ry
 Optimized for a Real-space Cutoff    1.36 Angstroem

   l    n(q)    QCUT    max X(q) W(low)/X(q) W(high)/X(q)  e(spline)
   0      9    11.539     7.090    0.13E-04    0.25E-05    0.51E-08
   0      9    11.539   101.654    0.53E-04    0.69E-04    0.12E-06
   1      9    11.539     5.276    0.20E-04    0.98E-05    0.24E-07
   1      9    11.539    81.891    0.24E-03    0.13E-04    0.15E-06
   2      9    11.539     5.599    0.30E-04    0.97E-04    0.54E-07

 PAW_PBE Cr 06Sep2000                   :
 PAW_PBE Si 05Jan2001                   :
 PAW_PBE Te 08Apr2002                   :

 POSCAR: Cr2 Si2 Te6
  positions in direct lattice
  velocities in cartesian coordinates
 exchange correlation table for  LEXCH =       42
   RHO(1)=    0.500       N(1)  =     2000
   RHO(2)=  100.500       N(2)  =     4000

 ion  position               nearest neighbor table
   1  0.333  0.333  0.500-   6 2.78   5 2.78   7 2.78   8 2.78  10 2.78   9 2.78
   2  0.667  0.667  0.500-   9 2.78   8 2.78  10 2.78   5 2.78   7 2.78   6 2.78
   3  0.000  0.000  0.448-   4 2.43   8 2.63  10 2.63   9 2.63
   4  0.000  0.000  0.552-   3 2.43   5 2.63   7 2.63   6 2.63
   5  0.626  0.000  0.574-   4 2.63   1 2.78   2 2.78
   6  0.000  0.373  0.574-   4 2.63   1 2.78   2 2.78
   7  0.373  0.626  0.574-   4 2.63   1 2.78   2 2.78
   8  0.374  1.000  0.426-   3 2.63   2 2.78   1 2.78
   9  1.000  0.627  0.426-   3 2.63   2 2.78   1 2.78
  10  0.627  0.374  0.426-   3 2.63   2 2.78   1 2.78

  LATTYP: Found a hexagonal cell.
 ALAT       =     6.9077769333
 C/A-ratio  =     3.3939410937

  Lattice vectors:

 A1 = (   3.4538890000,  -5.9823100000,   0.0000000000)
 A2 = (  -6.9077770000,   0.0000000000,   0.0000000000)
 A3 = (   0.0000000000,   0.0000000000, -23.4445880000)

Analysis of symmetry for initial positions (statically):
 Subroutine PRICEL returns:
 Original cell was already a primitive cell.

 Routine SETGRP: Setting up the symmetry group for a
 hexagonal supercell.

 Subroutine GETGRP returns: Found  6 space group operations
 (whereof  6 operations were pure point group operations)
 out of a pool of 24 trial point group operations.

The static configuration has the point symmetry S_6 .

Analysis of symmetry for dynamics (positions and initial velocities):
 Subroutine PRICEL returns:
 Original cell was already a primitive cell.

[...]

The dynamic configuration has the point symmetry S_6 .

Analysis of constrained symmetry for selective dynamics:
 Subroutine PRICEL returns:
 Original cell was already a primitive cell.

[...]

The constrained configuration has the point symmetry S_6 .

Analysis of structural, dynamic, and magnetic symmetry:
 Subroutine PRICEL returns:
 Original cell was already a primitive cell.

 Routine SETGRP: Setting up the symmetry group for a
 hexagonal supercell.

 Subroutine GETGRP returns: Found  6 space group operations
 (whereof  6 operations were pure point group operations)
 out of a pool of 24 trial point group operations.

The magnetic configuration has the point symmetry S_6 .

 Subroutine INISYM returns: Found  6 space group operations
 (whereof  6 operations are pure point group operations),
 and found     1 'primitive' translations

 KPOINTS: Kpoints from vasprun.xml

Automatic generation of k-mesh.
Space group operators:
 irot       det(A)        alpha          n_x          n_y          n_z        tau_x        tau_y        tau_z
    1     1.000000     0.000000     1.000000     0.000000     0.000000     0.000000     0.000000     0.000000
    2    -1.000000     0.000000     1.000000     0.000000     0.000000     0.000000     0.000000     0.000000
    3     1.000000   120.000000     0.000000     0.000000     1.000000     0.000000     0.000000     0.000000
    4    -1.000000   120.000000     0.000000     0.000000     1.000000     0.000000     0.000000     0.000000
    5     1.000000   120.000000     0.000000     0.000000    -1.000000     0.000000     0.000000     0.000000
    6    -1.000000   120.000000     0.000000     0.000000    -1.000000     0.000000     0.000000     0.000000

 Subroutine IBZKPT returns following result:

 Found      5 irreducible k-points:

 Following reciprocal coordinates:
            Coordinates               Weight
  0.000000  0.000000  0.000000      1.000000
  0.200000  0.000000  0.000000      6.000000
  0.400000  0.000000  0.000000      6.000000
  0.400000  0.200000  0.000000      6.000000
 -0.400000  0.200000  0.000000      6.000000

 Following cartesian coordinates:
            Coordinates               Weight
  0.000000  0.000000  0.000000      1.000000
  0.028953 -0.016716  0.000000      6.000000
  0.057906 -0.033432  0.000000      6.000000
  0.057906  0.000000  0.000000      6.000000
 -0.057906  0.066864  0.000000      6.000000

 TETIRR: Found     15 inequivalent tetrahedra from      150

 SYSTEM =  unknown system
 POSCAR =  Cr2 Si2 Te6

 Startparameter for this run:
   NWRITE =      2    write-flag & timer
   PREC   = accura    normal or accurate (medium, high low for compatibility)
   ISTART =      0    job   : 0-new  1-cont  2-samecut
   ICHARG =      2    charge: 1-file 2-atom 10-const
   ISPIN  =      2    spin polarized calculation?
   LNONCOLLINEAR =      F non collinear calculations
   LSORBIT =      F    spin-orbit coupling
   INIWAV =      1    electr: 0-lowe 1-rand  2-diag
   LASPH  =      F    aspherical Exc in radial PAW
   METAGGA=      F    non-selfconsistent MetaGGA calc.

 Electronic Relaxation 1
   ENCUT  =  520.0 eV  38.22 Ry    6.18 a.u.  12.84 12.84 43.59*2*pi/ulx,y,z
   ENINI  =  520.0     initial cutoff
   ENAUG  =  402.1 eV  augmentation charge cutoff
   NELM   =    400;   NELMIN=  2; NELMDL=  0     # of ELM steps
   EDIFF  = 0.1E-03   stopping-criterion for ELM
   LREAL  =      T    real-space projection
   NLSPLINE    = F    spline interpolate recip. space projectors
   LCOMPAT=      F    compatible to vasp.4.4
   GGA_COMPAT  = T    GGA compatible to vasp.4.4-vasp.4.6
   LMAXPAW     = -100 max onsite density
   LMAXMIX     =    2 max onsite mixed and CHGCAR
   VOSKOWN=      0    Vosko Wilk Nusair interpolation
   ROPT   =   -0.00025  -0.00025  -0.00025
 Ionic relaxation
   EDIFFG = 0.1E-02   stopping-criterion for IOM
   NSW    =     99    number of steps for IOM
   NBLOCK =      1;   KBLOCK =     99    inner block; outer block
   IBRION =      2    ionic relax: 0-MD 1-quasi-New 2-CG
   NFREE  =      1    steps in history (QN), initial steepest desc. (CG)
   ISIF   =      3    stress and relaxation
   IWAVPR =     11    prediction:  0-non 1-charg 2-wave 3-comb
   ISYM   =      2    0-nonsym 1-usesym 2-fastsym
   LCORR  =      T    Harris-Foulkes like correction to forces

   POTIM  = 0.5000    time-step for ionic-motion
   TEIN   =    0.0    initial temperature
   TEBEG  =    0.0;   TEEND  =   0.0 temperature during run
   SMASS  =  -3.00    Nose mass-parameter (am)
   estimated Nose-frequenzy (Omega)   =  0.10E-29 period in steps =****** mass=  -0.109E-26a.u.
   SCALEE = 1.0000    scale energy and forces
   NPACO  =    256;   APACO  = 16.0  distance and # of slots for P.C.
   PSTRESS=    0.0 pullay stress

  Mass of Ions in am
   POMASS =  52.00 28.09127.60
  Ionic Valenz
   ZVAL   =   6.00  4.00  6.00
  Atomic Wigner-Seitz radii
  virtual crystal weights
   VCA    =   1.00  1.00  1.00
   NELECT =      56.0000    total number of electrons
   NUPDOWN=      -1.0000    fix difference up-down

 DOS related values:
   EMIN   =  10.00;   EMAX   =-10.00  energy-range for DOS
   EFERMI =   0.00
   ISMEAR =    -5;   SIGMA  =   0.05  broadening in eV -4-tet -1-fermi 0-gaus

 Electronic relaxation 2 (details)
   IALGO  =     38    algorithm
   LDIAG  =      T    sub-space diagonalisation (order eigenvalues)
   LSUBROT=      F    optimize rotation matrix (better conditioning)
   TURBO    =      0    0=normal 1=particle mesh
   IRESTART =      0    0=no restart 2=restart with 2 vectors
   NREBOOT  =      0    no. of reboots
   NMIN     =      0    reboot dimension
   EREF     =   0.00    reference energy to select bands
   IMIX   =      4    mixing-type and parameters
     AMIX     =   0.40;   BMIX     =  1.00
     AMIX_MAG =   1.60;   BMIX_MAG =  1.00
     AMIN     =   0.01
     WC   =   100.;   INIMIX=   1;  MIXPRE=   1;  MAXMIX= -45

 Intra band minimization:
   WEIMIN = 0.0010     energy-eigenvalue tresh-hold
   EBREAK =  0.52E-06  absolut break condition
   DEPER  =   0.30     relativ break condition

[...]
    9        1.385   1.972   0.032   3.389
   10        1.389   1.967   0.033   3.389
tot         10.566  14.182   8.670  33.419

 magnetization (x)

[...]

  FORCE on cell =-STRESS in cart. coord.  units (eV):
  Direction    XX          YY          ZZ          XY          YZ          ZX
  Alpha Z    10.43338    10.43338    10.43338
  Ewald    7419.63051  7419.62857 -8853.36149    -0.00107    -0.00038    -0.00069
  Hartree  7724.62641  7724.62681 -7582.64930    -0.00004     0.00005     0.00008
  E(xc)    -221.77514  -221.77514  -221.59713     0.00004     0.00002     0.00002
  Local  -15997.50437-15997.50362 15553.08021     0.00086     0.00024     0.00044
  n-local   719.07866   720.96049   731.65234     0.75951     0.88904     0.95487
  augment  -110.88476  -110.88463  -117.22667     0.00000     0.00003     0.00002
  Kinetic   454.14715   448.52690   476.86593    -4.09788     0.72180     0.74042
  Fock        0.00000     0.00000     0.00000     0.00000     0.00000     0.00000
  Total      -4.11770    -4.11770    -2.80274     0.00000     0.00000     0.00000
  in kB      -6.80950    -6.80950    -4.63493     0.00000     0.00000     0.00000

 VOLUME and BASIS-vectors are now :
  energy-cutoff  :      520.00
  volume of cell :      968.84
      direct lattice vectors                 reciprocal lattice vectors
     6.907777000 -0.000000000  0.000000000     0.144764372 -0.083579742  0.000000000
     3.453888000  5.982310000  0.000000000     0.000000000  0.167159509 -0.000000000
     0.000000000  0.000000000 23.444588000    -0.000000000  0.000000000  0.042653767

[...]

 FORCES acting on ions
    electron-ion (+dipol)            ewald-force                    non-local-force                 convergence-correction
   -.213E-04 -.191E-04 0.638E+00   0.306E-03 0.183E-03 -.640E+00   -.694E-17 0.139E-16 -.945E-03   0.453E-05 0.262E-05 -.394E-04
   0.213E-04 0.191E-04 -.638E+00   -.306E-03 -.183E-03 0.640E+00   0.000E+00 -.139E-16 0.945E-03   -.453E-05 -.262E-05 0.394E-04
   -.292E-04 -.190E-04 0.163E+03   -.141E-03 -.779E-04 -.158E+03   -.312E-16 -.694E-17 -.377E+01   -.106E-05 -.562E-06 -.121E-01
   0.292E-04 0.190E-04 -.163E+03   0.141E-03 0.779E-04 0.158E+03   0.312E-16 0.694E-17 0.377E+01   0.106E-05 0.562E-06 0.121E-01
   -.816E+01 0.159E+00 -.338E+03   0.444E+01 -.152E+00 0.342E+03   0.422E+01 -.158E-01 -.459E+01   -.237E-02 -.732E-04 0.353E-01
   0.422E+01 0.699E+01 -.338E+03   -.235E+01 -.377E+01 0.342E+03   -.213E+01 -.365E+01 -.459E+01   0.112E-02 0.209E-02 0.353E-01
   0.394E+01 -.715E+01 -.338E+03   -.209E+01 0.392E+01 0.342E+03   -.210E+01 0.367E+01 -.459E+01   0.125E-02 -.201E-02 0.353E-01
   0.816E+01 -.159E+00 0.338E+03   -.444E+01 0.152E+00 -.342E+03   -.422E+01 0.158E-01 0.459E+01   0.237E-02 0.732E-04 -.353E-01
   -.422E+01 -.699E+01 0.338E+03   0.235E+01 0.377E+01 -.342E+03   0.213E+01 0.365E+01 0.459E+01   -.112E-02 -.209E-02 -.353E-01
   -.394E+01 0.715E+01 0.338E+03   0.209E+01 -.392E+01 -.342E+03   0.210E+01 -.367E+01 0.459E+01   -.125E-02 0.201E-02 -.353E-01
   -.351E-09 -.267E-09 0.291E-09   0.155E-13 0.799E-14 -.171E-12   0.000E+00 0.000E+00 0.178E-14   0.117E-13 -.122E-13 -.173E-11

 POSITION                                       TOTAL-FORCE (eV/Angst)
      3.45388      1.99410     11.72054        -0.000000     -0.000000     -0.002964
      6.90778      3.98821     11.72405         0.000000      0.000000      0.002964
      0.00000      0.00000     10.50824         0.000000      0.000000      0.934183
      0.00000      0.00000     12.93635        -0.000000     -0.000000     -0.934183
      4.32819      0.00251     13.45138         0.494881     -0.008719     -0.063127
      1.29198      2.23274     13.45138        -0.254991     -0.424220     -0.063127
      4.74152      3.74706     13.45138        -0.239889      0.432939     -0.063127
      6.03348      5.97980      9.99321        -0.494881      0.008719      0.063127
      9.06969      3.74957      9.99321         0.254991      0.424220      0.063127
      5.62015      2.23525      9.99321         0.239889     -0.432939      0.063127
    total drift:                               -0.000000     -0.000000      0.000000

  FREE ENERGIE OF THE ION-ELECTRON SYSTEM (eV)
  free  energy   TOTEN  =       -43.83416662 eV

  energy  without entropy=      -43.83416662  energy(sigma->0) =      -43.83416662

[...]

 d Force = 0.4425344E-01[ 0.179E-01, 0.706E-01]  d Energy = 0.9861387E-01-0.544E-01
 d Force =-0.5790591E+01[-0.603E+01,-0.555E+01]  d Ewald  =-0.1856917E+03 0.180E+03

 Steepest descent step on ions:
 trial-energy change:   -0.098614  1 .order   -0.090851   -0.273557    0.091855
  (g-gl).g = 0.274E+00      g.g   = 0.274E+00  gl.gl    = 0.000E+00
 g(Force)  = 0.721E-01   g(Stress)= 0.201E+00 ortho     = 0.000E+00
 gamma     =   0.00000
 trial     =   1.00000
 opt step  =   0.77112  (harmonic =   0.74863) maximal distance =0.01841006
 next E    =   -43.943199   (d E  =  -0.10903)

[...]

 d Force =-0.5868314E-02[-0.754E-02,-0.420E-02]  d Energy = 0.1043431E-01-0.163E-01
 d Force = 0.1389484E+01[ 0.138E+01, 0.140E+01]  d Ewald  = 0.4341796E+02-0.420E+02

[...]

 d Force = 0.2791690E-01[ 0.220E-01, 0.339E-01]  d Energy = 0.3310716E-01-0.519E-02
 d Force = 0.1851645E+02[ 0.184E+02, 0.186E+02]  d Ewald  = 0.7125048E+02-0.527E+02

 Conjugate gradient step on ions:
 trial-energy change:   -0.033107  1 .order   -0.032563   -0.037849   -0.027278
  (g-gl).g = 0.450E-01      g.g   = 0.404E-01  gl.gl    = 0.274E+00
 g(Force)  = 0.301E-01   g(Stress)= 0.103E-01 ortho     =-0.461E-02
 gamma     =   0.16462
 trial     =   0.95422
 opt step  =   2.35252  (harmonic =   3.41667) maximal distance =0.03807095
 next E    =   -43.998019   (d E  =  -0.05480)

[...]

 d Force =-0.4078093E-01[-0.947E-01, 0.131E-01]  d Energy =-0.2221285E-01-0.186E-01
 d Force = 0.5196607E+02[ 0.511E+02, 0.528E+02]  d Ewald  = 0.2026409E+03-0.151E+03

[...]

 Conjugate gradient step on ions:
 trial-energy change:   -0.008189  1 .order   -0.012249   -0.013150   -0.011348
  (g-gl).g = 0.253E-01      g.g   = 0.262E-01  gl.gl    = 0.187E-01
 g(Force)  = 0.115E-02   g(Stress)= 0.251E-01 ortho     = 0.987E-03
 gamma     =   1.35202
 trial     =   0.47765
 opt step  =   1.91058  (harmonic =   3.48580) maximal distance =0.02705445
 next E    =   -44.071821   (d E  =  -0.04798)

[...]

 d Force = 0.1396285E-01[ 0.182E-01, 0.970E-02]  d Energy = 0.7795885E-02 0.617E-02
 d Force = 0.4065351E+02[ 0.406E+02, 0.407E+02]  d Ewald  = 0.2034550E+03-0.163E+03

[...]

 d Force =-0.4828320E-02[-0.451E-02,-0.515E-02]  d Energy = 0.1936712E-02-0.677E-02
 d Force =-0.1145569E+02[-0.115E+02,-0.115E+02]  d Ewald  =-0.5597540E+02 0.445E+02

[...]

 d Force = 0.7778228E-02[ 0.747E-02, 0.808E-02]  d Energy = 0.8988585E-02-0.121E-02
 d Force = 0.1977542E+02[ 0.198E+02, 0.197E+02]  d Ewald  =-0.5261314E+01 0.250E+02

[...]

 d Force = 0.1518165E-01[ 0.131E-01, 0.173E-01]  d Energy = 0.5761958E-02 0.942E-02
 d Force = 0.4624254E+02[ 0.465E+02, 0.459E+02]  d Ewald  =-0.1224630E+02 0.585E+02

[...]

 eigenvalue-minimisations  :  1128
 total energy-change (2. order) : 0.3954265E-03  (-0.1658409E-03)
 number of electron      55.9999996 magnetization       5.9999996
 augmentation part       -2.3246165 magnetization       4.3015008

[...]

 eigenvalues of (default mixing * dielectric matrix)
  average eigenvalue GAMMA=   0.9927
  1.7773  0.8131  0.3876

[...]

 d Force = 0.3615071E-02[-0.203E-02, 0.926E-02]  d Energy = 0.6110334E-02-0.250E-02
 d Force = 0.3168530E+02[ 0.316E+02, 0.317E+02]  d Ewald  = 0.3970263E+02-0.802E+01

 Conjugate gradient step on ions:
 trial-energy change:   -0.006110  1 .order   -0.005587   -0.013070    0.001896
  (g-gl).g = 0.139E-01      g.g   = 0.146E-01  gl.gl    = 0.172E-01
 g(Force)  = 0.315E-02   g(Stress)= 0.115E-01 ortho     =-0.946E-03
 gamma     =   0.81015
 trial     =   0.94202
 opt step  =   0.84152  (harmonic =   0.82268) maximal distance =0.01357311
 next E    =   -44.062720   (d E  =  -0.00621)

[...]

 Broyden mixing:
  rms(total) = 0.33137E-02    rms(broyden)= 0.33134E-02
  rms(prec ) = 0.34854E-02
  weight for this iteration     100.00

[...]

--------------------------------------- Iteration     16(   2)  ---------------------------------------

[...]

 eigenvalue-minimisations  :  1104
 total energy-change (2. order) :-0.1287644E-04  (-0.4190581E-04)
 number of electron      55.9999996 magnetization       5.9999996
 augmentation part       -2.3204940 magnetization       4.2986531

 Free energy of the ion-electron system (eV)
  alpha Z        PSCENC =        11.34831228
  Ewald energy   TEWEN  =      5442.87233548
  -Hartree energ DENC   =     -7335.28295911
  -exchange      EXHF   =         0.00000000
  -V(xc)+E(xc)   XCENC  =      -230.40004579
  PAW double counting   =      1214.88556232     -897.63300577
  entropy T*S    EENTRO =         0.00000000
  eigenvalues    EBANDS =      -359.53110808
  atomic energy  EATOM  =      2109.67816268
  Solvation  Ediel_sol  =         0.00000000
  free energy    TOTEN  =       -44.06274599 eV

  energy without entropy =      -44.06274599  energy(sigma->0) =      -44.06274599

 average (electrostatic) potential at core
  the test charge radii are     1.1394  0.9892  1.1897
  (the norm of the test charge is              1.0000)
       1 -50.3895       2 -50.3895       3 -91.8366       4 -91.8366       5 -96.1084
       6 -96.1084       7 -96.1084       8 -96.1084       9 -96.1084      10 -96.1084

 E-fermi :  -1.8944     XC(G=0):  -3.7302     alpha+bet : -3.3786

[...]

 spin component 2

[...]

 k-point     5 :      -0.4000    0.2000    0.0000
  band No.  band energies     occupation
      1     -13.8019      1.00000
      2     -13.3253      1.00000
      3     -13.0941      1.00000
      4     -12.9943      1.00000
      5     -12.8240      1.00000
      6     -12.6680      1.00000
      7      -9.6590      1.00000
      8      -7.9867      1.00000
      9      -6.2550      1.00000
     10      -5.8696      1.00000
     11      -5.7710      1.00000
     12      -5.3334      1.00000
     13      -5.2600      1.00000
     14      -4.8488      1.00000
     15      -4.4069      1.00000
     16      -4.1701      1.00000
     17      -4.0221      1.00000
     18      -3.8911      1.00000
     19      -3.8142      1.00000
     20      -3.6603      1.00000
     21      -3.3510      1.00000
     22      -3.1127      1.00000
     23      -2.9513      1.00000
     24      -2.9294      1.00000
     25      -2.7957      1.00000
     26      -1.3772      0.00000
     27      -0.6666      0.00000
     28      -0.6272      0.00000
     29      -0.2670      0.00000
     30      -0.0668      0.00000
     31      -0.0311      0.00000
     32      -0.0298      0.00000
     33       0.2590      0.00000
     34       0.2854      0.00000
     35       0.6804      0.00000
     36       0.7345      0.00000
     37       0.9053      0.00000
     38       1.2532      0.00000
     39       1.4448      0.00000
     40       2.0344      0.00000
     41       2.2823      0.00000
     42       2.3190      0.00000
     43       3.1166      0.00000
     44       3.1437      0.00000
     45       3.2244      0.00000
     46       3.2998      0.00000
     47       3.3051      0.00000
     48       3.7958      0.00000

[...]

 soft charge-density along one line, spin component           2
         0         1         2         3         4         5         6         7         8         9
 total charge-density along one line

------------------------ aborting loop because EDIFF is reached ----------------------------------------

[...]

  FORCE on cell =-STRESS in cart. coord.  units (eV):
  Direction    XX          YY          ZZ          XY          YZ          ZX
  Alpha Z    11.34831    11.34831    11.34831
  Ewald    6892.47381  6892.47168 -8342.07613    -0.00098    -0.00040    -0.00073
  Hartree  7200.86609  7200.86645 -7065.63930    -0.00001     0.00005     0.00009
  E(xc)    -222.92605  -222.92603  -222.58000     0.00002     0.00001     0.00002
  Local  -14950.55294-14950.55204 14522.18210     0.00075     0.00025     0.00047
  n-local   723.09697   724.80374   734.16042     0.68569     0.92801     0.93128
  augment  -110.73538  -110.73527  -116.72322    -0.00002     0.00002     0.00002
  Kinetic   458.75125   452.70271   479.16165    -4.32052     0.58031     0.59548
  Fock        0.00000     0.00000     0.00000     0.00000     0.00000     0.00000
  Total       0.15081     0.15081    -0.16617     0.00000     0.00000    -0.00000
  in kB       0.27126     0.27126    -0.29889     0.00000     0.00000    -0.00000

 VOLUME and BASIS-vectors are now :
  energy-cutoff  :      520.00
  volume of cell :      890.72
      direct lattice vectors                 reciprocal lattice vectors
     6.819546881 -0.000000132 -0.000000000     0.146637307 -0.084661086  0.000000000
     3.409773075  5.905900424 -0.000000000     0.000000003  0.169322189 -0.000000000
    -0.000000000  0.000000000 22.115760480     0.000000000 -0.000000000  0.045216623

  length of vectors
     6.819546881  6.819546337 22.115760480     0.169322176  0.169322189  0.045216623

 FORCES acting on ions
    electron-ion (+dipol)            ewald-force                    non-local-force                 convergence-correction
   -.327E-04 -.232E-04 -.154E+00   0.317E-03 0.187E-03 0.154E+00   0.347E-17 -.369E-20 -.381E-02   -.430E-07 -.260E-07 -.138E-03
   0.327E-04 0.232E-04 0.154E+00   -.317E-03 -.187E-03 -.154E+00   -.546E-20 0.347E-17 0.381E-02   0.430E-07 0.260E-07 0.138E-03
   -.300E-04 -.279E-04 0.159E+03   -.144E-03 -.795E-04 -.154E+03   0.561E-16 -.120E-16 -.523E+01   0.267E-07 0.253E-08 -.165E-01
   0.300E-04 0.279E-04 -.159E+03   0.144E-03 0.795E-04 0.154E+03   -.699E-16 0.259E-16 0.523E+01   -.267E-07 -.253E-08 0.165E-01
   -.360E+01 0.619E-02 -.342E+03   -.184E+00 -.940E-02 0.347E+03   0.377E+01 0.258E-02 -.465E+01   0.941E-02 -.841E-04 0.353E-01
   0.180E+01 0.311E+01 -.342E+03   0.835E-01 0.164E+00 0.347E+03   -.188E+01 -.327E+01 -.465E+01   -.478E-02 -.811E-02 0.353E-01
   0.179E+01 -.312E+01 -.342E+03   0.100E+00 -.155E+00 0.347E+03   -.189E+01 0.326E+01 -.465E+01   -.463E-02 0.819E-02 0.353E-01
   0.360E+01 -.619E-02 0.342E+03   0.184E+00 0.940E-02 -.347E+03   -.377E+01 -.258E-02 0.465E+01   -.941E-02 0.841E-04 -.353E-01
   -.180E+01 -.311E+01 0.342E+03   -.835E-01 -.164E+00 -.347E+03   0.188E+01 0.327E+01 0.465E+01   0.478E-02 0.811E-02 -.353E-01
   -.179E+01 0.312E+01 0.342E+03   -.100E+00 0.155E+00 -.347E+03   0.189E+01 -.326E+01 0.465E+01   0.463E-02 -.819E-02 -.353E-01
   0.827E-10 0.699E-10 -.137E-09   0.182E-13 -.305E-14 0.114E-12   -.444E-15 0.000E+00 0.000E+00   0.122E-12 -.515E-12 0.850E-11

 POSITION                                       TOTAL-FORCE (eV/Angst)
      3.40977      1.96863     11.05866         0.000000      0.000000     -0.003359
      6.81955      3.93727     11.05710        -0.000000      0.000000      0.003359
     -0.00000      0.00000      9.91264        -0.000000      0.000000      0.049847
     -0.00000      0.00000     12.20312         0.000000     -0.000000     -0.049847
      4.33702     -0.00036     12.79445         0.000385     -0.000139     -0.009851
      1.24095      2.15012     12.79445        -0.000313     -0.000264     -0.009851
      4.65136      3.75615     12.79445        -0.000072      0.000403     -0.009851
      2.48253      0.00036      9.32131        -0.000385      0.000139      0.009851
      2.16882      3.75578      9.32131         0.000313      0.000264      0.009851
      5.57796      2.14975      9.32131         0.000072     -0.000403      0.009851
    total drift:                                0.000000      0.000000     -0.000000

  FREE ENERGIE OF THE ION-ELECTRON SYSTEM (eV)
  free  energy   TOTEN  =       -44.06274599 eV

  energy  without entropy=      -44.06274599  energy(sigma->0) =      -44.06274599

 d Force = 0.1563307E-03[ 0.962E-04, 0.216E-03]  d Energy = 0.1262094E-03 0.301E-04
 d Force =-0.3370449E+01[-0.337E+01,-0.337E+01]  d Ewald  =-0.4225144E+01 0.855E+00

 reached required accuracy - stopping structural energy minimisation

 total charge

[...]

 magnetization (x)

# of ion       s       p       d       tot
    1        0.042   0.046   3.050   3.138
    2        0.042   0.046   3.050   3.138
    3        0.003   0.026   0.000   0.029
    4        0.003   0.026   0.000   0.029
    5       -0.001  -0.100   0.005  -0.097
    6       -0.002  -0.083   0.005  -0.080
    7       -0.001  -0.095   0.005  -0.092
    8       -0.001  -0.100   0.005  -0.097
    9       -0.002  -0.083   0.005  -0.080
   10       -0.001  -0.095   0.005  -0.092
tot          0.080  -0.412   6.130   5.799

 BZINTS: Fermi energy: -1.894424; 56.000000 electrons
         Band energy:-359.531108;  BLOECHL correction:  0.000000