 vasp.5.4.4.18Apr17-6-g9f103f2a35 (build May  1 2020 15:48:39) complex
 executed on             LinuxGNU date 2020.07.07  16:48:44

 INCAR:
 POTCAR:   PAW_PBE Fe 06Sep2000
 POTCAR:   PAW_PBE Si 05Jan2001
 POTCAR:    PAW_PBE S 17Jan2003

 POTCAR:   PAW_PBE Fe 06Sep2000
   VRHFIN =Fe:  d7 s1

   TITEL  = PAW_PBE Fe 06Sep2000
   POMASS =   55.847; ZVAL   =    8.000    mass and valenz
   ENMAX  =  267.883; ENMIN  =  200.912 eV
   QCUT   =   -4.437; QGAM   =    8.874    optimization parameters

   Description
     l     E      TYP  RCUT    TYP  RCUT
     2   .000     23  2.300
     2   .000     23  2.300
     0   .000     23  2.300
     0   .000     23  2.300
     1  -.200     23  2.300
     1   .000     23  2.300
     3   .000      7   .000

 POTCAR:   PAW_PBE Si 05Jan2001
   VRHFIN =Si: s2p2

   TITEL  = PAW_PBE Si 05Jan2001
   POMASS =   28.085; ZVAL   =    4.000    mass and valenz
   ENMAX  =  245.345; ENMIN  =  184.009 eV
   QCUT   =   -4.246; QGAM   =    8.493    optimization parameters

[...]

 POTCAR:    PAW_PBE S 17Jan2003
   VRHFIN =S : s2p4

   TITEL  = PAW_PBE S 17Jan2003
   POMASS =   32.066; ZVAL   =    6.000    mass and valenz
   ENMAX  =  280.000; ENMIN  =  194.016 eV
   QCUT   =   -4.360; QGAM   =    8.721    optimization parameters

   Description
     l     E      TYP  RCUT    TYP  RCUT
     0   .000     23  1.900
     0   .000     23  1.900
     1   .000     23  1.900
     1   .000     23  1.900
     2   .000     23  1.900

 Optimization of the real space projectors (new method)

 maximal supplied QI-value         = 16.25
 optimisation between [QCUT,QGAM] = [ 11.54, 23.24] = [ 37.28,151.24] Ry
 Optimized for a Real-space Cutoff    1.53 Angstroem

   l    n(q)    QCUT    max X(q) W(low)/X(q) W(high)/X(q)  e(spline)
   2     10    11.539     4.378    0.86E-05    0.15E-04    0.46E-07
   2     10    11.539    23.237    0.11E-03    0.14E-03    0.22E-06
   0     11    11.539    17.641    0.19E-04    0.14E-05    0.18E-07
   0     11    11.539    50.908    0.43E-04    0.16E-04    0.30E-06
   1     10    11.539     6.148    0.11E-04    0.38E-05    0.26E-07
   1     10    11.539     8.345    0.44E-04    0.25E-04    0.11E-06
 Optimization of the real space projectors (new method)

[...]

   l    n(q)    QCUT    max X(q) W(low)/X(q) W(high)/X(q)  e(spline)
   0      8    11.508     8.708    0.18E-04    0.44E-05    0.47E-08
   0      8    11.508   106.241    0.70E-04    0.15E-03    0.51E-07
   1      8    11.508     5.901    0.63E-05    0.23E-04    0.21E-07
   1      8    11.508    73.241    0.15E-03    0.36E-04    0.79E-07
 Optimization of the real space projectors (new method)

 maximal supplied QI-value         = 19.84
 optimisation between [QCUT,QGAM] = [ 11.51, 23.22] = [ 37.09,150.92] Ry
 Optimized for a Real-space Cutoff    1.21 Angstroem

   l    n(q)    QCUT    max X(q) W(low)/X(q) W(high)/X(q)  e(spline)
   0      8    11.508     5.487    0.18E-04    0.22E-05    0.47E-08
   0      8    11.508    85.627    0.96E-04    0.18E-03    0.54E-07
   1      8    11.508     3.530    0.17E-04    0.28E-04    0.21E-07
   1      8    11.508    42.714    0.18E-03    0.63E-04    0.92E-07

 PAW_PBE Fe 06Sep2000                   :
 PAW_PBE Si 05Jan2001                   :
  PAW_PBE S 17Jan2003                   :

 POSCAR: Fe2 Si2 S6
  positions in direct lattice
  velocities in cartesian coordinates
 exchange correlation table for  LEXCH =       42
   RHO(1)=    0.500       N(1)  =     2000
   RHO(2)=  100.500       N(2)  =     4000

 ion  position               nearest neighbor table
   1  0.333  0.333  0.500-   6 2.78   5 2.78   7 2.78   8 2.78  10 2.78   9 2.78
   2  0.667  0.667  0.500-   9 2.78   8 2.78  10 2.78   5 2.78   7 2.78   6 2.78
   3  0.000  0.000  0.448-   4 2.43   8 2.63  10 2.63   9 2.63
   4  0.000  0.000  0.552-   3 2.43   5 2.63   7 2.63   6 2.63
   5  0.626  0.000  0.574-   4 2.63   1 2.78   2 2.78
   6  0.000  0.373  0.574-   4 2.63   1 2.78   2 2.78
   7  0.373  0.626  0.574-   4 2.63   1 2.78   2 2.78
   8  0.374  1.000  0.426-   3 2.63   2 2.78   1 2.78
   9  1.000  0.627  0.426-   3 2.63   2 2.78   1 2.78
  10  0.627  0.374  0.426-   3 2.63   2 2.78   1 2.78

  LATTYP: Found a hexagonal cell.
 ALAT       =     6.9077769333
 C/A-ratio  =     3.3939410937

  Lattice vectors:

 A1 = (   3.4538890000,  -5.9823100000,   0.0000000000)
 A2 = (  -6.9077770000,   0.0000000000,   0.0000000000)
 A3 = (   0.0000000000,   0.0000000000, -23.4445880000)

Analysis of symmetry for initial positions (statically):
 Subroutine PRICEL returns:
 Original cell was already a primitive cell.

 Routine SETGRP: Setting up the symmetry group for a
 hexagonal supercell.

 Subroutine GETGRP returns: Found  6 space group operations
 (whereof  6 operations were pure point group operations)
 out of a pool of 24 trial point group operations.

The static configuration has the point symmetry S_6 .

Analysis of symmetry for dynamics (positions and initial velocities):
 Subroutine PRICEL returns:
 Original cell was already a primitive cell.

[...]

The dynamic configuration has the point symmetry S_6 .

Analysis of constrained symmetry for selective dynamics:
 Subroutine PRICEL returns:
 Original cell was already a primitive cell.

[...]

The constrained configuration has the point symmetry S_6 .

Analysis of structural, dynamic, and magnetic symmetry:
 Subroutine PRICEL returns:
 Original cell was already a primitive cell.

 Routine SETGRP: Setting up the symmetry group for a
 hexagonal supercell.

 Subroutine GETGRP returns: Found  6 space group operations
 (whereof  6 operations were pure point group operations)
 out of a pool of 24 trial point group operations.

The magnetic configuration has the point symmetry S_6 .

 Subroutine INISYM returns: Found  6 space group operations
 (whereof  6 operations are pure point group operations),
 and found     1 'primitive' translations

 KPOINTS: Kpoints from vasprun.xml

Automatic generation of k-mesh.
Space group operators:
 irot       det(A)        alpha          n_x          n_y          n_z        tau_x        tau_y        tau_z
    1     1.000000     0.000000     1.000000     0.000000     0.000000     0.000000     0.000000     0.000000
    2    -1.000000     0.000000     1.000000     0.000000     0.000000     0.000000     0.000000     0.000000
    3     1.000000   120.000000     0.000000     0.000000     1.000000     0.000000     0.000000     0.000000
    4    -1.000000   120.000000     0.000000     0.000000     1.000000     0.000000     0.000000     0.000000
    5     1.000000   120.000000     0.000000     0.000000    -1.000000     0.000000     0.000000     0.000000
    6    -1.000000   120.000000     0.000000     0.000000    -1.000000     0.000000     0.000000     0.000000

 Subroutine IBZKPT returns following result:

 Found      5 irreducible k-points:

 Following reciprocal coordinates:
            Coordinates               Weight
  0.000000  0.000000  0.000000      1.000000
  0.200000  0.000000  0.000000      6.000000
  0.400000  0.000000  0.000000      6.000000
  0.400000  0.200000  0.000000      6.000000
 -0.400000  0.200000  0.000000      6.000000

 Following cartesian coordinates:
            Coordinates               Weight
  0.000000  0.000000  0.000000      1.000000
  0.028953 -0.016716  0.000000      6.000000
  0.057906 -0.033432  0.000000      6.000000
  0.057906  0.000000  0.000000      6.000000
 -0.057906  0.066864  0.000000      6.000000

 TETIRR: Found     15 inequivalent tetrahedra from      150

 SYSTEM =  unknown system
 POSCAR =  Fe2 Si2 S6

 Startparameter for this run:
   NWRITE =      2    write-flag & timer
   PREC   = accura    normal or accurate (medium, high low for compatibility)
   ISTART =      0    job   : 0-new  1-cont  2-samecut
   ICHARG =      2    charge: 1-file 2-atom 10-const
   ISPIN  =      2    spin polarized calculation?
   LNONCOLLINEAR =      F non collinear calculations
   LSORBIT =      F    spin-orbit coupling
   INIWAV =      1    electr: 0-lowe 1-rand  2-diag
   LASPH  =      F    aspherical Exc in radial PAW
   METAGGA=      F    non-selfconsistent MetaGGA calc.

 Electronic Relaxation 1
   ENCUT  =  520.0 eV  38.22 Ry    6.18 a.u.  12.84 12.84 43.59*2*pi/ulx,y,z
   ENINI  =  520.0     initial cutoff
   ENAUG  =  511.4 eV  augmentation charge cutoff
   NELM   =    400;   NELMIN=  2; NELMDL=  0     # of ELM steps
   EDIFF  = 0.1E-03   stopping-criterion for ELM
   LREAL  =      T    real-space projection
   NLSPLINE    = F    spline interpolate recip. space projectors
   LCOMPAT=      F    compatible to vasp.4.4
   GGA_COMPAT  = T    GGA compatible to vasp.4.4-vasp.4.6
   LMAXPAW     = -100 max onsite density
   LMAXMIX     =    2 max onsite mixed and CHGCAR
   VOSKOWN=      0    Vosko Wilk Nusair interpolation
   ROPT   =   -0.00025  -0.00025  -0.00025
 Ionic relaxation
   EDIFFG = 0.1E-02   stopping-criterion for IOM
   NSW    =     99    number of steps for IOM
   NBLOCK =      1;   KBLOCK =     99    inner block; outer block
   IBRION =      2    ionic relax: 0-MD 1-quasi-New 2-CG
   NFREE  =      1    steps in history (QN), initial steepest desc. (CG)
   ISIF   =      3    stress and relaxation
   IWAVPR =     11    prediction:  0-non 1-charg 2-wave 3-comb
   ISYM   =      2    0-nonsym 1-usesym 2-fastsym
   LCORR  =      T    Harris-Foulkes like correction to forces

   POTIM  = 0.5000    time-step for ionic-motion
   TEIN   =    0.0    initial temperature
   TEBEG  =    0.0;   TEEND  =   0.0 temperature during run
   SMASS  =  -3.00    Nose mass-parameter (am)
   estimated Nose-frequenzy (Omega)   =  0.10E-29 period in steps =****** mass=  -0.109E-26a.u.
   SCALEE = 1.0000    scale energy and forces
   NPACO  =    256;   APACO  = 16.0  distance and # of slots for P.C.
   PSTRESS=    0.0 pullay stress

  Mass of Ions in am
   POMASS =  55.85 28.09 32.07
  Ionic Valenz
   ZVAL   =   8.00  4.00  6.00
  Atomic Wigner-Seitz radii
  virtual crystal weights
   VCA    =   1.00  1.00  1.00
   NELECT =      60.0000    total number of electrons
   NUPDOWN=      -1.0000    fix difference up-down

 DOS related values:
   EMIN   =  10.00;   EMAX   =-10.00  energy-range for DOS
   EFERMI =   0.00
   ISMEAR =    -5;   SIGMA  =   0.05  broadening in eV -4-tet -1-fermi 0-gaus

 Electronic relaxation 2 (details)
   IALGO  =     38    algorithm
   LDIAG  =      T    sub-space diagonalisation (order eigenvalues)
   LSUBROT=      F    optimize rotation matrix (better conditioning)
   TURBO    =      0    0=normal 1=particle mesh
   IRESTART =      0    0=no restart 2=restart with 2 vectors
   NREBOOT  =      0    no. of reboots
   NMIN     =      0    reboot dimension
   EREF     =   0.00    reference energy to select bands
   IMIX   =      4    mixing-type and parameters
     AMIX     =   0.40;   BMIX     =  1.00
     AMIX_MAG =   1.60;   BMIX_MAG =  1.00
     AMIN     =   0.01
     WC   =   100.;   INIMIX=   1;  MIXPRE=   1;  MAXMIX= -45

 Intra band minimization:
   WEIMIN = 0.0010     energy-eigenvalue tresh-hold
   EBREAK =  0.52E-06  absolut break condition
   DEPER  =   0.30     relativ break condition

   TIME   =   0.40     timestep for ELM

  volume/ion in A,a.u.               =      96.88       653.80
[...]
  Hartree  9285.28530  9285.28591 -8851.19141    -0.00026     0.00005     0.00008
  E(xc)    -229.22688  -229.22684  -228.81220    -0.00006    -0.00000     0.00001
  Local  -18823.95236-18823.95189 18275.75651     0.00155     0.00027     0.00051
  n-local   449.97529   452.61805   462.72114     1.13527     0.31279     0.15891
  augment   -35.09104   -35.09092   -38.25885    -0.00002     0.00003     0.00003
  Kinetic   635.20134   634.64659   672.84747    -1.08133     0.25548     0.45563
  Fock        0.00000     0.00000     0.00000     0.00000     0.00000     0.00000
  Total     -28.72608   -28.72607   -14.73322     0.00000     0.00000     0.00000
  in kB     -47.50475   -47.50475   -24.36456     0.00000     0.00000     0.00000

 VOLUME and BASIS-vectors are now :
  energy-cutoff  :      520.00
  volume of cell :      968.84
      direct lattice vectors                 reciprocal lattice vectors
     6.907777000 -0.000000000  0.000000000     0.144764372 -0.083579742  0.000000000
     3.453888000  5.982310000  0.000000000     0.000000000  0.167159509 -0.000000000
     0.000000000  0.000000000 23.444588000    -0.000000000  0.000000000  0.042653767

[...]

 FORCES acting on ions
    electron-ion (+dipol)            ewald-force                    non-local-force                 convergence-correction
   0.206E-03 0.978E-04 0.921E+00   0.461E-03 0.278E-03 -.899E+00   0.867E-18 0.000E+00 -.165E-01   -.259E-05 -.150E-05 -.295E-03
   -.206E-03 -.978E-04 -.921E+00   -.461E-03 -.278E-03 0.899E+00   0.130E-17 0.000E+00 0.165E-01   0.259E-05 0.150E-05 0.295E-03
   -.205E-04 -.592E-05 0.178E+03   -.141E-03 -.779E-04 -.172E+03   -.173E-16 -.139E-16 -.576E+01   0.371E-06 0.198E-06 0.196E-01
   0.205E-04 0.592E-05 -.178E+03   0.141E-03 0.779E-04 0.172E+03   0.173E-16 0.139E-16 0.576E+01   -.371E-06 -.198E-06 -.196E-01
   -.168E+02 0.161E+00 -.381E+03   0.139E+02 -.154E+00 0.384E+03   0.450E+01 -.132E-01 -.479E+01   0.541E-02 -.641E-03 -.348E-01
   0.856E+01 0.145E+02 -.381E+03   -.706E+01 -.119E+02 0.384E+03   -.226E+01 -.389E+01 -.479E+01   -.326E-02 -.437E-02 -.348E-01
   0.827E+01 -.147E+02 -.381E+03   -.679E+01 0.121E+02 0.384E+03   -.224E+01 0.390E+01 -.479E+01   -.215E-02 0.501E-02 -.348E-01
   0.168E+02 -.161E+00 0.381E+03   -.139E+02 0.154E+00 -.384E+03   -.450E+01 0.132E-01 0.479E+01   -.541E-02 0.641E-03 0.348E-01
   -.856E+01 -.145E+02 0.381E+03   0.706E+01 0.119E+02 -.384E+03   0.226E+01 0.389E+01 0.479E+01   0.326E-02 0.437E-02 0.348E-01
   -.827E+01 0.147E+02 0.381E+03   0.679E+01 -.121E+02 -.384E+03   0.224E+01 -.390E+01 0.479E+01   0.215E-02 -.501E-02 0.348E-01
   0.152E-09 0.158E-09 0.942E-10   0.888E-15 0.178E-14 -.171E-12   -.888E-15 0.000E+00 0.888E-15   0.644E-14 -.143E-13 0.238E-11

 POSITION                                       TOTAL-FORCE (eV/Angst)
      3.45388      1.99410     11.72054         0.000000      0.000000      0.004517
      6.90778      3.98821     11.72405         0.000000      0.000000     -0.004517
      0.00000      0.00000     10.50824         0.000000      0.000000     -0.143489
      0.00000      0.00000     12.93635         0.000000      0.000000      0.143489
      4.32819      0.00251     13.45138         1.522169     -0.005228     -1.438241
      1.29198      2.23274     13.45138        -0.765612     -1.315623     -1.438241
      4.74152      3.74706     13.45138        -0.756557      1.320851     -1.438241
      6.03348      5.97980      9.99321        -1.522169      0.005228      1.438241
      9.06969      3.74957      9.99321         0.765612      1.315623      1.438241
      5.62015      2.23525      9.99321         0.756557     -1.320851      1.438241
    total drift:                                0.000000      0.000000      0.000000

  FREE ENERGIE OF THE ION-ELECTRON SYSTEM (eV)
  free  energy   TOTEN  =       -43.51035014 eV

  energy  without entropy=      -43.51035014  energy(sigma->0) =      -43.51035014

[...]

 d Force = 0.7306162E+00[ 0.325E+00, 0.114E+01]  d Energy = 0.7646393E+01-0.692E+01
 d Force =-0.1682181E+03[-0.195E+03,-0.141E+03]  d Ewald  =-0.2259123E+04 0.209E+04

 Steepest descent step on ions:
 trial-energy change:   -7.646393  1 .order   -6.748726  -10.280455   -3.216998
  (g-gl).g = 0.103E+02      g.g   = 0.103E+02  gl.gl    = 0.000E+00
 g(Force)  = 0.127E+01   g(Stress)= 0.901E+01 ortho     = 0.000E+00
 gamma     =   0.00000
 trial     =   1.00000
 opt step  =   1.23460  (harmonic =   1.45544) maximal distance =0.09066060
 next E    =   -51.545678   (d E  =  -8.03533)

[...]

 Broyden mixing:
  rms(total) = 0.26685E-02    rms(broyden)= 0.21381E-02
  rms(prec ) = 0.27947E-02
  weight for this iteration     100.00
  WARNING: grid for Broyden might be to small

[...]

 Broyden mixing:
  rms(total) = 0.32146E-02    rms(broyden)= 0.27733E-02
  rms(prec ) = 0.32107E-02
  weight for this iteration     100.00
  WARNING: grid for Broyden might be to small

[...]

 d Force =-0.3357002E-02[-0.874E-01, 0.807E-01]  d Energy = 0.2358648E+00-0.239E+00
 d Force =-0.5056942E+02[-0.527E+02,-0.484E+02]  d Ewald  =-0.6963373E+03 0.646E+03

[...]

 d Force = 0.2000671E-01[ 0.794E-02, 0.321E-01]  d Energy = 0.6610261E-01-0.461E-01
 d Force = 0.1846155E+02[ 0.182E+02, 0.187E+02]  d Ewald  = 0.2507656E+03-0.232E+03

[...]

 d Force =-0.1161250E-02[-0.134E-02,-0.983E-03]  d Energy = 0.6474431E-03-0.181E-02
 d Force =-0.2308000E+01[-0.231E+01,-0.230E+01]  d Ewald  =-0.3143433E+02 0.291E+02

[...]

 d Force = 0.7731820E-01[-0.327E-01, 0.187E+00]  d Energy = 0.1098432E+00-0.325E-01
 d Force =-0.8456144E+02[-0.851E+02,-0.840E+02]  d Ewald  = 0.2681266E+03-0.353E+03

 Conjugate gradient step on ions:
 trial-energy change:   -0.109843  1 .order   -0.104387   -0.312804    0.104031
  (g-gl).g = 0.362E+00      g.g   = 0.305E+00  gl.gl    = 0.103E+02
 g(Force)  = 0.188E+00   g(Stress)= 0.117E+00 ortho     =-0.570E-01
 gamma     =   0.03520
 trial     =   1.03272
 opt step  =   0.78958  (harmonic =   0.77498) maximal distance =0.02277690
 next E    =   -51.581376   (d E  =  -0.12202)

[...]

 d Force = 0.1328683E-02[-0.549E-02, 0.815E-02]  d Energy = 0.1255039E-01-0.112E-01
 d Force = 0.2066357E+02[ 0.206E+02, 0.207E+02]  d Ewald  =-0.6299222E+02 0.837E+02

[...]

 d Force = 0.5699524E-01[-0.426E-02, 0.118E+00]  d Energy = 0.5722380E-01-0.229E-03
 d Force =-0.3316190E+02[-0.329E+02,-0.334E+02]  d Ewald  = 0.1600906E+03-0.193E+03

 Conjugate gradient step on ions:
 trial-energy change:   -0.057224  1 .order   -0.059243   -0.127033    0.008547
  (g-gl).g = 0.119E+00      g.g   = 0.131E+00  gl.gl    = 0.305E+00
 g(Force)  = 0.111E+00   g(Stress)= 0.194E-01 ortho     =-0.445E-02
 gamma     =   0.39166
 trial     =   0.98409
 opt step  =   0.91642  (harmonic =   0.92205) maximal distance =0.03388738
 next E    =   -51.639270   (d E  =  -0.05752)

[...]

 d Force = 0.8540925E-05[-0.268E-03, 0.285E-03]  d Energy = 0.7127955E-03-0.704E-03
 d Force = 0.2272394E+01[ 0.227E+01, 0.227E+01]  d Ewald  =-0.1092132E+02 0.132E+02

[...]

 d Force = 0.9491043E-03[-0.130E-02, 0.320E-02]  d Energy = 0.9789832E-03-0.299E-04
 d Force =-0.7700252E+01[-0.770E+01,-0.770E+01]  d Ewald  =-0.2833118E+02 0.206E+02

 Conjugate gradient step on ions:
 trial-energy change:   -0.000979  1 .order   -0.001138   -0.005417    0.003141
  (g-gl).g = 0.548E-02      g.g   = 0.557E-02  gl.gl    = 0.131E+00
 g(Force)  = 0.314E-02   g(Stress)= 0.243E-02 ortho     = 0.316E-03
 gamma     =   0.04189
 trial     =   0.97055
 opt step  =   0.61431  (harmonic =   0.61431) maximal distance =0.00393152
 next E    =   -51.641402   (d E  =  -0.00171)

[...]

 eigenvalue-minimisations  :  1152
 total energy-change (2. order) :-0.3564462E-02  (-0.2723903E-02)
 number of electron      59.9999998 magnetization       1.9999999
 augmentation part        2.8427190 magnetization       1.5936222

[...]

 Broyden mixing:
  rms(total) = 0.45792E-02    rms(broyden)= 0.45792E-02
  rms(prec ) = 0.50594E-02
  weight for this iteration     100.00

 eigenvalues of (default mixing * dielectric matrix)
  average eigenvalue GAMMA=   0.9150
  0.2776  0.7864  1.6808

[...]

--------------------------------------- Iteration     11(   5)  ---------------------------------------

[...]

 eigenvalue-minimisations  :   720
 total energy-change (2. order) : 0.1403652E-04  (-0.5237426E-05)
 number of electron      59.9999998 magnetization       2.0000000
 augmentation part        2.9296464 magnetization       1.5891719

 Free energy of the ion-electron system (eV)
  alpha Z        PSCENC =        33.27440933
  Ewald energy   TEWEN  =      9404.76209090
  -Hartree energ DENC   =    -12203.21569936
  -exchange      EXHF   =         0.00000000
  -V(xc)+E(xc)   XCENC  =        61.68568190
  PAW double counting   =      1766.36454412    -1723.85319660
  entropy T*S    EENTRO =         0.00000000
  eigenvalues    EBANDS =      -458.44262153
  atomic energy  EATOM  =      3067.78342517
  Solvation  Ediel_sol  =         0.00000000
  free energy    TOTEN  =       -51.64136607 eV

  energy without entropy =      -51.64136607  energy(sigma->0) =      -51.64136607

 average (electrostatic) potential at core
  the test charge radii are     1.0103  0.9892  0.9698
  (the norm of the test charge is              1.0000)
       1 -51.6469       2 -51.6469       3 -92.2683       4 -92.2683       5 -94.0113
       6 -94.0112       7 -94.0112       8 -94.0113       9 -94.0112      10 -94.0112

 E-fermi :  -2.3862     XC(G=0):  -3.5364     alpha+bet : -3.2866

[...]

 spin component 2

[...]

 k-point     5 :      -0.4000    0.2000    0.0000
  band No.  band energies     occupation
      1     -16.4618      1.00000
      2     -16.1269      1.00000
      3     -15.6772      1.00000
      4     -15.6339      1.00000
      5     -15.3570      1.00000
      6     -15.1819      1.00000
      7     -10.4904      1.00000
      8      -9.2884      1.00000
      9      -8.0554      1.00000
     10      -7.5326      1.00000
     11      -7.4969      1.00000
     12      -6.9691      1.00000
     13      -6.7467      1.00000
     14      -6.3695      1.00000
     15      -6.0809      1.00000
     16      -5.8436      1.00000
     17      -5.6676      1.00000
     18      -5.6068      1.00000
     19      -5.4895      1.00000
     20      -5.1407      1.00000
     21      -5.0380      1.00000
     22      -4.2913      1.00000
     23      -4.2272      1.00000
     24      -4.0397      1.00000
     25      -3.6434      1.00000
     26      -2.9408      1.00000
     27      -2.8266      1.00000
     28      -2.7044      1.00000
     29      -2.4198      1.00000
     30      -2.1608      0.00000
     31      -2.1390      0.00000
     32      -1.1905      0.00000
     33      -1.1045      0.00000
     34      -0.7359      0.00000
     35      -0.5833      0.00000
     36       0.2830      0.00000
     37       0.9943      0.00000
     38       1.4438      0.00000
     39       1.7484      0.00000
     40       2.2559      0.00000
     41       2.4500      0.00000
     42       2.7199      0.00000
     43       3.4201      0.00000
     44       3.5750      0.00000
     45       3.5936      0.00000
     46       3.7423      0.00000
     47       4.1730      0.00000
     48       4.6342      0.00000

[...]

 soft charge-density along one line, spin component           2
         0         1         2         3         4         5         6         7         8         9
 total charge-density along one line

------------------------ aborting loop because EDIFF is reached ----------------------------------------

[...]

  FORCE on cell =-STRESS in cart. coord.  units (eV):
  Direction    XX          YY          ZZ          XY          YZ          ZX
  Alpha Z    33.27441    33.27441    33.27441
  Ewald   11394.19129 11394.18862-13383.62015    -0.00184    -0.00055    -0.00099
  Hartree 11877.31930 11877.31994-11551.63005    -0.00026     0.00005     0.00008
  E(xc)    -236.18696  -236.18695  -235.10248     0.00000     0.00000     0.00001
  Local  -24174.47601-24174.47543 24006.50538     0.00163     0.00031     0.00057
  n-local   456.18894   456.09658   463.84240    -0.00476     0.64212     0.66677
  augment   -35.49959   -35.49951   -45.27748     0.00004     0.00002     0.00005
  Kinetic   686.90355   683.91931   711.86456    -2.00568     1.45665     1.66550
  Fock        0.00000     0.00000     0.00000     0.00000     0.00000     0.00000
  Total       0.17594     0.17594    -0.14341    -0.00000    -0.00000     0.00000
  in kB       0.45911     0.45911    -0.37423    -0.00000    -0.00000     0.00000

 VOLUME and BASIS-vectors are now :
  energy-cutoff  :      520.00
  volume of cell :      613.98
      direct lattice vectors                 reciprocal lattice vectors
     5.816088236  0.000000062  0.000000000     0.171936870 -0.099267791 -0.000000000
     2.908043805  5.036880004  0.000000000    -0.000000002  0.198535602 -0.000000000
     0.000000000  0.000000000 20.958688525    -0.000000000 -0.000000000  0.047712909

  length of vectors
     5.816088236  5.816087942 20.958688525     0.198535592  0.198535602  0.047712909

 FORCES acting on ions
    electron-ion (+dipol)            ewald-force                    non-local-force                 convergence-correction
   -.147E-03 -.979E-04 0.599E+00   0.664E-03 0.393E-03 -.603E+00   0.694E-17 0.694E-17 0.778E-02   -.508E-07 -.804E-07 -.349E-03
   0.147E-03 0.979E-04 -.599E+00   -.664E-03 -.393E-03 0.603E+00   0.694E-17 -.992E-21 -.778E-02   0.508E-07 0.804E-07 0.349E-03
   -.172E-04 -.495E-04 0.268E+03   -.220E-03 -.124E-03 -.259E+03   0.261E-16 -.220E-16 -.890E+01   0.186E-07 0.113E-07 -.243E-02
   0.172E-04 0.495E-04 -.268E+03   0.220E-03 0.124E-03 0.259E+03   -.331E-16 0.807E-17 0.890E+01   -.186E-07 -.113E-07 0.243E-02
   -.202E+02 -.299E-02 -.541E+03   0.166E+02 0.684E-02 0.545E+03   0.366E+01 -.797E-02 -.421E+01   0.559E-02 -.823E-04 0.769E-02
   0.101E+02 0.175E+02 -.541E+03   -.829E+01 -.144E+02 0.545E+03   -.184E+01 -.316E+01 -.421E+01   -.287E-02 -.480E-02 0.769E-02
   0.101E+02 -.175E+02 -.541E+03   -.830E+01 0.144E+02 0.545E+03   -.182E+01 0.317E+01 -.421E+01   -.272E-02 0.488E-02 0.769E-02
   0.202E+02 0.299E-02 0.541E+03   -.166E+02 -.684E-02 -.545E+03   -.366E+01 0.797E-02 0.421E+01   -.559E-02 0.823E-04 -.769E-02
   -.101E+02 -.175E+02 0.541E+03   0.829E+01 0.144E+02 -.545E+03   0.184E+01 0.316E+01 0.421E+01   0.287E-02 0.480E-02 -.769E-02
   -.101E+02 0.175E+02 0.541E+03   0.830E+01 -.144E+02 -.545E+03   0.182E+01 -.317E+01 0.421E+01   0.272E-02 -.488E-02 -.769E-02
   -.758E-10 -.135E-09 0.293E-09   0.000E+00 0.000E+00 0.341E-12   0.000E+00 0.000E+00 -.178E-14   0.283E-13 0.130E-12 -.211E-10

 POSITION                                       TOTAL-FORCE (eV/Angst)
      2.90804      1.67896     10.47829         0.000000      0.000000      0.003776
      5.81609      3.35792     10.48040         0.000000     -0.000000     -0.003776
      0.00000      0.00000      9.36571         0.000000      0.000000      0.010175
      0.00000      0.00000     11.59297         0.000000     -0.000000     -0.010175
      3.67396      0.00069     11.91969         0.017211     -0.003377     -0.014670
      1.07167      1.85480     11.91969        -0.011530     -0.013217     -0.014670
      3.97852      3.18139     11.91969        -0.005681      0.016593     -0.014670
      5.05018      5.03619      9.03900        -0.017211      0.003377      0.014670
      7.65246      3.18208      9.03900         0.011530      0.013217      0.014670
      4.74562      1.85549      9.03900         0.005681     -0.016593      0.014670
    total drift:                               -0.000000     -0.000000      0.000000

  FREE ENERGIE OF THE ION-ELECTRON SYSTEM (eV)
  free  energy   TOTEN  =       -51.64136607 eV

  energy  without entropy=      -51.64136607  energy(sigma->0) =      -51.64136607

 d Force = 0.1691336E-03[-0.140E-03, 0.478E-03]  d Energy = 0.6992692E-03-0.530E-03
 d Force = 0.2833525E+01[ 0.283E+01, 0.283E+01]  d Ewald  = 0.1041517E+02-0.758E+01

 reached required accuracy - stopping structural energy minimisation

 total charge

[...]

 magnetization (x)

# of ion       s       p       d       tot
    1        0.011   0.012   1.025   1.047
    2        0.011   0.012   1.025   1.047
    3       -0.003   0.008   0.000   0.005
    4       -0.003   0.008   0.000   0.005
    5       -0.001  -0.026   0.000  -0.028
    6       -0.001  -0.004   0.000  -0.005
    7       -0.001  -0.021   0.000  -0.022
    8       -0.001  -0.026   0.000  -0.028
    9       -0.001  -0.004   0.000  -0.005
   10       -0.001  -0.021   0.000  -0.022
tot          0.009  -0.064   2.050   1.994

 BZINTS: Fermi energy: -2.386177; 60.000000 electrons
         Band energy:-458.442622;  BLOECHL correction:  0.000000