 vasp.5.4.4.18Apr17-6-g9f103f2a35 (build May  1 2020 15:48:39) complex
 executed on             LinuxGNU date 2020.06.18  05:17:05

 INCAR:
 POTCAR:   PAW_PBE Cr 06Sep2000
 POTCAR:   PAW_PBE Si 05Jan2001
 POTCAR:   PAW_PBE Ge 05Jan2001
 POTCAR:   PAW_PBE Te 08Apr2002

 POTCAR:   PAW_PBE Cr 06Sep2000
   VRHFIN =Cr : d5 s1

   TITEL  = PAW_PBE Cr 06Sep2000
   POMASS =   51.996; ZVAL   =    6.000    mass and valenz
   ENMAX  =  227.082; ENMIN  =  170.311 eV
   QCUT   =   -4.085; QGAM   =    8.171    optimization parameters

   Description
     l     E      TYP  RCUT    TYP  RCUT
     2   .000     23  2.500
     2   .000     23  2.500
     0   .000     23  2.500
     0   .000     23  2.500
     1  -.400     23  2.500
     1  2.000     23  2.500
     3   .000      7   .000

 POTCAR:   PAW_PBE Si 05Jan2001
   VRHFIN =Si: s2p2

   TITEL  = PAW_PBE Si 05Jan2001
   POMASS =   28.085; ZVAL   =    4.000    mass and valenz
   ENMAX  =  245.345; ENMIN  =  184.009 eV
   QCUT   =   -4.246; QGAM   =    8.493    optimization parameters

[...]

 POTCAR:   PAW_PBE Ge 05Jan2001
   VRHFIN =Ge: s2p2

   TITEL  = PAW_PBE Ge 05Jan2001
   POMASS =   72.610; ZVAL   =    4.000    mass and valenz
   ENMAX  =  173.807; ENMIN  =  130.355 eV
   QCUT   =   -3.574; QGAM   =    7.148    optimization parameters

[...]

 POTCAR:   PAW_PBE Te 08Apr2002
   VRHFIN =Te: s2p4

   TITEL  = PAW_PBE Te 08Apr2002
   POMASS =  127.600; ZVAL   =    6.000    mass and valenz
   ENMAX  =  174.982; ENMIN  =  131.236 eV
   QCUT   =   -3.586; QGAM   =    7.172    optimization parameters

   Description
     l     E      TYP  RCUT    TYP  RCUT
     0   .000     23  2.300
     0   .000     23  2.300
     1   .000     23  2.300
     1   .000     23  2.300
     2   .000     23  2.300
     3  -.100     23  2.300

 Optimization of the real space projectors (new method)

 maximal supplied QI-value         = 15.12
 optimisation between [QCUT,QGAM] = [ 11.64, 23.28] = [ 37.95,151.78] Ry
 Optimized for a Real-space Cutoff    1.49 Angstroem

   l    n(q)    QCUT    max X(q) W(low)/X(q) W(high)/X(q)  e(spline)
   2      9    11.641     4.777    0.25E-04    0.21E-05    0.63E-07
   2      9    11.641    31.132    0.13E-03    0.22E-03    0.64E-06
   0     10    11.641    20.416    0.11E-04    0.74E-05    0.19E-07
   0     10    11.641    45.408    0.10E-03    0.85E-04    0.30E-06
   1     10    11.641     7.848    0.22E-04    0.23E-04    0.56E-07
   1     10    11.641     9.895    0.85E-04    0.54E-04    0.16E-06
 Optimization of the real space projectors (new method)

[...]

   l    n(q)    QCUT    max X(q) W(low)/X(q) W(high)/X(q)  e(spline)
   0      9    11.539     8.651    0.22E-04    0.16E-04    0.10E-07
   0      9    11.539    33.192    0.11E-03    0.16E-03    0.65E-07
   1      8    11.539     5.899    0.37E-04    0.28E-04    0.43E-07
   1      8    11.539    27.289    0.22E-03    0.28E-04    0.14E-06
   2      8    11.539     4.673    0.11E-03    0.18E-03    0.58E-07
 Optimization of the real space projectors (new method)

 maximal supplied QI-value         = 16.25
 optimisation between [QCUT,QGAM] = [ 11.54, 23.24] = [ 37.28,151.24] Ry
 Optimized for a Real-space Cutoff    1.36 Angstroem

   l    n(q)    QCUT    max X(q) W(low)/X(q) W(high)/X(q)  e(spline)
   0      9    11.539     7.090    0.13E-04    0.25E-05    0.51E-08
   0      9    11.539   101.654    0.53E-04    0.69E-04    0.12E-06
   1      9    11.539     5.276    0.20E-04    0.98E-05    0.24E-07
   1      9    11.539    81.891    0.24E-03    0.13E-04    0.15E-06
   2      9    11.539     5.599    0.30E-04    0.97E-04    0.54E-07

 PAW_PBE Cr 06Sep2000                   :
 PAW_PBE Si 05Jan2001                   :
 PAW_PBE Ge 05Jan2001                   :
 PAW_PBE Te 08Apr2002                   :

 POSCAR: Cr2 Si Ge Te6
  positions in direct lattice
  velocities in cartesian coordinates
 exchange correlation table for  LEXCH =       42
   RHO(1)=    0.500       N(1)  =     2000
   RHO(2)=  100.500       N(2)  =     4000

 ion  position               nearest neighbor table
   1  0.333  0.333  0.500-   6 2.78   5 2.78   7 2.78   8 2.78  10 2.78   9 2.78
   2  0.667  0.667  0.500-   9 2.78   8 2.78  10 2.78   5 2.78   7 2.78   6 2.78
   3  0.000  0.000  0.448-   4 2.43   8 2.63  10 2.63   9 2.63
   4  0.000  0.000  0.552-   3 2.43   5 2.63   7 2.63   6 2.63
   5  0.626  0.000  0.574-   4 2.63   1 2.78   2 2.78
   6  0.000  0.373  0.574-   4 2.63   1 2.78   2 2.78
   7  0.373  0.626  0.574-   4 2.63   1 2.78   2 2.78
   8  0.374  1.000  0.426-   3 2.63   2 2.78   1 2.78
   9  1.000  0.627  0.426-   3 2.63   2 2.78   1 2.78
  10  0.627  0.374  0.426-   3 2.63   2 2.78   1 2.78

  LATTYP: Found a hexagonal cell.
 ALAT       =     6.9077769333
 C/A-ratio  =     3.3939410937

  Lattice vectors:

 A1 = (   3.4538890000,  -5.9823100000,   0.0000000000)
 A2 = (  -6.9077770000,   0.0000000000,   0.0000000000)
 A3 = (   0.0000000000,   0.0000000000, -23.4445880000)

Analysis of symmetry for initial positions (statically):
 Subroutine PRICEL returns:
 Original cell was already a primitive cell.

 Routine SETGRP: Setting up the symmetry group for a
 hexagonal supercell.

 Subroutine GETGRP returns: Found  3 space group operations
 (whereof  3 operations were pure point group operations)
 out of a pool of 24 trial point group operations.

The static configuration has the point symmetry C_3 .

Analysis of symmetry for dynamics (positions and initial velocities):
 Subroutine PRICEL returns:
 Original cell was already a primitive cell.

[...]

The dynamic configuration has the point symmetry C_3 .

Analysis of structural, dynamic, and magnetic symmetry:
 Subroutine PRICEL returns:
 Original cell was already a primitive cell.

 Routine SETGRP: Setting up the symmetry group for a
 hexagonal supercell.

 Subroutine GETGRP returns: Found  3 space group operations
 (whereof  3 operations were pure point group operations)
 out of a pool of 24 trial point group operations.

The magnetic configuration has the point symmetry C_3 .

 Subroutine INISYM returns: Found  3 space group operations
 (whereof  3 operations are pure point group operations),
 and found     1 'primitive' translations

 KPOINTS: Kpoints from vasprun.xml

Automatic generation of k-mesh.
Space group operators:
 irot       det(A)        alpha          n_x          n_y          n_z        tau_x        tau_y        tau_z
    1     1.000000     0.000000     1.000000     0.000000     0.000000     0.000000     0.000000     0.000000
    2     1.000000   120.000000     0.000000     0.000000     1.000000     0.000000     0.000000     0.000000
    3     1.000000   120.000000     0.000000     0.000000    -1.000000     0.000000     0.000000     0.000000

 Subroutine IBZKPT returns following result:

 Found      5 irreducible k-points:

 Following reciprocal coordinates:
            Coordinates               Weight
  0.000000  0.000000  0.000000      1.000000
  0.200000  0.000000  0.000000      6.000000
  0.400000  0.000000  0.000000      6.000000
  0.400000  0.200000  0.000000      6.000000
 -0.400000  0.200000  0.000000      6.000000

 Following cartesian coordinates:
            Coordinates               Weight
  0.000000  0.000000  0.000000      1.000000
  0.028953 -0.016716  0.000000      6.000000
  0.057906 -0.033432  0.000000      6.000000
  0.057906  0.000000  0.000000      6.000000
 -0.057906  0.066864  0.000000      6.000000

 TETIRR: Found     15 inequivalent tetrahedra from      150

 SYSTEM =  unknown system
 POSCAR =  Cr2 Si Ge Te6

 Startparameter for this run:
   NWRITE =      2    write-flag & timer
   PREC   = accura    normal or accurate (medium, high low for compatibility)
   ISTART =      0    job   : 0-new  1-cont  2-samecut
   ICHARG =      2    charge: 1-file 2-atom 10-const
   ISPIN  =      2    spin polarized calculation?
   LNONCOLLINEAR =      F non collinear calculations
   LSORBIT =      F    spin-orbit coupling
   INIWAV =      1    electr: 0-lowe 1-rand  2-diag
   LASPH  =      F    aspherical Exc in radial PAW
   METAGGA=      F    non-selfconsistent MetaGGA calc.

 Electronic Relaxation 1
   ENCUT  =  520.0 eV  38.22 Ry    6.18 a.u.  12.84 12.84 43.59*2*pi/ulx,y,z
   ENINI  =  520.0     initial cutoff
   ENAUG  =  402.1 eV  augmentation charge cutoff
   NELM   =    400;   NELMIN=  2; NELMDL=  0     # of ELM steps
   EDIFF  = 0.1E-03   stopping-criterion for ELM
   LREAL  =      T    real-space projection
   NLSPLINE    = F    spline interpolate recip. space projectors
   LCOMPAT=      F    compatible to vasp.4.4
   GGA_COMPAT  = T    GGA compatible to vasp.4.4-vasp.4.6
   LMAXPAW     = -100 max onsite density
   LMAXMIX     =    2 max onsite mixed and CHGCAR
   VOSKOWN=      0    Vosko Wilk Nusair interpolation
   ROPT   =   -0.00025  -0.00025  -0.00025  -0.00025
 Ionic relaxation
   EDIFFG = 0.1E-02   stopping-criterion for IOM
   NSW    =     99    number of steps for IOM
   NBLOCK =      1;   KBLOCK =     99    inner block; outer block
   IBRION =      2    ionic relax: 0-MD 1-quasi-New 2-CG
   NFREE  =      1    steps in history (QN), initial steepest desc. (CG)
   ISIF   =      3    stress and relaxation
   IWAVPR =     11    prediction:  0-non 1-charg 2-wave 3-comb
   ISYM   =      2    0-nonsym 1-usesym 2-fastsym
   LCORR  =      T    Harris-Foulkes like correction to forces

   POTIM  = 0.5000    time-step for ionic-motion
   TEIN   =    0.0    initial temperature
   TEBEG  =    0.0;   TEEND  =   0.0 temperature during run
   SMASS  =  -3.00    Nose mass-parameter (am)
   estimated Nose-frequenzy (Omega)   =  0.10E-29 period in steps =****** mass=  -0.109E-26a.u.
   SCALEE = 1.0000    scale energy and forces
   NPACO  =    256;   APACO  = 16.0  distance and # of slots for P.C.
   PSTRESS=    0.0 pullay stress

  Mass of Ions in am
   POMASS =  52.00 28.09 72.61127.60
  Ionic Valenz
   ZVAL   =   6.00  4.00  4.00  6.00
  Atomic Wigner-Seitz radii
  virtual crystal weights
   VCA    =   1.00  1.00  1.00  1.00
   NELECT =      56.0000    total number of electrons
   NUPDOWN=      -1.0000    fix difference up-down

 DOS related values:
   EMIN   =  10.00;   EMAX   =-10.00  energy-range for DOS
   EFERMI =   0.00
   ISMEAR =    -5;   SIGMA  =   0.05  broadening in eV -4-tet -1-fermi 0-gaus

 Electronic relaxation 2 (details)
   IALGO  =     38    algorithm
   LDIAG  =      T    sub-space diagonalisation (order eigenvalues)
   LSUBROT=      F    optimize rotation matrix (better conditioning)
   TURBO    =      0    0=normal 1=particle mesh
   IRESTART =      0    0=no restart 2=restart with 2 vectors
   NREBOOT  =      0    no. of reboots
   NMIN     =      0    reboot dimension
   EREF     =   0.00    reference energy to select bands
   IMIX   =      4    mixing-type and parameters
     AMIX     =   0.40;   BMIX     =  1.00
     AMIX_MAG =   1.60;   BMIX_MAG =  1.00
     AMIN     =   0.01
     WC   =   100.;   INIMIX=   1;  MIXPRE=   1;  MAXMIX= -45

 Intra band minimization:
   WEIMIN = 0.0010     energy-eigenvalue tresh-hold
   EBREAK =  0.52E-06  absolut break condition
   DEPER  =   0.30     relativ break condition

   TIME   =   0.40     timestep for ELM

[...]
     37      -0.3315      0.00000
     38       1.0132      0.00000
     39       1.0132      0.00000
     40       1.7172      0.00000
     41       1.7450      0.00000
     42       2.0498      0.00000
     43       2.2067      0.00000
     44       2.2107      0.00000
     45       2.2107      0.00000
     46       2.8804      0.00000
     47       3.0891      0.00000
     48       3.0891      0.00000

[...]

 soft charge-density along one line, spin component           1
         0         1         2         3         4         5         6         7         8         9
 total charge-density along one line

[...]

------------------------ aborting loop because EDIFF is reached ----------------------------------------

 total charge

# of ion       s       p       d       tot
    1        0.332   0.405   4.236   4.974
    2        0.332   0.405   4.236   4.974
    3        0.793   0.777   0.000   1.570
    4        1.168   1.135   0.074   2.377
    5        1.392   1.974   0.033   3.399
    6        1.386   1.972   0.032   3.390
    7        1.391   1.970   0.033   3.394
    8        1.390   1.969   0.033   3.392
    9        1.384   1.971   0.032   3.388
   10        1.389   1.967   0.033   3.388
tot         10.957  14.546   8.743  34.246

 magnetization (x)

[...]

  FORCE on cell =-STRESS in cart. coord.  units (eV):
  Direction    XX          YY          ZZ          XY          YZ          ZX
  Alpha Z    12.70886    12.70886    12.70886
  Ewald    7419.63051  7419.62857 -8853.36149    -0.00107    -0.00038    -0.00069
  Hartree  7722.03283  7722.03322 -7580.10173    -0.00004     0.00005     0.00008
  E(xc)    -223.27155  -223.27061  -223.06707    -0.00072     0.00015     0.00001
  Local  -15986.04893-15986.04819 15559.52699     0.00086     0.00024     0.00044
  n-local   700.70786   702.69961   712.79996     0.84806     0.83714     0.93041
  augment  -103.68833  -103.68821  -109.90461     0.00001    -0.00001     0.00004
  Kinetic   457.85136   452.22044   479.76609    -4.12481     0.70517     0.73441
  Fock        0.00000     0.00000     0.00000     0.00000     0.00000     0.00000
  Total      -1.89685    -1.89685    -1.63299     0.00000    -0.00000     0.00000
  in kB      -3.13685    -3.13685    -2.70050     0.00000    -0.00000     0.00000

 VOLUME and BASIS-vectors are now :
  energy-cutoff  :      520.00
  volume of cell :      968.84
      direct lattice vectors                 reciprocal lattice vectors
     6.907777000 -0.000000000  0.000000000     0.144764372 -0.083579742  0.000000000
     3.453888000  5.982310000  0.000000000     0.000000000  0.167159509 -0.000000000
     0.000000000  0.000000000 23.444588000    -0.000000000  0.000000000  0.042653767

[...]

 FORCES acting on ions
    electron-ion (+dipol)            ewald-force                    non-local-force                 convergence-correction
   -.243E-04 -.232E-04 0.736E+00   0.306E-03 0.183E-03 -.640E+00   -.694E-17 0.000E+00 -.469E-01   -.989E-06 -.132E-05 -.119E-01
   0.285E-04 0.251E-04 -.535E+00   -.306E-03 -.183E-03 0.640E+00   -.694E-17 0.000E+00 -.465E-01   0.282E-07 -.553E-07 -.135E-01
   -.240E-04 -.280E-04 0.162E+03   -.141E-03 -.779E-04 -.158E+03   0.278E-16 -.139E-16 -.396E+01   0.170E-06 -.341E-06 0.193E-01
   0.245E-04 0.249E-04 -.161E+03   0.141E-03 0.779E-04 0.158E+03   -.104E-16 0.000E+00 0.203E+01   0.902E-05 0.342E-05 -.413E-01
   -.821E+01 0.170E+00 -.338E+03   0.444E+01 -.152E+00 0.342E+03   0.366E+01 -.215E-01 -.453E+01   -.636E-02 -.811E-02 -.743E-01
   0.425E+01 0.702E+01 -.338E+03   -.235E+01 -.377E+01 0.342E+03   -.185E+01 -.316E+01 -.453E+01   -.383E-02 0.948E-02 -.743E-01
   0.396E+01 -.720E+01 -.338E+03   -.209E+01 0.392E+01 0.342E+03   -.181E+01 0.318E+01 -.453E+01   0.103E-01 -.141E-02 -.744E-01
   0.815E+01 -.149E+00 0.338E+03   -.444E+01 0.152E+00 -.342E+03   -.422E+01 0.143E-01 0.455E+01   -.278E-03 -.761E-02 0.559E-01
   -.420E+01 -.698E+01 0.338E+03   0.235E+01 0.377E+01 -.342E+03   0.212E+01 0.365E+01 0.455E+01   -.644E-02 0.404E-02 0.559E-01
   -.394E+01 0.713E+01 0.338E+03   0.209E+01 -.392E+01 -.342E+03   0.210E+01 -.366E+01 0.455E+01   0.673E-02 0.356E-02 0.559E-01
   -.127E-04 -.355E-05 0.204E+01   0.155E-13 0.799E-14 -.171E-12   -.444E-15 0.133E-14 -.195E+01   0.762E-04 -.478E-04 -.103E+00

 POSITION                                       TOTAL-FORCE (eV/Angst)
      3.45388      1.99410     11.72054         0.000000     -0.000000      0.039234
      6.90778      3.98821     11.72405         0.000000     -0.000000      0.046378
      0.00000      0.00000     10.50824         0.000000     -0.000000      0.301603
      0.00000      0.00000     12.93635         0.000000     -0.000000     -0.659335
      4.32819      0.00251     13.45138        -0.120745     -0.011406      0.023644
      1.29198      2.23274     13.45138         0.050494      0.110271      0.023644
      4.74152      3.74706     13.45138         0.070251     -0.098865      0.023644
      6.03348      5.97980      9.99321        -0.513551      0.009386      0.067063
      9.06969      3.74957      9.99321         0.264904      0.440056      0.067063
      5.62015      2.23525      9.99321         0.248648     -0.449441      0.067063
    total drift:                                0.000064     -0.000051     -0.019706

  FREE ENERGIE OF THE ION-ELECTRON SYSTEM (eV)
  free  energy   TOTEN  =       -42.78492181 eV

  energy  without entropy=      -42.78492181  energy(sigma->0) =      -42.78492181

[...]

 d Force = 0.4713158E-01[ 0.283E-01, 0.660E-01]  d Energy = 0.6933659E-01-0.222E-01
 d Force =-0.9261774E+01[-0.938E+01,-0.914E+01]  d Ewald  =-0.7610626E+02 0.668E+02

 Steepest descent step on ions:
 trial-energy change:   -0.069337  1 .order   -0.057740   -0.114162   -0.001318
  (g-gl).g = 0.114E+00      g.g   = 0.114E+00  gl.gl    = 0.000E+00
 g(Force)  = 0.666E-01   g(Stress)= 0.476E-01 ortho     = 0.000E+00
 gamma     =   0.00000
 trial     =   1.00000
 opt step  =   1.00720  (harmonic =   1.01168) maximal distance =0.02138237
 next E    =   -42.854263   (d E  =  -0.06934)

[...]

 d Force = 0.2035695E-03[ 0.202E-03, 0.205E-03]  d Energy =-0.9398523E-04 0.298E-03
 d Force =-0.6809522E-01[-0.681E-01,-0.681E-01]  d Ewald  =-0.5549301E+00 0.487E+00

[...]

 d Force = 0.2380396E-01[ 0.129E-01, 0.347E-01]  d Energy = 0.2933082E-01-0.553E-02
 d Force = 0.9903058E+01[ 0.983E+01, 0.997E+01]  d Ewald  = 0.2786402E+01 0.712E+01

 Conjugate gradient step on ions:
 trial-energy change:   -0.029331  1 .order   -0.029679   -0.042180   -0.017177
  (g-gl).g = 0.442E-01      g.g   = 0.427E-01  gl.gl    = 0.114E+00
 g(Force)  = 0.238E-01   g(Stress)= 0.189E-01 ortho     =-0.152E-02
 gamma     =   0.38741
 trial     =   1.00144
 opt step  =   1.68942  (harmonic =   1.68942) maximal distance =0.03631158
 next E    =   -42.889743   (d E  =  -0.03558)

[...]

 d Force = 0.3313859E-02[-0.221E-02, 0.884E-02]  d Energy = 0.5376954E-02-0.206E-02
 d Force = 0.6713772E+01[ 0.668E+01, 0.675E+01]  d Ewald  = 0.1873282E+01 0.484E+01

[...]

 d Force = 0.1301137E-02[-0.291E-02, 0.551E-02]  d Energy = 0.1347717E-02-0.466E-04
 d Force = 0.4049818E+01[ 0.405E+01, 0.405E+01]  d Ewald  =-0.2436205E+02 0.284E+02

 Conjugate gradient step on ions:
 trial-energy change:   -0.001348  1 .order   -0.002119   -0.008150    0.003911
  (g-gl).g = 0.212E-02      g.g   = 0.719E-02  gl.gl    = 0.427E-01
 g(Force)  = 0.498E-02   g(Stress)= 0.222E-02 ortho     =-0.801E-03
 gamma     =   0.04960
 trial     =   1.13904
 opt step  =   0.66333  (harmonic =   0.76966) maximal distance =0.00752274
 next E    =   -42.891093   (d E  =  -0.00222)

[...]

 eigenvalue-minimisations  :  1136
 total energy-change (2. order) : 0.1668562E-03  (-0.6613006E-04)
 number of electron      55.9999998 magnetization       5.9999468
 augmentation part       -2.7446429 magnetization       4.2920752

 Broyden mixing:
  rms(total) = 0.21901E-02    rms(broyden)= 0.21900E-02
  rms(prec ) = 0.27594E-02
  weight for this iteration     100.00

 eigenvalues of (default mixing * dielectric matrix)
  average eigenvalue GAMMA=   1.0553
  2.0584  0.7330  0.3747

[...]

--------------------------------------- Iteration      7(   5)  ---------------------------------------

[...]

 eigenvalue-minimisations  :   672
 total energy-change (2. order) :-0.4884584E-04  (-0.5062729E-05)
 number of electron      55.9999998 magnetization       5.9999468
 augmentation part       -2.7446429 magnetization       4.2920752

 Free energy of the ion-electron system (eV)
  alpha Z        PSCENC =        12.87643980
  Ewald energy   TEWEN  =      6072.09133868
  -Hartree energ DENC   =     -7950.68733123
  -exchange      EXHF   =         0.00000000
  -V(xc)+E(xc)   XCENC  =      -228.61080150
  PAW double counting   =      1226.92944484     -913.33412683
  entropy T*S    EENTRO =         0.00000000
  eigenvalues    EBANDS =      -374.32831064
  atomic energy  EATOM  =      2112.17225906
  Solvation  Ediel_sol  =         0.00000000
  free energy    TOTEN  =       -42.89108783 eV

  energy without entropy =      -42.89108783  energy(sigma->0) =      -42.89108783

 average (electrostatic) potential at core
  the test charge radii are     1.1394  0.9892  1.1631  1.1897
  (the norm of the test charge is              1.0000)
       1 -50.6477       2 -50.6443       3 -92.2221       4 -39.0378       5 -96.4150
       6 -96.4150       7 -96.4150       8 -96.3888       9 -96.3888      10 -96.3888

 E-fermi :  -2.1703     XC(G=0):  -3.6716     alpha+bet : -3.1131

[...]

 spin component 2

[...]

 k-point     5 :      -0.4000    0.2000    0.0000
  band No.  band energies     occupation
      1     -14.0699      1.00000
      2     -13.5781      1.00000
      3     -13.3418      1.00000
      4     -13.2441      1.00000
      5     -13.0767      1.00000
      6     -12.9159      1.00000
      7     -10.2488      1.00000
      8      -8.4960      1.00000
      9      -6.4532      1.00000
     10      -6.0602      1.00000
     11      -5.9598      1.00000
     12      -5.5453      1.00000
     13      -5.4190      1.00000
     14      -5.0645      1.00000
     15      -4.6574      1.00000
     16      -4.4553      1.00000
     17      -4.2953      1.00000
     18      -4.1795      1.00000
     19      -4.0120      1.00000
     20      -3.9190      1.00000
     21      -3.6286      1.00000
     22      -3.3558      1.00000
     23      -3.2097      1.00000
     24      -3.1884      1.00000
     25      -3.0622      1.00000
     26      -1.7425      0.00000
     27      -0.9092      0.00000
     28      -0.8905      0.00000
     29      -0.8808      0.00000
     30      -0.3604      0.00000
     31      -0.3112      0.00000
     32      -0.3027      0.00000
     33       0.0168      0.00000
     34       0.0352      0.00000
     35       0.3923      0.00000
     36       0.4576      0.00000
     37       0.6681      0.00000
     38       0.8778      0.00000
     39       1.1862      0.00000
     40       1.7456      0.00000
     41       1.9485      0.00000
     42       1.9947      0.00000
     43       2.7497      0.00000
     44       2.8289      0.00000
     45       2.8514      0.00000
     46       2.9056      0.00000
     47       3.0493      0.00000
     48       3.5011      0.00000

[...]

 soft charge-density along one line, spin component           2
         0         1         2         3         4         5         6         7         8         9
 total charge-density along one line

------------------------ aborting loop because EDIFF is reached ----------------------------------------

[...]

  FORCE on cell =-STRESS in cart. coord.  units (eV):
  Direction    XX          YY          ZZ          XY          YZ          ZX
  Alpha Z    12.87644    12.87644    12.87644
  Ewald    7512.27709  7512.27508 -8952.46274    -0.00103    -0.00038    -0.00070
  Hartree  7813.33002  7813.33040 -7674.25318    -0.00003     0.00005     0.00008
  E(xc)    -223.72441  -223.72438  -223.49139     0.00002     0.00002     0.00002
  Local  -16171.78369-16171.78290 15752.54084     0.00081     0.00024     0.00045
  n-local   702.56816   704.44729   713.79317     0.79436     0.86739     0.92840
  augment  -103.63092  -103.63085  -109.62474     0.00000    -0.00004     0.00005
  Kinetic   460.12430   454.23786   480.52966    -4.26092     0.65194     0.67105
  Fock        0.00000     0.00000     0.00000     0.00000     0.00000     0.00000
  Total       0.03295     0.03295    -0.09195     0.00000    -0.00000     0.00000
  in kB       0.05521     0.05521    -0.15406     0.00000    -0.00000     0.00000

 VOLUME and BASIS-vectors are now :
  energy-cutoff  :      520.00
  volume of cell :      956.23
      direct lattice vectors                 reciprocal lattice vectors
     6.863123432 -0.000000046 -0.000000000     0.145706253 -0.084123539 -0.000000000
     3.431561266  5.943638860  0.000000000     0.000000001  0.168247099 -0.000000000
     0.000000000  0.000000000 23.441559281     0.000000000 -0.000000000  0.042659278

  length of vectors
     6.863123432  6.863122876 23.441559281     0.168247085  0.168247099  0.042659278

 FORCES acting on ions
    electron-ion (+dipol)            ewald-force                    non-local-force                 convergence-correction
   -.400E-04 -.365E-04 0.312E+01   0.305E-03 0.182E-03 -.292E+01   0.690E-17 -.326E-21 -.197E+00   0.255E-07 -.506E-08 0.374E-03
   0.410E-04 0.269E-04 0.234E+01   -.313E-03 -.186E-03 -.213E+01   -.393E-19 -.139E-16 -.210E+00   -.498E-07 -.301E-07 0.817E-03
   -.332E-04 -.170E-04 0.162E+03   -.147E-03 -.808E-04 -.158E+03   0.619E-17 -.659E-20 -.398E+01   -.523E-08 -.768E-08 -.477E-02
   0.261E-04 0.198E-04 -.159E+03   0.138E-03 0.762E-04 0.156E+03   0.502E-18 0.444E-20 0.268E+01   -.430E-07 -.235E-07 0.849E-02
   -.878E+01 0.315E-01 -.344E+03   0.521E+01 -.156E-01 0.349E+03   0.358E+01 -.706E-02 -.460E+01   -.252E-03 -.109E-01 0.202E-01
   0.442E+01 0.759E+01 -.344E+03   -.262E+01 -.451E+01 0.349E+03   -.180E+01 -.310E+01 -.460E+01   -.927E-02 0.564E-02 0.202E-01
   0.436E+01 -.762E+01 -.344E+03   -.259E+01 0.452E+01 0.349E+03   -.178E+01 0.310E+01 -.460E+01   0.952E-02 0.521E-02 0.202E-01
   0.346E+01 0.370E-02 0.342E+03   0.430E+00 0.282E-03 -.347E+03   -.390E+01 0.100E-01 0.456E+01   0.221E-02 -.104E-01 -.159E-01
   -.173E+01 -.300E+01 0.342E+03   -.214E+00 -.372E+00 -.347E+03   0.196E+01 0.338E+01 0.456E+01   -.101E-01 0.331E-02 -.159E-01
   -.173E+01 0.300E+01 0.342E+03   -.215E+00 0.372E+00 -.347E+03   0.194E+01 -.339E+01 0.456E+01   0.794E-02 0.714E-02 -.159E-01
   -.507E-04 -.121E-05 0.179E+01   0.109E-13 -.466E-14 0.171E-12   -.222E-15 0.444E-15 -.180E+01   -.728E-07 -.700E-07 0.176E-01

 POSITION                                       TOTAL-FORCE (eV/Angst)
      3.43156      1.98121     11.72460         0.000000     -0.000000      0.003066
      6.86313      3.96243     11.72809         0.000000     -0.000000     -0.006831
      0.00000     -0.00000     10.51713         0.000000     -0.000000      0.028776
      0.00000     -0.00000     12.87911         0.000000     -0.000000      0.051995
      4.28220      0.00112     13.46483         0.011806     -0.001471     -0.024996
      1.29143      2.23459     13.46483        -0.007177     -0.009489     -0.024996
      4.72106      3.70793     13.46483        -0.004629      0.010960     -0.024996
      5.92517      5.94257      9.98812        -0.008970      0.002993     -0.000673
      9.04695      3.78464      9.98812         0.007077      0.006272     -0.000673
      5.61724      2.16006      9.98812         0.001893     -0.009265     -0.000673
    total drift:                               -0.000051     -0.000001      0.002600

  FREE ENERGIE OF THE ION-ELECTRON SYSTEM (eV)
  free  energy   TOTEN  =       -42.89108783 eV

  energy  without entropy=      -42.89108783  energy(sigma->0) =      -42.89108783

 d Force = 0.4804394E-03[-0.246E-03, 0.121E-02]  d Energy = 0.8679180E-03-0.387E-03
 d Force =-0.1681624E+01[-0.168E+01,-0.168E+01]  d Ewald  = 0.1017177E+02-0.119E+02

 reached required accuracy - stopping structural energy minimisation

 total charge

[...]

 magnetization (x)

# of ion       s       p       d       tot
    1        0.042   0.046   3.047   3.135
    2        0.042   0.046   3.046   3.135
    3        0.004   0.030   0.000   0.034
    4        0.001   0.039  -0.003   0.038
    5       -0.002  -0.109   0.005  -0.106
    6       -0.003  -0.091   0.005  -0.089
    7       -0.002  -0.104   0.005  -0.101
    8       -0.001  -0.092   0.005  -0.089
    9       -0.002  -0.080   0.005  -0.076
   10       -0.001  -0.088   0.005  -0.084
tot          0.080  -0.403   6.120   5.797

 BZINTS: Fermi energy: -2.170308; 56.000000 electrons
         Band energy:-374.328311;  BLOECHL correction:  0.000000