 vasp.5.4.4.18Apr17-6-g9f103f2a35 (build May  1 2020 15:48:39) complex
 executed on             LinuxGNU date 2020.06.20  18:43:15

 INCAR:
 POTCAR:   PAW_PBE Cr 06Sep2000
 POTCAR:   PAW_PBE Si 05Jan2001
 POTCAR:    PAW_PBE P 17Jan2003
 POTCAR:    PAW_PBE S 17Jan2003

 POTCAR:   PAW_PBE Cr 06Sep2000
   VRHFIN =Cr : d5 s1

   TITEL  = PAW_PBE Cr 06Sep2000
   POMASS =   51.996; ZVAL   =    6.000    mass and valenz
   ENMAX  =  227.082; ENMIN  =  170.311 eV
   QCUT   =   -4.085; QGAM   =    8.171    optimization parameters

   Description
     l     E      TYP  RCUT    TYP  RCUT
     2   .000     23  2.500
     2   .000     23  2.500
     0   .000     23  2.500
     0   .000     23  2.500
     1  -.400     23  2.500
     1  2.000     23  2.500
     3   .000      7   .000

 POTCAR:   PAW_PBE Si 05Jan2001
   VRHFIN =Si: s2p2

   TITEL  = PAW_PBE Si 05Jan2001
   POMASS =   28.085; ZVAL   =    4.000    mass and valenz
   ENMAX  =  245.345; ENMIN  =  184.009 eV
   QCUT   =   -4.246; QGAM   =    8.493    optimization parameters

[...]

 POTCAR:    PAW_PBE P 17Jan2003
   VRHFIN =P : s2p3

[...]

 POTCAR:    PAW_PBE S 17Jan2003
   VRHFIN =S : s2p4

   TITEL  = PAW_PBE S 17Jan2003
   POMASS =   32.066; ZVAL   =    6.000    mass and valenz
   ENMAX  =  280.000; ENMIN  =  194.016 eV
   QCUT   =   -4.360; QGAM   =    8.721    optimization parameters

   Description
     l     E      TYP  RCUT    TYP  RCUT
     0   .000     23  1.900
     0   .000     23  1.900
     1   .000     23  1.900
     1   .000     23  1.900
     2   .000     23  1.900

 Optimization of the real space projectors (new method)

 maximal supplied QI-value         = 15.12
 optimisation between [QCUT,QGAM] = [ 11.64, 23.28] = [ 37.95,151.78] Ry
 Optimized for a Real-space Cutoff    1.49 Angstroem

   l    n(q)    QCUT    max X(q) W(low)/X(q) W(high)/X(q)  e(spline)
   2      9    11.641     4.777    0.25E-04    0.21E-05    0.63E-07
   2      9    11.641    31.132    0.13E-03    0.22E-03    0.64E-06
   0     10    11.641    20.416    0.11E-04    0.74E-05    0.19E-07
   0     10    11.641    45.408    0.10E-03    0.85E-04    0.30E-06
   1     10    11.641     7.848    0.22E-04    0.23E-04    0.56E-07
   1     10    11.641     9.895    0.85E-04    0.54E-04    0.16E-06
 Optimization of the real space projectors (new method)

[...]

   l    n(q)    QCUT    max X(q) W(low)/X(q) W(high)/X(q)  e(spline)
   0      8    11.508     6.651    0.19E-04    0.31E-05    0.49E-08
   0      8    11.508    90.285    0.95E-04    0.17E-03    0.51E-07
   1      8    11.508     4.328    0.14E-04    0.32E-04    0.22E-07
   1      8    11.508    54.583    0.16E-03    0.71E-04    0.89E-07
 Optimization of the real space projectors (new method)

 maximal supplied QI-value         = 19.84
 optimisation between [QCUT,QGAM] = [ 11.51, 23.22] = [ 37.09,150.92] Ry
 Optimized for a Real-space Cutoff    1.21 Angstroem

   l    n(q)    QCUT    max X(q) W(low)/X(q) W(high)/X(q)  e(spline)
   0      8    11.508     5.487    0.18E-04    0.22E-05    0.47E-08
   0      8    11.508    85.627    0.96E-04    0.18E-03    0.54E-07
   1      8    11.508     3.530    0.17E-04    0.28E-04    0.21E-07
   1      8    11.508    42.714    0.18E-03    0.63E-04    0.92E-07

 PAW_PBE Cr 06Sep2000                   :
 PAW_PBE Si 05Jan2001                   :
  PAW_PBE P 17Jan2003                   :
  PAW_PBE S 17Jan2003                   :

 POSCAR: Cr2 Si P S6
  positions in direct lattice
  velocities in cartesian coordinates
 exchange correlation table for  LEXCH =       42
   RHO(1)=    0.500       N(1)  =     2000
   RHO(2)=  100.500       N(2)  =     4000

 ion  position               nearest neighbor table
   1  0.333  0.333  0.500-   6 2.78   5 2.78   7 2.78   8 2.78  10 2.78   9 2.78
   2  0.667  0.667  0.500-   9 2.78   8 2.78  10 2.78   5 2.78   7 2.78   6 2.78
   3  0.000  0.000  0.448-   4 2.43   8 2.63  10 2.63   9 2.63
   4  0.000  0.000  0.552-   3 2.43   5 2.63   7 2.63   6 2.63
   5  0.626  0.000  0.574-   4 2.63   1 2.78   2 2.78
   6  0.000  0.373  0.574-   4 2.63   1 2.78   2 2.78
   7  0.373  0.626  0.574-   4 2.63   1 2.78   2 2.78
   8  0.374  1.000  0.426-   3 2.63   2 2.78   1 2.78
   9  1.000  0.627  0.426-   3 2.63   2 2.78   1 2.78
  10  0.627  0.374  0.426-   3 2.63   2 2.78   1 2.78

  LATTYP: Found a hexagonal cell.
 ALAT       =     6.9077769333
 C/A-ratio  =     3.3939410937

  Lattice vectors:

 A1 = (   3.4538890000,  -5.9823100000,   0.0000000000)
 A2 = (  -6.9077770000,   0.0000000000,   0.0000000000)
 A3 = (   0.0000000000,   0.0000000000, -23.4445880000)

Analysis of symmetry for initial positions (statically):
 Subroutine PRICEL returns:
 Original cell was already a primitive cell.

 Routine SETGRP: Setting up the symmetry group for a
 hexagonal supercell.

 Subroutine GETGRP returns: Found  3 space group operations
 (whereof  3 operations were pure point group operations)
 out of a pool of 24 trial point group operations.

The static configuration has the point symmetry C_3 .

Analysis of symmetry for dynamics (positions and initial velocities):
 Subroutine PRICEL returns:
 Original cell was already a primitive cell.

[...]

The dynamic configuration has the point symmetry C_3 .

Analysis of constrained symmetry for selective dynamics:
 Subroutine PRICEL returns:
 Original cell was already a primitive cell.

[...]

The constrained configuration has the point symmetry C_3 .

Analysis of structural, dynamic, and magnetic symmetry:
 Subroutine PRICEL returns:
 Original cell was already a primitive cell.

 Routine SETGRP: Setting up the symmetry group for a
 hexagonal supercell.

 Subroutine GETGRP returns: Found  3 space group operations
 (whereof  3 operations were pure point group operations)
 out of a pool of 24 trial point group operations.

The magnetic configuration has the point symmetry C_3 .

 Subroutine INISYM returns: Found  3 space group operations
 (whereof  3 operations are pure point group operations),
 and found     1 'primitive' translations

 KPOINTS: Kpoints from vasprun.xml

Automatic generation of k-mesh.
Space group operators:
 irot       det(A)        alpha          n_x          n_y          n_z        tau_x        tau_y        tau_z
    1     1.000000     0.000000     1.000000     0.000000     0.000000     0.000000     0.000000     0.000000
    2     1.000000   120.000000     0.000000     0.000000     1.000000     0.000000     0.000000     0.000000
    3     1.000000   120.000000     0.000000     0.000000    -1.000000     0.000000     0.000000     0.000000

 Subroutine IBZKPT returns following result:

 Found      5 irreducible k-points:

 Following reciprocal coordinates:
            Coordinates               Weight
  0.000000  0.000000  0.000000      1.000000
  0.200000  0.000000  0.000000      6.000000
  0.400000  0.000000  0.000000      6.000000
  0.400000  0.200000  0.000000      6.000000
 -0.400000  0.200000  0.000000      6.000000

 Following cartesian coordinates:
            Coordinates               Weight
  0.000000  0.000000  0.000000      1.000000
  0.028953 -0.016716  0.000000      6.000000
  0.057906 -0.033432  0.000000      6.000000
  0.057906  0.000000  0.000000      6.000000
 -0.057906  0.066864  0.000000      6.000000

 TETIRR: Found     15 inequivalent tetrahedra from      150

 SYSTEM =  unknown system
 POSCAR =  Cr2 Si P S6

 Startparameter for this run:
   NWRITE =      2    write-flag & timer
   PREC   = accura    normal or accurate (medium, high low for compatibility)
   ISTART =      0    job   : 0-new  1-cont  2-samecut
   ICHARG =      2    charge: 1-file 2-atom 10-const
   ISPIN  =      2    spin polarized calculation?
   LNONCOLLINEAR =      F non collinear calculations
   LSORBIT =      F    spin-orbit coupling
   INIWAV =      1    electr: 0-lowe 1-rand  2-diag
   LASPH  =      F    aspherical Exc in radial PAW
   METAGGA=      F    non-selfconsistent MetaGGA calc.

 Electronic Relaxation 1
   ENCUT  =  520.0 eV  38.22 Ry    6.18 a.u.  12.84 12.84 43.59*2*pi/ulx,y,z
   ENINI  =  520.0     initial cutoff
   ENAUG  =  402.1 eV  augmentation charge cutoff
   NELM   =    400;   NELMIN=  2; NELMDL=  0     # of ELM steps
   EDIFF  = 0.1E-03   stopping-criterion for ELM
   LREAL  =      T    real-space projection
   NLSPLINE    = F    spline interpolate recip. space projectors
   LCOMPAT=      F    compatible to vasp.4.4
   GGA_COMPAT  = T    GGA compatible to vasp.4.4-vasp.4.6
   LMAXPAW     = -100 max onsite density
   LMAXMIX     =    2 max onsite mixed and CHGCAR
   VOSKOWN=      0    Vosko Wilk Nusair interpolation
   ROPT   =   -0.00025  -0.00025  -0.00025  -0.00025
 Ionic relaxation
   EDIFFG = 0.1E-02   stopping-criterion for IOM
   NSW    =     99    number of steps for IOM
   NBLOCK =      1;   KBLOCK =     99    inner block; outer block
   IBRION =      2    ionic relax: 0-MD 1-quasi-New 2-CG
   NFREE  =      1    steps in history (QN), initial steepest desc. (CG)
   ISIF   =      3    stress and relaxation
   IWAVPR =     11    prediction:  0-non 1-charg 2-wave 3-comb
   ISYM   =      2    0-nonsym 1-usesym 2-fastsym
   LCORR  =      T    Harris-Foulkes like correction to forces

   POTIM  = 0.5000    time-step for ionic-motion
   TEIN   =    0.0    initial temperature
   TEBEG  =    0.0;   TEEND  =   0.0 temperature during run
   SMASS  =  -3.00    Nose mass-parameter (am)
   estimated Nose-frequenzy (Omega)   =  0.10E-29 period in steps =****** mass=  -0.109E-26a.u.
   SCALEE = 1.0000    scale energy and forces
   NPACO  =    256;   APACO  = 16.0  distance and # of slots for P.C.
   PSTRESS=    0.0 pullay stress

  Mass of Ions in am
   POMASS =  52.00 28.09 30.97 32.07
  Ionic Valenz
   ZVAL   =   6.00  4.00  5.00  6.00
  Atomic Wigner-Seitz radii
  virtual crystal weights
   VCA    =   1.00  1.00  1.00  1.00
   NELECT =      57.0000    total number of electrons
   NUPDOWN=      -1.0000    fix difference up-down

 DOS related values:
   EMIN   =  10.00;   EMAX   =-10.00  energy-range for DOS
   EFERMI =   0.00
   ISMEAR =    -5;   SIGMA  =   0.05  broadening in eV -4-tet -1-fermi 0-gaus

 Electronic relaxation 2 (details)
   IALGO  =     38    algorithm
   LDIAG  =      T    sub-space diagonalisation (order eigenvalues)
   LSUBROT=      F    optimize rotation matrix (better conditioning)
   TURBO    =      0    0=normal 1=particle mesh
   IRESTART =      0    0=no restart 2=restart with 2 vectors
   NREBOOT  =      0    no. of reboots
   NMIN     =      0    reboot dimension
   EREF     =   0.00    reference energy to select bands
   IMIX   =      4    mixing-type and parameters
     AMIX     =   0.40;   BMIX     =  1.00
     AMIX_MAG =   1.60;   BMIX_MAG =  1.00
     AMIN     =   0.01
     WC   =   100.;   INIMIX=   1;  MIXPRE=   1;  MAXMIX= -45

 Intra band minimization:
   WEIMIN = 0.0010     energy-eigenvalue tresh-hold
   EBREAK =  0.52E-06  absolut break condition
   DEPER  =   0.30     relativ break condition

   TIME   =   0.40     timestep for ELM

  volume/ion in A,a.u.               =      96.88       653.80
  Fermi-wavevector in a.u.,A,eV,Ry     =   0.636722  1.203230  5.516004  0.405415
  Thomas-Fermi vector in A             =   1.701488

 Write flags
[...]
    1        0.248   0.248   4.028   4.524
    2        0.248   0.248   4.028   4.524
    3        0.817   0.590   0.000   1.407
    4        1.138   1.129   0.000   2.267
    5        1.385   2.194   0.000   3.579
    6        1.380   2.153   0.000   3.533
    7        1.383   2.180   0.000   3.564
    8        1.377   2.197   0.000   3.574
    9        1.374   2.196   0.000   3.571
   10        1.376   2.194   0.000   3.570
tot         10.727  15.330   8.055  34.112

 magnetization (x)

[...]

  FORCE on cell =-STRESS in cart. coord.  units (eV):
  Direction    XX          YY          ZZ          XY          YZ          ZX
  Alpha Z    18.65692    18.65692    18.65692
  Ewald    7704.79684  7704.79469 -9187.98168    -0.00106    -0.00039    -0.00072
  Hartree  8170.61626  8170.61659 -7919.73119    -0.00006     0.00004     0.00006
  E(xc)    -206.29179  -206.29182  -205.72167     0.00005    -0.00002     0.00002
  Local  -16766.88367-16766.88279 16182.32273     0.00087     0.00024     0.00045
  n-local   495.11762   497.03866   508.36139     0.74770     0.25259     0.14149
  augment   -60.78638   -60.78623   -64.74876    -0.00008    -0.00002     0.00006
  Kinetic   615.96480   614.75352   650.06594    -1.31542     0.27986     0.06518
  Fock        0.00000     0.00000     0.00000     0.00000     0.00000     0.00000
  Total     -28.45494   -28.45493   -18.77633     0.00000     0.00000     0.00000
  in kB     -47.05636   -47.05636   -31.05070     0.00000     0.00000     0.00000

 VOLUME and BASIS-vectors are now :
  energy-cutoff  :      520.00
  volume of cell :      968.84
      direct lattice vectors                 reciprocal lattice vectors
     6.907777000 -0.000000000  0.000000000     0.144764372 -0.083579742  0.000000000
     3.453888000  5.982310000  0.000000000     0.000000000  0.167159509 -0.000000000
     0.000000000  0.000000000 23.444588000    -0.000000000  0.000000000  0.042653767

[...]

 FORCES acting on ions
    electron-ion (+dipol)            ewald-force                    non-local-force                 convergence-correction
   -.705E-04 -.520E-04 0.601E+01   0.314E-03 0.187E-03 -.600E+01   0.000E+00 0.173E-17 -.349E-01   -.351E-06 0.312E-06 -.179E-01
   0.779E-04 0.467E-04 0.468E+01   -.314E-03 -.187E-03 -.471E+01   -.867E-18 0.000E+00 -.203E-01   -.807E-07 -.809E-07 -.102E-01
   -.226E-04 -.231E-04 0.173E+03   -.141E-03 -.779E-04 -.170E+03   -.694E-17 0.000E+00 -.256E+01   0.170E-05 0.989E-06 0.177E-02
   0.251E-04 0.305E-04 -.197E+03   0.176E-03 0.973E-04 0.197E+03   0.347E-17 0.000E+00 -.104E+00   -.306E-08 -.951E-08 -.133E-01
   0.145E+01 0.149E+00 -.342E+03   -.353E+01 -.143E+00 0.346E+03   0.300E+01 -.116E-01 -.555E+01   -.161E-03 0.576E-03 -.180E-01
   -.598E+00 -.133E+01 -.342E+03   0.164E+01 0.313E+01 0.346E+03   -.151E+01 -.259E+01 -.555E+01   0.579E-03 -.149E-03 -.180E-01
   -.859E+00 0.118E+01 -.342E+03   0.189E+01 -.298E+01 0.346E+03   -.149E+01 0.260E+01 -.555E+01   -.418E-03 -.427E-03 -.180E-01
   0.589E+01 -.169E+00 0.348E+03   -.308E+01 0.150E+00 -.352E+03   -.419E+01 0.126E-01 0.550E+01   0.483E-02 0.101E-01 0.119E-01
   -.309E+01 -.501E+01 0.348E+03   0.167E+01 0.259E+01 -.352E+03   0.211E+01 0.362E+01 0.550E+01   0.635E-02 -.924E-02 0.119E-01
   -.279E+01 0.519E+01 0.348E+03   0.141E+01 -.274E+01 -.352E+03   0.209E+01 -.364E+01 0.550E+01   -.112E-01 -.878E-03 0.119E-01
   0.172E-04 0.881E-05 0.295E+01   0.142E-13 0.533E-14 0.568E-13   0.888E-15 0.444E-15 -.289E+01   0.126E-05 0.201E-05 -.582E-01

 POSITION                                       TOTAL-FORCE (eV/Angst)
      3.45388      1.99410     11.72054         0.000000     -0.000000     -0.036836
      6.90778      3.98821     11.72405         0.000000     -0.000000     -0.055877
      0.00000      0.00000     10.50824         0.000000     -0.000000      0.151713
      0.00000      0.00000     12.93635         0.000000      0.000000      0.078359
      4.32819      0.00251     13.45138         0.924868     -0.003427     -1.809242
      1.29198      2.23274     13.45138        -0.465402     -0.799245     -1.809242
      4.74152      3.74706     13.45138        -0.459466      0.802672     -1.809242
      6.03348      5.97980      9.99321        -1.381097      0.002504      1.763455
      9.06969      3.74957      9.99321         0.692717      1.194813      1.763455
      5.62015      2.23525      9.99321         0.688380     -1.197317      1.763455
    total drift:                                0.000018      0.000011      0.002794

  FREE ENERGIE OF THE ION-ELECTRON SYSTEM (eV)
  free  energy   TOTEN  =       -48.50696785 eV

  energy  without entropy=      -48.50696785  energy(sigma->0) =      -48.50696785

[...]

 d Force = 0.6919578E+00[ 0.198E+00, 0.119E+01]  d Energy = 0.7458458E+01-0.677E+01
 d Force =-0.1943866E+03[-0.224E+03,-0.164E+03]  d Ewald  =-0.1789470E+04 0.160E+04

 Steepest descent step on ions:
 trial-energy change:   -7.458458  1 .order   -5.836169  -10.838134   -0.834205
  (g-gl).g = 0.108E+02      g.g   = 0.108E+02  gl.gl    = 0.000E+00
 g(Force)  = 0.133E+01   g(Stress)= 0.951E+01 ortho     = 0.000E+00
 gamma     =   0.00000
 trial     =   1.00000
 opt step  =   1.04142  (harmonic =   1.08339) maximal distance =0.08859740
 next E    =   -55.982817   (d E  =  -7.47585)

[...]

 d Force = 0.7219922E-02[ 0.502E-02, 0.942E-02]  d Energy = 0.1233848E-01-0.512E-02
 d Force =-0.1025193E+02[-0.103E+02,-0.102E+02]  d Ewald  =-0.9210831E+02 0.819E+02

[...]

 d Force = 0.7512599E-01[-0.535E-02, 0.156E+00]  d Energy = 0.9488463E-01-0.198E-01
 d Force = 0.3239769E+02[ 0.322E+02, 0.326E+02]  d Ewald  =-0.1694742E+03 0.202E+03

 Conjugate gradient step on ions:
 trial-energy change:   -0.094885  1 .order   -0.083060   -0.183770    0.017651
  (g-gl).g = 0.149E+00      g.g   = 0.182E+00  gl.gl    = 0.108E+02
 g(Force)  = 0.153E+00   g(Stress)= 0.292E-01 ortho     = 0.328E-01
 gamma     =   0.01375
 trial     =   1.00828
 opt step  =   0.94180  (harmonic =   0.91993) maximal distance =0.03591722
 next E    =   -56.073228   (d E  =  -0.09546)

[...]

 d Force =-0.1922496E-04[-0.365E-03, 0.326E-03]  d Energy = 0.6064548E-03-0.626E-03
 d Force =-0.2097988E+01[-0.210E+01,-0.210E+01]  d Ewald  = 0.1127427E+02-0.134E+02

[...]

 d Force = 0.3354468E-01[ 0.108E-01, 0.562E-01]  d Energy = 0.3913408E-01-0.559E-02
 d Force = 0.1485193E+02[ 0.148E+02, 0.149E+02]  d Ewald  = 0.6715746E+02-0.523E+02

 Conjugate gradient step on ions:
 trial-energy change:   -0.039134  1 .order   -0.036309   -0.066283   -0.006335
  (g-gl).g = 0.718E-01      g.g   = 0.694E-01  gl.gl    = 0.182E+00
 g(Force)  = 0.542E-01   g(Stress)= 0.152E-01 ortho     =-0.698E-02
 gamma     =   0.39479
 trial     =   0.99499
 opt step  =   1.07552  (harmonic =   1.10013) maximal distance =0.03321980
 next E    =   -56.112648   (d E  =  -0.03939)

[...]

 d Force = 0.7631395E-03[ 0.651E-03, 0.875E-03]  d Energy = 0.7501675E-03 0.130E-04
 d Force = 0.1191630E+01[ 0.119E+01, 0.119E+01]  d Ewald  = 0.5396466E+01-0.420E+01

[...]

 eigenvalue-minimisations  :  1088
 total energy-change (2. order) : 0.3359224E-05  (-0.6796097E-04)
 number of electron      57.0000000 magnetization       5.3465979
 augmentation part       -0.5162433 magnetization       3.8300938

[...]

 d Force = 0.1498791E-02[-0.550E-03, 0.355E-02]  d Energy = 0.1723747E-02-0.225E-03
 d Force =-0.1242322E+02[-0.124E+02,-0.124E+02]  d Ewald  = 0.9419111E+01-0.218E+02

 Conjugate gradient step on ions:
 trial-energy change:   -0.001724  1 .order   -0.001812   -0.004564    0.000940
  (g-gl).g =-0.614E-02      g.g   = 0.513E-02  gl.gl    = 0.694E-01
 g(Force)  = 0.423E-02   g(Stress)= 0.900E-03 ortho     = 0.698E-02
 gamma     =  -0.08844
 trial     =   1.01109
 opt step  =   0.83845  (harmonic =   0.83845) maximal distance =0.00740842
 next E    =   -56.115032   (d E  =  -0.00189)

[...]

 Broyden mixing:
  rms(total) = 0.24174E-02    rms(broyden)= 0.24173E-02
  rms(prec ) = 0.27469E-02
  weight for this iteration     100.00

 eigenvalues of (default mixing * dielectric matrix)
  average eigenvalue GAMMA=   0.8345
  0.8345

[...]

--------------------------------------- Iteration      9(   3)  ---------------------------------------

[...]

 eigenvalue-minimisations  :   720
 total energy-change (2. order) :-0.4305892E-04  (-0.6560820E-05)
 number of electron      56.9999999 magnetization       5.3481211
 augmentation part       -0.5172668 magnetization       3.8328105

 Free energy of the ion-electron system (eV)
  alpha Z        PSCENC =        27.71098097
  Ewald energy   TEWEN  =      8181.02528758
  -Hartree energ DENC   =    -10420.80524955
  -exchange      EXHF   =         0.00000000
  -V(xc)+E(xc)   XCENC  =        30.73462407
  PAW double counting   =      1249.37182900    -1160.71745818
  entropy T*S    EENTRO =         0.00000000
  eigenvalues    EBANDS =      -466.71943591
  atomic energy  EATOM  =      2503.28425743
  Solvation  Ediel_sol  =         0.00000000
  free energy    TOTEN  =       -56.11516458 eV

  energy without entropy =      -56.11516458  energy(sigma->0) =      -56.11516458

 average (electrostatic) potential at core
  the test charge radii are     1.1394  0.9892  0.9587  0.9698
  (the norm of the test charge is              1.0000)
       1 -51.1632       2 -51.1688       3 -92.8316       4 -92.6640       5 -94.3710
       6 -94.3710       7 -94.3709       8 -93.9403       9 -93.9403      10 -93.9402

 E-fermi :  -1.7930     XC(G=0):  -3.7173     alpha+bet : -3.1698

[...]

 spin component 2

[...]

 k-point     5 :      -0.4000    0.2000    0.0000
  band No.  band energies     occupation
      1     -17.5255      1.00000
      2     -16.2235      1.00000
      3     -16.0868      1.00000
      4     -15.9095      1.00000
      5     -15.4971      1.00000
      6     -15.3475      1.00000
      7     -12.1261      1.00000
      8      -9.8648      1.00000
      9      -8.4575      1.00000
     10      -8.0012      1.00000
     11      -7.7943      1.00000
     12      -7.3032      1.00000
     13      -7.0191      1.00000
     14      -6.4565      1.00000
     15      -6.0903      1.00000
     16      -6.0425      1.00000
     17      -5.8888      1.00000
     18      -5.5356      1.00000
     19      -5.4549      1.00000
     20      -5.2667      1.00000
     21      -5.0518      1.00000
     22      -4.5938      1.00000
     23      -4.3857      1.00000
     24      -4.2458      1.00000
     25      -4.0890      1.00000
     26      -2.6819      1.00000
     27      -1.6490      0.00000
     28      -1.5057      0.00000
     29      -0.9635      0.00000
     30      -0.6784      0.00000
     31      -0.5420      0.00000
     32      -0.5323      0.00000
     33      -0.3245      0.00000
     34      -0.1743      0.00000
     35       0.2481      0.00000
     36       0.2670      0.00000
     37       0.5776      0.00000
     38       1.0622      0.00000
     39       1.3712      0.00000
     40       2.0393      0.00000
     41       2.2404      0.00000
     42       2.3732      0.00000
     43       3.2011      0.00000
     44       3.4299      0.00000
     45       3.5582      0.00000
     46       3.6470      0.00000
     47       3.7878      0.00000
     48       4.1021      0.00000

[...]

 soft charge-density along one line, spin component           2
         0         1         2         3         4         5         6         7         8         9
 total charge-density along one line

------------------------ aborting loop because EDIFF is reached ----------------------------------------

[...]

  FORCE on cell =-STRESS in cart. coord.  units (eV):
  Direction    XX          YY          ZZ          XY          YZ          ZX
  Alpha Z    27.71098    27.71098    27.71098
  Ewald    9915.98878  9915.98585-11650.95134    -0.00111    -0.00047    -0.00085
  Hartree 10251.47122 10251.47149-10081.11684    -0.00001     0.00004     0.00006
  E(xc)    -214.60687  -214.60688  -214.33091     0.00002     0.00000     0.00001
  Local  -21083.11214-21083.11101 20772.99929     0.00068     0.00024     0.00044
  n-local   509.48254   511.36543   517.18586     0.90430     0.75593     0.70100
  augment   -60.00453   -60.00454   -64.54153     0.00002     0.00002     0.00002
  Kinetic   655.93253   648.31465   693.06034    -4.38299    -0.48004    -0.85763
  Fock        0.00000     0.00000     0.00000     0.00000     0.00000     0.00000
  Total      -0.00577    -0.00577     0.01586     0.00000     0.00000     0.00000
  in kB      -0.01416    -0.01416     0.03894     0.00000     0.00000     0.00000

 VOLUME and BASIS-vectors are now :
  energy-cutoff  :      520.00
  volume of cell :      652.29
      direct lattice vectors                 reciprocal lattice vectors
     5.923840298  0.000000062  0.000000000     0.168809413 -0.097462153  0.000000000
     2.961919810  5.130196008  0.000000000    -0.000000002  0.194924327 -0.000000000
    -0.000000000  0.000000000 21.463498327    -0.000000000 -0.000000000  0.046590727

  length of vectors
     5.923840298  5.923839975 21.463498327     0.194924317  0.194924327  0.046590727

 FORCES acting on ions
    electron-ion (+dipol)            ewald-force                    non-local-force                 convergence-correction
   -.187E-03 -.962E-04 0.112E+02   0.432E-03 0.252E-03 -.116E+02   -.936E-20 0.138E-19 0.285E+00   0.971E-07 0.583E-07 0.840E-02
   0.172E-03 0.117E-03 0.102E+02   -.428E-03 -.250E-03 -.105E+02   -.139E-16 0.139E-16 0.267E+00   0.939E-07 0.526E-07 0.853E-02
   -.277E-04 -.329E-04 0.228E+03   -.212E-03 -.119E-03 -.225E+03   0.209E-16 0.137E-16 -.383E+01   -.308E-07 -.192E-07 0.685E-02
   0.383E-04 0.222E-04 -.287E+03   0.275E-03 0.154E-03 0.283E+03   0.207E-16 0.210E-18 0.434E+01   0.466E-07 0.242E-07 0.938E-02
   0.130E+02 -.754E-01 -.469E+03   -.173E+02 0.541E-01 0.472E+03   0.433E+01 -.741E-02 -.367E+01   -.602E-02 0.264E-01 0.184E-01
   -.656E+01 -.112E+02 -.469E+03   0.869E+01 0.149E+02 0.472E+03   -.217E+01 -.375E+01 -.367E+01   0.259E-01 -.798E-02 0.184E-01
   -.644E+01 0.113E+02 -.469E+03   0.860E+01 -.150E+02 0.472E+03   -.216E+01 0.375E+01 -.367E+01   -.198E-01 -.184E-01 0.184E-01
   -.749E+01 -.412E-01 0.481E+03   0.102E+02 0.117E-01 -.485E+03   -.281E+01 0.796E-02 0.345E+01   0.963E-02 0.251E-01 0.478E-02
   0.371E+01 0.651E+01 0.481E+03   -.511E+01 -.888E+01 -.485E+03   0.141E+01 0.243E+01 0.345E+01   0.169E-01 -.209E-01 0.478E-02
   0.378E+01 -.646E+01 0.481E+03   -.513E+01 0.887E+01 -.485E+03   0.140E+01 -.243E+01 0.345E+01   -.265E-01 -.420E-02 0.478E-02
   0.187E-04 0.336E-04 -.507E+00   0.213E-13 -.355E-14 0.000E+00   0.666E-15 0.000E+00 0.396E+00   0.269E-06 0.167E-06 0.103E+00

 POSITION                                       TOTAL-FORCE (eV/Angst)
      2.96192      1.71006     10.73014         0.000000     -0.000000     -0.063505
      5.92384      3.42013     10.73336         0.000000     -0.000000     -0.077705
      0.00000      0.00000      9.65382         0.000000     -0.000000      0.038862
      0.00000      0.00000     11.86895        -0.000000     -0.000000      0.090055
      3.78653      0.00068     12.23140         0.034140     -0.001520     -0.016303
      1.06925      1.85063     12.23140        -0.018386     -0.028806     -0.016303
      4.02999      3.27889     12.23140        -0.015753      0.030326     -0.016303
      5.05550      5.12911      9.20405        -0.040416      0.002601      0.020401
      7.83802      3.31764      9.20405         0.022461      0.033701      0.020401
      4.87799      1.81364      9.20405         0.017956     -0.036302      0.020401
    total drift:                                0.000019      0.000034     -0.008150

  FREE ENERGIE OF THE ION-ELECTRON SYSTEM (eV)
  free  energy   TOTEN  =       -56.11516458 eV

  energy  without entropy=      -56.11516458  energy(sigma->0) =      -56.11516458

 d Force = 0.3393602E-04[-0.262E-04, 0.940E-04]  d Energy = 0.3009611E-03-0.267E-03
 d Force = 0.2128043E+01[ 0.213E+01, 0.213E+01]  d Ewald  =-0.1608333E+01 0.374E+01

 reached required accuracy - stopping structural energy minimisation

 total charge

[...]

 magnetization (x)

# of ion       s       p       d       tot
    1        0.030   0.034   2.697   2.761
    2        0.030   0.034   2.695   2.759
    3        0.003   0.018   0.000   0.021
    4       -0.031  -0.001   0.000  -0.032
    5       -0.004  -0.070   0.000  -0.074
    6       -0.003  -0.061   0.000  -0.064
    7       -0.005  -0.072   0.000  -0.077
    8        0.001  -0.050   0.000  -0.049
    9       -0.001  -0.034   0.000  -0.035
   10       -0.001  -0.044   0.000  -0.045
tot          0.018  -0.246   5.392   5.164

 BZINTS: Fermi energy: -1.792973; 57.000000 electrons
         Band energy:-466.719436;  BLOECHL correction: -0.030292