 vasp.5.4.4.18Apr17-6-g9f103f2a35 (build May  1 2020 15:48:39) complex
 executed on             LinuxGNU date 2020.06.28  21:24:23

 INCAR:
 POTCAR:   PAW_PBE Co 06Sep2000
 POTCAR:   PAW_PBE Ge 05Jan2001
 POTCAR:    PAW_PBE P 17Jan2003
 POTCAR:   PAW_PBE Se 06Sep2000

 POTCAR:   PAW_PBE Co 06Sep2000
   VRHFIN =Co: d8 s1

   TITEL  = PAW_PBE Co 06Sep2000
   POMASS =   58.933; ZVAL   =    9.000    mass and valenz
   ENMAX  =  267.969; ENMIN  =  200.977 eV
   QCUT   =   -4.438; QGAM   =    8.876    optimization parameters

   Description
     l     E      TYP  RCUT    TYP  RCUT
     2   .000     23  2.300
     2   .000     23  2.300
     0   .000     23  2.300
     0   .000     23  2.300
     1  -.200     23  2.300
     1   .000     23  2.300
     3   .000      7   .000

 POTCAR:   PAW_PBE Ge 05Jan2001
   VRHFIN =Ge: s2p2

   TITEL  = PAW_PBE Ge 05Jan2001
   POMASS =   72.610; ZVAL   =    4.000    mass and valenz
   ENMAX  =  173.807; ENMIN  =  130.355 eV
   QCUT   =   -3.574; QGAM   =    7.148    optimization parameters

[...]

 POTCAR:    PAW_PBE P 17Jan2003
   VRHFIN =P : s2p3

   TITEL  = PAW_PBE P 17Jan2003
   POMASS =   30.974; ZVAL   =    5.000    mass and valenz
   ENMAX  =  270.000; ENMIN  =  191.280 eV
   QCUT   =   -4.330; QGAM   =    8.659    optimization parameters

[...]

 POTCAR:   PAW_PBE Se 06Sep2000
   VRHFIN =Se: s2p4

   TITEL  = PAW_PBE Se 06Sep2000
   POMASS =   78.960; ZVAL   =    6.000    mass and valenz
   ENMAX  =  211.534; ENMIN  =  158.651 eV
   QCUT   =   -3.943; QGAM   =    7.886    optimization parameters

   Description
     l     E      TYP  RCUT    TYP  RCUT
     0   .000     23  2.100
     0   .000     23  2.100
     1   .000     23  2.100
     1   .000     23  2.100
     2   .000     23  2.100
     3  -.100      7  2.100

 Optimization of the real space projectors (new method)

 maximal supplied QI-value         = 16.25
 optimisation between [QCUT,QGAM] = [ 11.54, 23.24] = [ 37.28,151.24] Ry
 Optimized for a Real-space Cutoff    1.53 Angstroem

   l    n(q)    QCUT    max X(q) W(low)/X(q) W(high)/X(q)  e(spline)
   2     10    11.539     4.599    0.83E-05    0.15E-04    0.45E-07
   2     10    11.539    18.158    0.10E-03    0.14E-03    0.24E-06
   0     11    11.539    15.740    0.19E-04    0.12E-05    0.17E-07
   0     11    11.539    47.662    0.48E-04    0.15E-04    0.31E-06
   1     10    11.539     5.777    0.11E-04    0.46E-05    0.25E-07
   1     10    11.539     8.007    0.46E-04    0.29E-04    0.11E-06
 Optimization of the real space projectors (new method)

[...]

   l    n(q)    QCUT    max X(q) W(low)/X(q) W(high)/X(q)  e(spline)
   0      8    11.508     6.651    0.19E-04    0.31E-05    0.49E-08
   0      8    11.508    90.285    0.95E-04    0.17E-03    0.51E-07
   1      8    11.508     4.328    0.14E-04    0.32E-04    0.22E-07
   1      8    11.508    54.583    0.16E-03    0.71E-04    0.89E-07
 Optimization of the real space projectors (new method)

 maximal supplied QI-value         = 17.95
 optimisation between [QCUT,QGAM] = [ 11.67, 23.34] = [ 38.13,152.52] Ry
 Optimized for a Real-space Cutoff    1.25 Angstroem

   l    n(q)    QCUT    max X(q) W(low)/X(q) W(high)/X(q)  e(spline)
   0      9    11.669     6.499    0.13E-04    0.81E-05    0.11E-07
   0      9    11.669    52.623    0.18E-03    0.46E-04    0.72E-07
   1      8    11.669     4.229    0.40E-04    0.45E-04    0.31E-07
   1      8    11.669    29.991    0.22E-03    0.36E-03    0.10E-06
   2      8    11.669     3.719    0.19E-03    0.46E-04    0.50E-07

 PAW_PBE Co 06Sep2000                   :
 PAW_PBE Ge 05Jan2001                   :
  PAW_PBE P 17Jan2003                   :
 PAW_PBE Se 06Sep2000                   :

 POSCAR: Co2 Ge P Se6
  positions in direct lattice
  velocities in cartesian coordinates
 exchange correlation table for  LEXCH =       42
   RHO(1)=    0.500       N(1)  =     2000
   RHO(2)=  100.500       N(2)  =     4000

 ion  position               nearest neighbor table
   1  0.333  0.333  0.500-   6 2.78   5 2.78   7 2.78   8 2.78  10 2.78   9 2.78
   2  0.667  0.667  0.500-   9 2.78   8 2.78  10 2.78   5 2.78   7 2.78   6 2.78
   3  0.000  0.000  0.448-   4 2.43   8 2.63  10 2.63   9 2.63
   4  0.000  0.000  0.552-   3 2.43   5 2.63   7 2.63   6 2.63
   5  0.626  0.000  0.574-   4 2.63   1 2.78   2 2.78
   6  0.000  0.373  0.574-   4 2.63   1 2.78   2 2.78
   7  0.373  0.626  0.574-   4 2.63   1 2.78   2 2.78
   8  0.374  1.000  0.426-   3 2.63   2 2.78   1 2.78
   9  1.000  0.627  0.426-   3 2.63   2 2.78   1 2.78
  10  0.627  0.374  0.426-   3 2.63   2 2.78   1 2.78

  LATTYP: Found a hexagonal cell.
 ALAT       =     6.9077769333
 C/A-ratio  =     3.3939410937

  Lattice vectors:

 A1 = (   3.4538890000,  -5.9823100000,   0.0000000000)
 A2 = (  -6.9077770000,   0.0000000000,   0.0000000000)
 A3 = (   0.0000000000,   0.0000000000, -23.4445880000)

Analysis of symmetry for initial positions (statically):
 Subroutine PRICEL returns:
 Original cell was already a primitive cell.

 Routine SETGRP: Setting up the symmetry group for a
 hexagonal supercell.

 Subroutine GETGRP returns: Found  3 space group operations
 (whereof  3 operations were pure point group operations)
 out of a pool of 24 trial point group operations.

The static configuration has the point symmetry C_3 .

Analysis of symmetry for dynamics (positions and initial velocities):
 Subroutine PRICEL returns:
 Original cell was already a primitive cell.

[...]

The dynamic configuration has the point symmetry C_3 .

Analysis of constrained symmetry for selective dynamics:
 Subroutine PRICEL returns:
 Original cell was already a primitive cell.

[...]

The constrained configuration has the point symmetry C_3 .

Analysis of structural, dynamic, and magnetic symmetry:
 Subroutine PRICEL returns:
 Original cell was already a primitive cell.

 Routine SETGRP: Setting up the symmetry group for a
 hexagonal supercell.

 Subroutine GETGRP returns: Found  3 space group operations
 (whereof  3 operations were pure point group operations)
 out of a pool of 24 trial point group operations.

The magnetic configuration has the point symmetry C_3 .

 Subroutine INISYM returns: Found  3 space group operations
 (whereof  3 operations are pure point group operations),
 and found     1 'primitive' translations

 KPOINTS: Kpoints from vasprun.xml

Automatic generation of k-mesh.
Space group operators:
 irot       det(A)        alpha          n_x          n_y          n_z        tau_x        tau_y        tau_z
    1     1.000000     0.000000     1.000000     0.000000     0.000000     0.000000     0.000000     0.000000
    2     1.000000   120.000000     0.000000     0.000000     1.000000     0.000000     0.000000     0.000000
    3     1.000000   120.000000     0.000000     0.000000    -1.000000     0.000000     0.000000     0.000000

 Subroutine IBZKPT returns following result:

 Found      5 irreducible k-points:

 Following reciprocal coordinates:
            Coordinates               Weight
  0.000000  0.000000  0.000000      1.000000
  0.200000  0.000000  0.000000      6.000000
  0.400000  0.000000  0.000000      6.000000
  0.400000  0.200000  0.000000      6.000000
 -0.400000  0.200000  0.000000      6.000000

 Following cartesian coordinates:
            Coordinates               Weight
  0.000000  0.000000  0.000000      1.000000
  0.028953 -0.016716  0.000000      6.000000
  0.057906 -0.033432  0.000000      6.000000
  0.057906  0.000000  0.000000      6.000000
 -0.057906  0.066864  0.000000      6.000000

 TETIRR: Found     15 inequivalent tetrahedra from      150

 SYSTEM =  unknown system
 POSCAR =  Co2 Ge P Se6

 Startparameter for this run:
   NWRITE =      2    write-flag & timer
   PREC   = accura    normal or accurate (medium, high low for compatibility)
   ISTART =      0    job   : 0-new  1-cont  2-samecut
   ICHARG =      2    charge: 1-file 2-atom 10-const
   ISPIN  =      2    spin polarized calculation?
   LNONCOLLINEAR =      F non collinear calculations
   LSORBIT =      F    spin-orbit coupling
   INIWAV =      1    electr: 0-lowe 1-rand  2-diag
   LASPH  =      F    aspherical Exc in radial PAW
   METAGGA=      F    non-selfconsistent MetaGGA calc.

 Electronic Relaxation 1
   ENCUT  =  520.0 eV  38.22 Ry    6.18 a.u.  12.84 12.84 43.59*2*pi/ulx,y,z
   ENINI  =  520.0     initial cutoff
   ENAUG  =  477.8 eV  augmentation charge cutoff
   NELM   =    400;   NELMIN=  2; NELMDL=  0     # of ELM steps
   EDIFF  = 0.1E-03   stopping-criterion for ELM
   LREAL  =      T    real-space projection
   NLSPLINE    = F    spline interpolate recip. space projectors
   LCOMPAT=      F    compatible to vasp.4.4
   GGA_COMPAT  = T    GGA compatible to vasp.4.4-vasp.4.6
   LMAXPAW     = -100 max onsite density
   LMAXMIX     =    2 max onsite mixed and CHGCAR
   VOSKOWN=      0    Vosko Wilk Nusair interpolation
   ROPT   =   -0.00025  -0.00025  -0.00025  -0.00025
 Ionic relaxation
   EDIFFG = 0.1E-02   stopping-criterion for IOM
   NSW    =     99    number of steps for IOM
   NBLOCK =      1;   KBLOCK =     99    inner block; outer block
   IBRION =      2    ionic relax: 0-MD 1-quasi-New 2-CG
   NFREE  =      1    steps in history (QN), initial steepest desc. (CG)
   ISIF   =      3    stress and relaxation
   IWAVPR =     11    prediction:  0-non 1-charg 2-wave 3-comb
   ISYM   =      2    0-nonsym 1-usesym 2-fastsym
   LCORR  =      T    Harris-Foulkes like correction to forces

   POTIM  = 0.5000    time-step for ionic-motion
   TEIN   =    0.0    initial temperature
   TEBEG  =    0.0;   TEEND  =   0.0 temperature during run
   SMASS  =  -3.00    Nose mass-parameter (am)
   estimated Nose-frequenzy (Omega)   =  0.10E-29 period in steps =****** mass=  -0.109E-26a.u.
   SCALEE = 1.0000    scale energy and forces
   NPACO  =    256;   APACO  = 16.0  distance and # of slots for P.C.
   PSTRESS=    0.0 pullay stress

  Mass of Ions in am
   POMASS =  58.93 72.61 30.97 78.96
  Ionic Valenz
   ZVAL   =   9.00  4.00  5.00  6.00
  Atomic Wigner-Seitz radii
  virtual crystal weights
   VCA    =   1.00  1.00  1.00  1.00
   NELECT =      63.0000    total number of electrons
   NUPDOWN=      -1.0000    fix difference up-down

 DOS related values:
   EMIN   =  10.00;   EMAX   =-10.00  energy-range for DOS
   EFERMI =   0.00
   ISMEAR =    -5;   SIGMA  =   0.05  broadening in eV -4-tet -1-fermi 0-gaus

 Electronic relaxation 2 (details)
   IALGO  =     38    algorithm
   LDIAG  =      T    sub-space diagonalisation (order eigenvalues)
   LSUBROT=      F    optimize rotation matrix (better conditioning)
   TURBO    =      0    0=normal 1=particle mesh
   IRESTART =      0    0=no restart 2=restart with 2 vectors
   NREBOOT  =      0    no. of reboots
   NMIN     =      0    reboot dimension
   EREF     =   0.00    reference energy to select bands
   IMIX   =      4    mixing-type and parameters
     AMIX     =   0.40;   BMIX     =  1.00
     AMIX_MAG =   1.60;   BMIX_MAG =  1.00
     AMIN     =   0.01
     WC   =   100.;   INIMIX=   1;  MIXPRE=   1;  MAXMIX= -45

 Intra band minimization:
   WEIMIN = 0.0010     energy-eigenvalue tresh-hold
   EBREAK =  0.52E-06  absolut break condition
[...]
  energy-cutoff  :      520.00
  volume of cell :      968.84
      direct lattice vectors                 reciprocal lattice vectors
     6.907777000 -0.000000000  0.000000000     0.144764372 -0.083579742  0.000000000
     3.453888000  5.982310000  0.000000000     0.000000000  0.167159509 -0.000000000
     0.000000000  0.000000000 23.444588000    -0.000000000  0.000000000  0.042653767

[...]

 FORCES acting on ions
    electron-ion (+dipol)            ewald-force                    non-local-force                 convergence-correction
   0.153E-03 0.666E-04 0.883E+01   0.562E-03 0.337E-03 -.908E+01   0.477E-17 -.520E-17 0.241E+00   0.508E-06 0.338E-06 -.788E-02
   -.143E-03 -.849E-04 0.671E+01   -.562E-03 -.337E-03 -.698E+01   -.520E-17 0.000E+00 0.259E+00   -.228E-07 -.194E-07 -.862E-02
   -.245E-04 0.671E-05 0.192E+03   -.141E-03 -.779E-04 -.191E+03   -.173E-17 0.000E+00 -.666E+00   0.180E-07 0.107E-07 -.900E-02
   0.417E-04 0.237E-04 -.226E+03   0.176E-03 0.974E-04 0.224E+03   -.312E-16 0.000E+00 0.241E+01   0.838E-07 -.500E-07 -.267E-02
   -.116E+02 0.103E+00 -.407E+03   0.106E+02 -.146E+00 0.408E+03   0.201E+01 -.554E-02 -.239E+01   -.814E-02 0.431E-01 -.940E-02
   0.590E+01 0.100E+02 -.407E+03   -.542E+01 -.910E+01 0.408E+03   -.101E+01 -.173E+01 -.239E+01   0.414E-01 -.145E-01 -.940E-02
   0.572E+01 -.101E+02 -.407E+03   -.517E+01 0.925E+01 0.408E+03   -.998E+00 0.174E+01 -.239E+01   -.332E-01 -.286E-01 -.940E-02
   0.185E+02 -.201E+00 0.413E+03   -.172E+02 0.153E+00 -.414E+03   -.195E+01 0.128E-01 0.252E+01   0.697E-02 0.432E-01 -.847E-02
   -.943E+01 -.159E+02 0.413E+03   0.874E+01 0.148E+02 -.414E+03   0.987E+00 0.168E+01 0.252E+01   0.339E-01 -.276E-01 -.847E-02
   -.908E+01 0.161E+02 0.413E+03   0.847E+01 -.150E+02 -.414E+03   0.965E+00 -.170E+01 0.252E+01   -.409E-01 -.155E-01 -.847E-02
   0.800E-04 0.538E-04 -.252E+01   -.711E-14 0.178E-14 -.568E-13   -.222E-15 0.000E+00 0.261E+01   0.714E-06 0.218E-06 -.818E-01

 POSITION                                       TOTAL-FORCE (eV/Angst)
      3.45388      1.99410     11.72054         0.000000      0.000000     -0.015279
      6.90778      3.98821     11.72405         0.000000      0.000000     -0.020547
      0.00000      0.00000     10.50824         0.000000      0.000000     -0.277377
      0.00000      0.00000     12.93635         0.000000      0.000000      0.570996
      4.32819      0.00251     13.45138         0.978928     -0.004719     -1.295323
      1.29198      2.23274     13.45138        -0.493551     -0.845417     -1.295323
      4.74152      3.74706     13.45138        -0.485377      0.850136     -1.295323
      6.03348      5.97980      9.99321        -0.636139      0.006759      1.209392
      9.06969      3.74957      9.99321         0.323923      0.547533      1.209392
      5.62015      2.23525      9.99321         0.312216     -0.554292      1.209392
    total drift:                                0.000081      0.000054      0.001726

  FREE ENERGIE OF THE ION-ELECTRON SYSTEM (eV)
  free  energy   TOTEN  =       -36.64137658 eV

  energy  without entropy=      -36.64137658  energy(sigma->0) =      -36.64137658

[...]

 d Force = 0.3233391E+00[ 0.273E-01, 0.619E+00]  d Energy = 0.4207922E+01-0.388E+01
 d Force =-0.1489470E+03[-0.166E+03,-0.132E+03]  d Ewald  =-0.1743206E+04 0.159E+04

 Steepest descent step on ions:
 trial-energy change:   -4.207922  1 .order   -3.055592   -5.933298   -0.177885
  (g-gl).g = 0.593E+01      g.g   = 0.593E+01  gl.gl    = 0.000E+00
 g(Force)  = 0.668E+00   g(Stress)= 0.527E+01 ortho     = 0.000E+00
 gamma     =   0.00000
 trial     =   1.00000
 opt step  =   1.01393  (harmonic =   1.03091) maximal distance =0.05915731
 next E    =   -40.850541   (d E  =  -4.20916)

[...]

 d Force = 0.1756305E-03[ 0.547E-04, 0.297E-03]  d Energy =-0.2675031E-03 0.443E-03
 d Force =-0.2459993E+01[-0.246E+01,-0.246E+01]  d Ewald  =-0.2857144E+02 0.261E+02

[...]

 d Force = 0.2385153E+00[ 0.167E+00, 0.310E+00]  d Energy = 0.2945751E+00-0.561E-01
 d Force =-0.7931672E+02[-0.799E+02,-0.788E+02]  d Ewald  = 0.2358947E+03-0.315E+03

 Conjugate gradient step on ions:
 trial-energy change:   -0.294575  1 .order   -0.285180   -0.414452   -0.155908
  (g-gl).g = 0.473E+00      g.g   = 0.418E+00  gl.gl    = 0.593E+01
 g(Force)  = 0.311E+00   g(Stress)= 0.107E+00 ortho     =-0.555E-01
 gamma     =   0.07977
 trial     =   1.00279
 opt step  =   1.46167  (harmonic =   1.60749) maximal distance =0.08537631
 next E    =   -41.180178   (d E  =  -0.33115)

[...]

 d Force = 0.8895868E-01[ 0.418E-01, 0.136E+00]  d Energy = 0.1105920E+00-0.216E-01
 d Force =-0.4288065E+01[-0.427E+01,-0.431E+01]  d Ewald  = 0.3176995E+03-0.322E+03

 Conjugate gradient step on ions:
 trial-energy change:   -0.110592  1 .order   -0.110816   -0.249163    0.027530
  (g-gl).g = 0.112E+00      g.g   = 0.218E+00  gl.gl    = 0.418E+00
 g(Force)  = 0.974E-01   g(Stress)= 0.121E+00 ortho     = 0.358E-01
 gamma     =   0.26714
 trial     =   1.09456
 opt step  =   0.98566  (harmonic =   0.98566) maximal distance =0.04990243
 next E    =   -41.293786   (d E  =  -0.11219)

[...]

 d Force =-0.4543742E-02[-0.496E-02,-0.412E-02]  d Energy = 0.1328760E-02-0.587E-02
 d Force = 0.4165121E+00[ 0.417E+00, 0.416E+00]  d Ewald  =-0.3089534E+02 0.313E+02

[...]

 d Force = 0.5766078E-02[ 0.371E-03, 0.112E-01]  d Energy = 0.7030662E-02-0.126E-02
 d Force =-0.1274094E+02[-0.127E+02,-0.127E+02]  d Ewald  =-0.3140951E+02 0.187E+02

[...]

 d Force = 0.8671623E-02[ 0.647E-02, 0.109E-01]  d Energy = 0.8566280E-02 0.105E-03
 d Force = 0.8074207E+00[ 0.786E+00, 0.829E+00]  d Ewald  = 0.1248724E+02-0.117E+02

 Conjugate gradient step on ions:
 trial-energy change:   -0.008566  1 .order   -0.008728   -0.010950   -0.006506
  (g-gl).g = 0.656E-02      g.g   = 0.911E-02  gl.gl    = 0.589E-01
 g(Force)  = 0.899E-02   g(Stress)= 0.118E-03 ortho     = 0.890E-04
 gamma     =   0.11145
 trial     =   1.20028
 opt step  =   2.95738  (harmonic =   2.95738) maximal distance =0.02844190
 next E    =   -41.354852   (d E  =  -0.01349)

[...]

 d Force = 0.4420579E-02[-0.626E-03, 0.947E-02]  d Energy = 0.3683199E-02 0.737E-03
 d Force = 0.1107261E+01[ 0.106E+01, 0.115E+01]  d Ewald  = 0.1817928E+02-0.171E+02

[...]

 d Force = 0.1176687E-02[ 0.279E-03, 0.207E-02]  d Energy = 0.9283053E-03 0.248E-03
 d Force = 0.6784055E+01[ 0.679E+01, 0.677E+01]  d Ewald  =-0.2301284E+02 0.298E+02

 Conjugate gradient step on ions:
 trial-energy change:   -0.000928  1 .order   -0.001153   -0.002585    0.000280
  (g-gl).g = 0.220E-02      g.g   = 0.178E-02  gl.gl    = 0.911E-02
 g(Force)  = 0.142E-02   g(Stress)= 0.354E-03 ortho     =-0.461E-03
 gamma     =   0.24090
 trial     =   1.55170
 opt step  =   1.40029  (harmonic =   1.40029) maximal distance =0.00695711
 next E    =   -41.354779   (d E  =  -0.00117)

[...]

 d Force =-0.3768148E-04[-0.482E-04,-0.272E-04]  d Energy = 0.7580633E-04-0.113E-03
 d Force =-0.6628248E+00[-0.663E+00,-0.663E+00]  d Ewald  = 0.2249374E+01-0.291E+01

[...]

 d Force = 0.1906163E-03[-0.182E-03, 0.564E-03]  d Energy =-0.2061017E-02 0.225E-02
 d Force = 0.5482950E+01[ 0.547E+01, 0.550E+01]  d Ewald  = 0.5070664E+02-0.452E+02

 Steepest descent step on ions:
 trial-energy change:    0.002061  1 .order    0.000871   -0.003273    0.005015
  (g-gl).g = 0.244E-02      g.g   = 0.221E-02  gl.gl    = 0.178E-02
 g(Force)  = 0.381E-03   g(Stress)= 0.183E-02 ortho     =-0.384E-03
 gamma     =   0.00000
 trial     =   1.47833
 opt step  =   0.35252  (harmonic =   0.58375) maximal distance =0.00066055
 next E    =   -41.354990   (d E  =  -0.00037)

[...]

 eigenvalue-minimisations  :   976
 total energy-change (2. order) : 0.3430742E-03  (-0.7346477E-04)
 number of electron      62.9999996 magnetization       0.7068059
 augmentation part        2.3699293 magnetization       0.1730186

 Broyden mixing:
  rms(total) = 0.53748E-02    rms(broyden)= 0.53748E-02
  rms(prec ) = 0.60542E-02
  weight for this iteration     100.00

 eigenvalues of (default mixing * dielectric matrix)
  average eigenvalue GAMMA=   0.8914
  1.9009  0.2272  0.7188  0.7188

[...]

--------------------------------------- Iteration     15(   6)  ---------------------------------------

[...]

 eigenvalue-minimisations  :   672
 total energy-change (2. order) :-0.1252860E-04  (-0.1567203E-04)
 number of electron      62.9999996 magnetization       0.7068059
 augmentation part        2.3699293 magnetization       0.1730186

 Free energy of the ion-electron system (eV)
  alpha Z        PSCENC =        54.32191012
  Ewald energy   TEWEN  =      8996.57896129
  -Hartree energ DENC   =    -12102.55064772
  -exchange      EXHF   =         0.00000000
  -V(xc)+E(xc)   XCENC  =        20.58703258
  PAW double counting   =      2165.82760711    -2160.38039566
  entropy T*S    EENTRO =         0.00000000
  eigenvalues    EBANDS =      -482.07412163
  atomic energy  EATOM  =      3466.33490765
  Solvation  Ediel_sol  =         0.00000000
  free energy    TOTEN  =       -41.35474626 eV

  energy without entropy =      -41.35474626  energy(sigma->0) =      -41.35474626

 average (electrostatic) potential at core
  the test charge radii are     1.0452  1.1631  0.9587  1.0808
  (the norm of the test charge is              1.0000)
       1 -48.7887       2 -48.7996       3 -39.6795       4 -92.2237       5 -61.4224
       6 -61.4224       7 -61.4223       8 -61.2464       9 -61.2464      10 -61.2464

 E-fermi :  -2.3353     XC(G=0):  -3.4844     alpha+bet : -2.8001

[...]

 spin component 2

[...]

 k-point     5 :      -0.4000    0.2000    0.0000
  band No.  band energies     occupation
      1     -16.6898      1.00000
      2     -16.4333      1.00000
      3     -16.0154      1.00000
      4     -15.7212      1.00000
      5     -15.5980      1.00000
      6     -15.4257      1.00000
      7     -12.5030      1.00000
      8     -10.4054      1.00000
      9      -8.0987      1.00000
     10      -7.5530      1.00000
     11      -7.4275      1.00000
     12      -6.8775      1.00000
     13      -6.6251      1.00000
     14      -6.3662      1.00000
     15      -6.2955      1.00000
     16      -5.9471      1.00000
     17      -5.8563      1.00000
     18      -5.6267      1.00000
     19      -5.5462      1.00000
     20      -5.3208      1.00000
     21      -5.2230      1.00000
     22      -4.5850      1.00000
     23      -4.2381      1.00000
     24      -4.1150      1.00000
     25      -3.9330      1.00000
     26      -3.8112      1.00000
     27      -3.5055      1.00000
     28      -3.3677      1.00000
     29      -3.2888      1.00000
     30      -3.1957      1.00000
     31      -3.1789      1.00000
     32      -2.2461     -0.01124
     33      -1.7168      0.00000
     34      -1.7119      0.00000
     35      -1.4401      0.00000
     36      -1.0691      0.00000
     37      -0.6842      0.00000
     38      -0.0898      0.00000
     39       0.2342      0.00000
     40       1.1437      0.00000
     41       1.1607      0.00000
     42       1.2734      0.00000
     43       2.8330      0.00000
     44       2.9404      0.00000
     45       2.9479      0.00000
     46       3.0260      0.00000
     47       3.3974      0.00000
     48       3.8948      0.00000

[...]

 soft charge-density along one line, spin component           2
         0         1         2         3         4         5         6         7         8         9
 total charge-density along one line

------------------------ aborting loop because EDIFF is reached ----------------------------------------

[...]

  FORCE on cell =-STRESS in cart. coord.  units (eV):
  Direction    XX          YY          ZZ          XY          YZ          ZX
  Alpha Z    54.32191    54.32191    54.32191
  Ewald   11061.35530 11061.35299-13126.13225    -0.00237    -0.00056    -0.00101
  Hartree 11654.57004 11654.57109-11208.61833    -0.00042     0.00007     0.00012
  E(xc)    -259.63810  -259.63809  -259.64103     0.00001     0.00000     0.00001
  Local  -23476.20805-23476.20800 23534.89858     0.00233     0.00030     0.00056
  n-local   258.66987   259.72473   265.48449     0.24028     0.42092     0.44234
  augment    60.64729    60.64746    57.05513    -0.00002     0.00005     0.00006
  Kinetic   649.37411   641.54495   682.20008    -4.55450     1.01303     0.20652
  Fock        0.00000     0.00000     0.00000     0.00000     0.00000     0.00000
  Total      -0.29530    -0.29530    -0.43142     0.00000    -0.00000     0.00000
  in kB      -0.66290    -0.66290    -0.96848     0.00000    -0.00000     0.00000

 VOLUME and BASIS-vectors are now :
  energy-cutoff  :      520.00
  volume of cell :      713.71
      direct lattice vectors                 reciprocal lattice vectors
     6.229845494 -0.000000110 -0.000000000     0.160517623 -0.092674891  0.000000000
     3.114922496  5.395204151 -0.000000000     0.000000003  0.185349796 -0.000000000
    -0.000000000  0.000000000 21.234254413     0.000000000 -0.000000000  0.047093719

  length of vectors
     6.229845494  6.229845102 21.234254413     0.185349785  0.185349796  0.047093719

 FORCES acting on ions
    electron-ion (+dipol)            ewald-force                    non-local-force                 convergence-correction
   -.163E-04 -.905E-05 0.129E+02   0.729E-03 0.438E-03 -.131E+02   -.122E-19 0.139E-16 0.173E+00   0.562E-06 0.845E-06 -.107E-01
   0.693E-05 0.306E-04 0.128E+02   -.717E-03 -.432E-03 -.130E+02   -.139E-16 0.278E-16 0.170E+00   -.155E-06 0.419E-06 -.807E-02
   -.428E-04 -.165E-04 0.243E+03   -.169E-03 -.948E-04 -.242E+03   -.688E-17 -.695E-17 -.862E+00   0.702E-07 0.455E-07 0.113E-01
   0.510E-04 0.229E-04 -.317E+03   0.230E-03 0.128E-03 0.318E+03   0.308E-19 -.747E-20 -.436E+00   -.101E-07 0.204E-07 -.299E-01
   -.242E+02 -.755E-01 -.493E+03   0.225E+02 -.870E-03 0.496E+03   0.174E+01 -.114E-03 -.240E+01   -.184E-01 0.750E-01 -.595E-01
   0.120E+02 0.210E+02 -.493E+03   -.112E+02 -.195E+02 0.496E+03   -.872E+00 -.151E+01 -.240E+01   0.742E-01 -.216E-01 -.595E-01
   0.122E+02 -.209E+02 -.493E+03   -.112E+02 0.195E+02 0.496E+03   -.872E+00 0.151E+01 -.240E+01   -.558E-01 -.535E-01 -.595E-01
   0.339E+02 -.969E-01 0.510E+03   -.321E+02 0.208E-01 -.512E+03   -.184E+01 0.156E-02 0.241E+01   0.144E-01 0.754E-01 0.462E-01
   -.170E+02 -.293E+02 0.510E+03   0.161E+02 0.278E+02 -.512E+03   0.923E+00 0.160E+01 0.241E+01   0.580E-01 -.502E-01 0.462E-01
   -.169E+02 0.294E+02 0.510E+03   0.160E+02 -.278E+02 -.512E+03   0.921E+00 -.160E+01 0.241E+01   -.725E-01 -.252E-01 0.462E-01
   0.638E-04 0.118E-03 0.992E+00   -.107E-13 0.711E-14 -.341E-12   0.222E-15 -.222E-15 -.939E+00   0.653E-06 0.147E-05 -.773E-01

 POSITION                                       TOTAL-FORCE (eV/Angst)
      3.11492      1.79840     10.62429         0.000000     -0.000000     -0.020338
      6.22985      3.59680     10.62447         0.000000     -0.000000     -0.021117
     -0.00000      0.00000      9.51753         0.000000     -0.000000      0.097495
     -0.00000      0.00000     11.88422         0.000000     -0.000000      0.022983
      3.82767      0.00008     12.07009         0.021932     -0.000917     -0.007890
      1.20116      2.08031     12.07009        -0.011760     -0.018535     -0.007890
      4.31595      3.31482     12.07009        -0.010172      0.019452     -0.007890
      5.53268      5.39504      9.16095        -0.011212      0.000211     -0.018451
      8.13574      3.30144      9.16095         0.005789      0.009604     -0.018451
      5.02110      2.09392      9.16095         0.005423     -0.009815     -0.018451
    total drift:                                0.000064      0.000119     -0.024067

  FREE ENERGIE OF THE ION-ELECTRON SYSTEM (eV)
  free  energy   TOTEN  =       -41.35474626 eV

  energy  without entropy=      -41.35474626  energy(sigma->0) =      -41.35474626

 d Force =-0.7562278E-04[-0.290E-03, 0.139E-03]  d Energy = 0.2190881E-02-0.227E-02
 d Force =-0.4161335E+01[-0.417E+01,-0.415E+01]  d Ewald  =-0.3857048E+02 0.344E+02

 reached required accuracy - stopping structural energy minimisation

 total charge

[...]

 magnetization (x)

# of ion       s       p       d       tot
    1       -0.000   0.001   0.140   0.142
    2       -0.000   0.001   0.141   0.142
    3        0.011   0.009   0.001   0.020
    4        0.030   0.005   0.000   0.035
    5        0.005   0.059   0.000   0.064
    6        0.003   0.040   0.001   0.044
    7        0.004   0.056   0.001   0.061
    8        0.003   0.011   0.001   0.015
    9        0.003   0.007   0.001   0.010
   10        0.003   0.010   0.001   0.013
tot          0.061   0.200   0.285   0.547

 BZINTS: Fermi energy: -2.335318; 63.000000 electrons
         Band energy:-482.074122;  BLOECHL correction: -0.017658