 vasp.5.4.4.18Apr17-6-g9f103f2a35 (build May  1 2020 15:48:39) complex
 executed on             LinuxGNU date 2020.07.02  09:25:28

 INCAR:
 POTCAR:   PAW_PBE Cr 06Sep2000
 POTCAR:   PAW_PBE Ge 05Jan2001
 POTCAR:    PAW_PBE S 17Jan2003

 POTCAR:   PAW_PBE Cr 06Sep2000
   VRHFIN =Cr : d5 s1

   TITEL  = PAW_PBE Cr 06Sep2000
   POMASS =   51.996; ZVAL   =    6.000    mass and valenz
   ENMAX  =  227.082; ENMIN  =  170.311 eV
   QCUT   =   -4.085; QGAM   =    8.171    optimization parameters

   Description
     l     E      TYP  RCUT    TYP  RCUT
     2   .000     23  2.500
     2   .000     23  2.500
     0   .000     23  2.500
     0   .000     23  2.500
     1  -.400     23  2.500
     1  2.000     23  2.500
     3   .000      7   .000

 POTCAR:   PAW_PBE Ge 05Jan2001
   VRHFIN =Ge: s2p2

   TITEL  = PAW_PBE Ge 05Jan2001
   POMASS =   72.610; ZVAL   =    4.000    mass and valenz
   ENMAX  =  173.807; ENMIN  =  130.355 eV
   QCUT   =   -3.574; QGAM   =    7.148    optimization parameters

[...]

 POTCAR:    PAW_PBE S 17Jan2003
   VRHFIN =S : s2p4

   TITEL  = PAW_PBE S 17Jan2003
   POMASS =   32.066; ZVAL   =    6.000    mass and valenz
   ENMAX  =  280.000; ENMIN  =  194.016 eV
   QCUT   =   -4.360; QGAM   =    8.721    optimization parameters

   Description
     l     E      TYP  RCUT    TYP  RCUT
     0   .000     23  1.900
     0   .000     23  1.900
     1   .000     23  1.900
     1   .000     23  1.900
     2   .000     23  1.900

 Optimization of the real space projectors (new method)

 maximal supplied QI-value         = 15.12
 optimisation between [QCUT,QGAM] = [ 11.64, 23.28] = [ 37.95,151.78] Ry
 Optimized for a Real-space Cutoff    1.49 Angstroem

   l    n(q)    QCUT    max X(q) W(low)/X(q) W(high)/X(q)  e(spline)
   2      9    11.641     4.777    0.25E-04    0.21E-05    0.63E-07
   2      9    11.641    31.132    0.13E-03    0.22E-03    0.64E-06
   0     10    11.641    20.416    0.11E-04    0.74E-05    0.19E-07
   0     10    11.641    45.408    0.10E-03    0.85E-04    0.30E-06
   1     10    11.641     7.848    0.22E-04    0.23E-04    0.56E-07
   1     10    11.641     9.895    0.85E-04    0.54E-04    0.16E-06
 Optimization of the real space projectors (new method)

[...]

   l    n(q)    QCUT    max X(q) W(low)/X(q) W(high)/X(q)  e(spline)
   0      9    11.539     8.651    0.22E-04    0.16E-04    0.10E-07
   0      9    11.539    33.192    0.11E-03    0.16E-03    0.65E-07
   1      8    11.539     5.899    0.37E-04    0.28E-04    0.43E-07
   1      8    11.539    27.289    0.22E-03    0.28E-04    0.14E-06
   2      8    11.539     4.673    0.11E-03    0.18E-03    0.58E-07
 Optimization of the real space projectors (new method)

 maximal supplied QI-value         = 19.84
 optimisation between [QCUT,QGAM] = [ 11.51, 23.22] = [ 37.09,150.92] Ry
 Optimized for a Real-space Cutoff    1.21 Angstroem

   l    n(q)    QCUT    max X(q) W(low)/X(q) W(high)/X(q)  e(spline)
   0      8    11.508     5.487    0.18E-04    0.22E-05    0.47E-08
   0      8    11.508    85.627    0.96E-04    0.18E-03    0.54E-07
   1      8    11.508     3.530    0.17E-04    0.28E-04    0.21E-07
   1      8    11.508    42.714    0.18E-03    0.63E-04    0.92E-07

 PAW_PBE Cr 06Sep2000                   :
 PAW_PBE Ge 05Jan2001                   :
  PAW_PBE S 17Jan2003                   :

 POSCAR: Cr2 Ge2 S6
  positions in direct lattice
  velocities in cartesian coordinates
 exchange correlation table for  LEXCH =       42
   RHO(1)=    0.500       N(1)  =     2000
   RHO(2)=  100.500       N(2)  =     4000

 ion  position               nearest neighbor table
   1  0.333  0.333  0.500-   6 2.78   5 2.78   7 2.78   8 2.78  10 2.78   9 2.78
   2  0.667  0.667  0.500-   9 2.78   8 2.78  10 2.78   5 2.78   7 2.78   6 2.78
   3  0.000  0.000  0.448-   4 2.43   8 2.63  10 2.63   9 2.63
   4  0.000  0.000  0.552-   3 2.43   5 2.63   7 2.63   6 2.63
   5  0.626  0.000  0.574-   4 2.63   1 2.78   2 2.78
   6  0.000  0.373  0.574-   4 2.63   1 2.78   2 2.78
   7  0.373  0.626  0.574-   4 2.63   1 2.78   2 2.78
   8  0.374  1.000  0.426-   3 2.63   2 2.78   1 2.78
   9  1.000  0.627  0.426-   3 2.63   2 2.78   1 2.78
  10  0.627  0.374  0.426-   3 2.63   2 2.78   1 2.78

  LATTYP: Found a hexagonal cell.
 ALAT       =     6.9077769333
 C/A-ratio  =     3.3939410937

  Lattice vectors:

 A1 = (   3.4538890000,  -5.9823100000,   0.0000000000)
 A2 = (  -6.9077770000,   0.0000000000,   0.0000000000)
 A3 = (   0.0000000000,   0.0000000000, -23.4445880000)

Analysis of symmetry for initial positions (statically):
 Subroutine PRICEL returns:
 Original cell was already a primitive cell.

 Routine SETGRP: Setting up the symmetry group for a
 hexagonal supercell.

 Subroutine GETGRP returns: Found  6 space group operations
 (whereof  6 operations were pure point group operations)
 out of a pool of 24 trial point group operations.

The static configuration has the point symmetry S_6 .

Analysis of symmetry for dynamics (positions and initial velocities):
 Subroutine PRICEL returns:
 Original cell was already a primitive cell.

[...]

The dynamic configuration has the point symmetry S_6 .

Analysis of constrained symmetry for selective dynamics:
 Subroutine PRICEL returns:
 Original cell was already a primitive cell.

[...]

The constrained configuration has the point symmetry S_6 .

Analysis of structural, dynamic, and magnetic symmetry:
 Subroutine PRICEL returns:
 Original cell was already a primitive cell.

 Routine SETGRP: Setting up the symmetry group for a
 hexagonal supercell.

 Subroutine GETGRP returns: Found  6 space group operations
 (whereof  6 operations were pure point group operations)
 out of a pool of 24 trial point group operations.

The magnetic configuration has the point symmetry S_6 .

 Subroutine INISYM returns: Found  6 space group operations
 (whereof  6 operations are pure point group operations),
 and found     1 'primitive' translations

 KPOINTS: Kpoints from vasprun.xml

Automatic generation of k-mesh.
Space group operators:
 irot       det(A)        alpha          n_x          n_y          n_z        tau_x        tau_y        tau_z
    1     1.000000     0.000000     1.000000     0.000000     0.000000     0.000000     0.000000     0.000000
    2    -1.000000     0.000000     1.000000     0.000000     0.000000     0.000000     0.000000     0.000000
    3     1.000000   120.000000     0.000000     0.000000     1.000000     0.000000     0.000000     0.000000
    4    -1.000000   120.000000     0.000000     0.000000     1.000000     0.000000     0.000000     0.000000
    5     1.000000   120.000000     0.000000     0.000000    -1.000000     0.000000     0.000000     0.000000
    6    -1.000000   120.000000     0.000000     0.000000    -1.000000     0.000000     0.000000     0.000000

 Subroutine IBZKPT returns following result:

 Found      5 irreducible k-points:

 Following reciprocal coordinates:
            Coordinates               Weight
  0.000000  0.000000  0.000000      1.000000
  0.200000  0.000000  0.000000      6.000000
  0.400000  0.000000  0.000000      6.000000
  0.400000  0.200000  0.000000      6.000000
 -0.400000  0.200000  0.000000      6.000000

 Following cartesian coordinates:
            Coordinates               Weight
  0.000000  0.000000  0.000000      1.000000
  0.028953 -0.016716  0.000000      6.000000
  0.057906 -0.033432  0.000000      6.000000
  0.057906  0.000000  0.000000      6.000000
 -0.057906  0.066864  0.000000      6.000000

 TETIRR: Found     15 inequivalent tetrahedra from      150

 SYSTEM =  unknown system
 POSCAR =  Cr2 Ge2 S6

 Startparameter for this run:
   NWRITE =      2    write-flag & timer
   PREC   = accura    normal or accurate (medium, high low for compatibility)
   ISTART =      0    job   : 0-new  1-cont  2-samecut
   ICHARG =      2    charge: 1-file 2-atom 10-const
   ISPIN  =      2    spin polarized calculation?
   LNONCOLLINEAR =      F non collinear calculations
   LSORBIT =      F    spin-orbit coupling
   INIWAV =      1    electr: 0-lowe 1-rand  2-diag
   LASPH  =      F    aspherical Exc in radial PAW
   METAGGA=      F    non-selfconsistent MetaGGA calc.

 Electronic Relaxation 1
   ENCUT  =  520.0 eV  38.22 Ry    6.18 a.u.  12.84 12.84 43.59*2*pi/ulx,y,z
   ENINI  =  520.0     initial cutoff
   ENAUG  =  402.1 eV  augmentation charge cutoff
   NELM   =    400;   NELMIN=  2; NELMDL=  0     # of ELM steps
   EDIFF  = 0.1E-03   stopping-criterion for ELM
   LREAL  =      T    real-space projection
   NLSPLINE    = F    spline interpolate recip. space projectors
   LCOMPAT=      F    compatible to vasp.4.4
   GGA_COMPAT  = T    GGA compatible to vasp.4.4-vasp.4.6
   LMAXPAW     = -100 max onsite density
   LMAXMIX     =    2 max onsite mixed and CHGCAR
   VOSKOWN=      0    Vosko Wilk Nusair interpolation
   ROPT   =   -0.00025  -0.00025  -0.00025
 Ionic relaxation
   EDIFFG = 0.1E-02   stopping-criterion for IOM
   NSW    =     99    number of steps for IOM
   NBLOCK =      1;   KBLOCK =     99    inner block; outer block
   IBRION =      2    ionic relax: 0-MD 1-quasi-New 2-CG
   NFREE  =      1    steps in history (QN), initial steepest desc. (CG)
   ISIF   =      3    stress and relaxation
   IWAVPR =     11    prediction:  0-non 1-charg 2-wave 3-comb
   ISYM   =      2    0-nonsym 1-usesym 2-fastsym
   LCORR  =      T    Harris-Foulkes like correction to forces

   POTIM  = 0.5000    time-step for ionic-motion
   TEIN   =    0.0    initial temperature
   TEBEG  =    0.0;   TEEND  =   0.0 temperature during run
   SMASS  =  -3.00    Nose mass-parameter (am)
   estimated Nose-frequenzy (Omega)   =  0.10E-29 period in steps =****** mass=  -0.109E-26a.u.
   SCALEE = 1.0000    scale energy and forces
   NPACO  =    256;   APACO  = 16.0  distance and # of slots for P.C.
   PSTRESS=    0.0 pullay stress

  Mass of Ions in am
   POMASS =  52.00 72.61 32.07
  Ionic Valenz
   ZVAL   =   6.00  4.00  6.00
  Atomic Wigner-Seitz radii
  virtual crystal weights
   VCA    =   1.00  1.00  1.00
   NELECT =      56.0000    total number of electrons
   NUPDOWN=      -1.0000    fix difference up-down

 DOS related values:
   EMIN   =  10.00;   EMAX   =-10.00  energy-range for DOS
   EFERMI =   0.00
   ISMEAR =    -5;   SIGMA  =   0.05  broadening in eV -4-tet -1-fermi 0-gaus

 Electronic relaxation 2 (details)
   IALGO  =     38    algorithm
   LDIAG  =      T    sub-space diagonalisation (order eigenvalues)
   LSUBROT=      F    optimize rotation matrix (better conditioning)
   TURBO    =      0    0=normal 1=particle mesh
   IRESTART =      0    0=no restart 2=restart with 2 vectors
   NREBOOT  =      0    no. of reboots
   NMIN     =      0    reboot dimension
   EREF     =   0.00    reference energy to select bands
   IMIX   =      4    mixing-type and parameters
     AMIX     =   0.40;   BMIX     =  1.00
     AMIX_MAG =   1.60;   BMIX_MAG =  1.00
     AMIN     =   0.01
     WC   =   100.;   INIMIX=   1;  MIXPRE=   1;  MAXMIX= -45

 Intra band minimization:
   WEIMIN = 0.0010     energy-eigenvalue tresh-hold
   EBREAK =  0.63E-06  absolut break condition
   DEPER  =   0.30     relativ break condition

[...]
  Ewald    7419.63051  7419.62857 -8853.36149    -0.00107    -0.00038    -0.00069
  Hartree  7869.87094  7869.87129 -7615.11686    -0.00009     0.00004     0.00006
  E(xc)    -204.66377  -204.66380  -204.21058     0.00004     0.00000     0.00001
  Local  -16135.97177-16135.97112 15597.90414     0.00092     0.00022     0.00042
  n-local   439.39954   441.05883   448.08208     0.78436     0.36702     0.39774
  augment   -41.20927   -41.20916   -43.89502    -0.00004     0.00004     0.00001
  Kinetic   603.19916   602.52290   634.13808    -0.81821     0.74319     0.84629
  Fock        0.00000     0.00000     0.00000     0.00000     0.00000     0.00000
  Total     -27.04560   -27.04559   -14.25166     0.00000    -0.00000     0.00000
  in kB     -44.72572   -44.72571   -23.56819     0.00000    -0.00000     0.00000

 VOLUME and BASIS-vectors are now :
  energy-cutoff  :      520.00
  volume of cell :      968.84
      direct lattice vectors                 reciprocal lattice vectors
     6.907777000 -0.000000000  0.000000000     0.144764372 -0.083579742  0.000000000
     3.453888000  5.982310000  0.000000000     0.000000000  0.167159509 -0.000000000
     0.000000000  0.000000000 23.444588000    -0.000000000  0.000000000  0.042653767

[...]

 FORCES acting on ions
    electron-ion (+dipol)            ewald-force                    non-local-force                 convergence-correction
   -.724E-04 -.463E-04 0.655E+00   0.306E-03 0.183E-03 -.640E+00   -.260E-17 -.173E-17 -.656E-02   0.147E-05 0.848E-06 -.171E-04
   0.724E-04 0.463E-04 -.655E+00   -.306E-03 -.183E-03 0.640E+00   0.260E-17 0.173E-17 0.656E-02   -.147E-05 -.848E-06 0.171E-04
   -.245E-04 -.172E-04 0.160E+03   -.141E-03 -.779E-04 -.158E+03   0.173E-17 0.173E-17 -.333E+01   -.332E-06 -.172E-06 -.717E-04
   0.245E-04 0.172E-04 -.160E+03   0.141E-03 0.779E-04 0.158E+03   0.694E-17 -.173E-17 0.333E+01   0.332E-06 0.172E-06 0.717E-04
   -.745E+01 0.160E+00 -.338E+03   0.444E+01 -.152E+00 0.342E+03   0.396E+01 -.138E-01 -.566E+01   -.173E-02 -.132E-04 0.203E-02
   0.386E+01 0.637E+01 -.338E+03   -.235E+01 -.377E+01 0.342E+03   -.199E+01 -.342E+01 -.566E+01   0.853E-03 0.151E-02 0.204E-02
   0.358E+01 -.653E+01 -.338E+03   -.209E+01 0.392E+01 0.342E+03   -.197E+01 0.343E+01 -.566E+01   0.878E-03 -.149E-02 0.203E-02
   0.745E+01 -.160E+00 0.338E+03   -.444E+01 0.152E+00 -.342E+03   -.396E+01 0.138E-01 0.566E+01   0.173E-02 0.132E-04 -.203E-02
   -.386E+01 -.637E+01 0.338E+03   0.235E+01 0.377E+01 -.342E+03   0.199E+01 0.342E+01 0.566E+01   -.853E-03 -.151E-02 -.204E-02
   -.358E+01 0.653E+01 0.338E+03   0.209E+01 -.392E+01 -.342E+03   0.197E+01 -.343E+01 0.566E+01   -.878E-03 0.149E-02 -.203E-02
   -.130E-09 -.220E-09 -.136E-09   0.155E-13 0.799E-14 -.171E-12   0.000E+00 -.444E-15 0.178E-14   0.199E-13 -.195E-13 -.813E-12

 POSITION                                       TOTAL-FORCE (eV/Angst)
      3.45388      1.99410     11.72054         0.000000      0.000000      0.009006
      6.90778      3.98821     11.72405         0.000000      0.000000     -0.009006
      0.00000      0.00000     10.50824         0.000000      0.000000     -1.040419
      0.00000      0.00000     12.93635         0.000000      0.000000      1.040419
      4.32819      0.00251     13.45138         0.941229     -0.004587     -1.609212
      1.29198      2.23274     13.45138        -0.474587     -0.812834     -1.609212
      4.74152      3.74706     13.45138        -0.466642      0.817422     -1.609212
      6.03348      5.97980      9.99321        -0.941229      0.004587      1.609212
      9.06969      3.74957      9.99321         0.474587      0.812834      1.609212
      5.62015      2.23525      9.99321         0.466642     -0.817422      1.609212
    total drift:                               -0.000000     -0.000000     -0.000000

  FREE ENERGIE OF THE ION-ELECTRON SYSTEM (eV)
  free  energy   TOTEN  =       -47.74078953 eV

  energy  without entropy=      -47.74078953  energy(sigma->0) =      -47.74078953

[...]

 d Force = 0.3935091E+00[-0.134E+00, 0.921E+00]  d Energy = 0.5326147E+01-0.493E+01
 d Force =-0.1730907E+03[-0.199E+03,-0.148E+03]  d Ewald  =-0.1817818E+04 0.164E+04

 Steepest descent step on ions:
 trial-energy change:   -5.326147  1 .order   -3.906936   -9.043414    1.229543
  (g-gl).g = 0.904E+01      g.g   = 0.904E+01  gl.gl    = 0.000E+00
 g(Force)  = 0.101E+01   g(Stress)= 0.804E+01 ortho     = 0.000E+00
 gamma     =   0.00000
 trial     =   1.00000
 opt step  =   0.93249  (harmonic =   0.88031) maximal distance =0.07239185
 next E    =   -53.108001   (d E  =  -5.36721)

[...]

 d Force = 0.5155268E-02[-0.279E-04, 0.103E-01]  d Energy = 0.4437835E-01-0.392E-01
 d Force = 0.1431931E+02[ 0.142E+02, 0.145E+02]  d Ewald  = 0.1484181E+03-0.134E+03

[...]

 d Force = 0.1731908E-01[ 0.134E-01, 0.212E-01]  d Energy = 0.2263839E-01-0.532E-02
 d Force =-0.1815222E+02[-0.182E+02,-0.181E+02]  d Ewald  =-0.1044345E+03 0.863E+02

 Conjugate gradient step on ions:
 trial-energy change:   -0.022638  1 .order   -0.023573   -0.027499   -0.019647
  (g-gl).g = 0.634E-02      g.g   = 0.279E-01  gl.gl    = 0.904E+01
 g(Force)  = 0.215E-01   g(Stress)= 0.635E-02 ortho     = 0.215E-01
 gamma     =   0.00070
 trial     =   0.98650
 opt step  =   3.45500  (harmonic =   3.45500) maximal distance =0.03898179
 next E    =   -53.159469   (d E  =  -0.04815)

[...]

 d Force = 0.1238158E-01[-0.885E-02, 0.336E-01]  d Energy = 0.2122990E-01-0.885E-02
 d Force =-0.4646488E+02[-0.470E+02,-0.460E+02]  d Ewald  =-0.2652367E+03 0.219E+03

[...]

 d Force = 0.8781691E-02[ 0.828E-02, 0.928E-02]  d Energy = 0.1059683E-01-0.182E-02
 d Force =-0.3289596E+02[-0.329E+02,-0.329E+02]  d Ewald  =-0.1345023E+03 0.102E+03

 Conjugate gradient step on ions:
 trial-energy change:   -0.010597  1 .order   -0.013772   -0.016391   -0.011154
  (g-gl).g = 0.112E-01      g.g   = 0.111E-01  gl.gl    = 0.279E-01
 g(Force)  = 0.770E-02   g(Stress)= 0.341E-02 ortho     =-0.104E-03
 gamma     =   0.40250
 trial     =   1.48020
 opt step  =   4.63295  (harmonic =   4.63295) maximal distance =0.03722199
 next E    =   -53.180834   (d E  =  -0.02565)

[...]

 d Force = 0.1600702E-01[ 0.142E-01, 0.178E-01]  d Energy =-0.8339736E-02 0.243E-01
 d Force =-0.7094409E+02[-0.711E+02,-0.708E+02]  d Ewald  =-0.2881655E+03 0.217E+03

[...]

 d Force =-0.6585525E-02[-0.690E-02,-0.627E-02]  d Energy = 0.5865586E-02-0.125E-01
 d Force = 0.3138951E+02[ 0.314E+02, 0.314E+02]  d Ewald  = 0.1306239E+03-0.992E+02

[...]

 d Force = 0.2449701E-02[-0.295E-03, 0.519E-02]  d Energy = 0.7498494E-02-0.505E-02
 d Force =-0.2350583E+02[-0.234E+02,-0.236E+02]  d Ewald  = 0.1838356E+03-0.207E+03

 Steepest descent step on ions:
 trial-energy change:   -0.007498  1 .order   -0.008059   -0.022496    0.006378
  (g-gl).g = 0.129E-01      g.g   = 0.123E-01  gl.gl    = 0.111E-01
 g(Force)  = 0.288E-02   g(Stress)= 0.945E-02 ortho     =-0.250E-02
 gamma     =   0.00000
 trial     =   1.82449
 opt step  =   1.38247  (harmonic =   1.42146) maximal distance =0.00658367
 next E    =   -53.171585   (d E  =  -0.00828)

[...]

 d Force =-0.1305676E-03[-0.336E-03, 0.745E-04]  d Energy = 0.2856278E-03-0.416E-03
 d Force = 0.5747222E+01[ 0.576E+01, 0.574E+01]  d Ewald  =-0.4429481E+02 0.500E+02

[...]

 d Force = 0.1263553E-02[ 0.783E-03, 0.174E-02]  d Energy = 0.1154222E-02 0.109E-03
 d Force =-0.7760727E+01[-0.775E+01,-0.777E+01]  d Ewald  = 0.1064611E+02-0.184E+02

 Conjugate gradient step on ions:
 trial-energy change:   -0.001154  1 .order   -0.001621   -0.002273   -0.000969
  (g-gl).g = 0.189E-02      g.g   = 0.139E-02  gl.gl    = 0.123E-01
 g(Force)  = 0.887E-03   g(Stress)= 0.500E-03 ortho     =-0.507E-03
 gamma     =   0.15359
 trial     =   1.73609
 opt step  =   3.02585  (harmonic =   3.02585) maximal distance =0.00787197
 next E    =   -53.173070   (d E  =  -0.00198)

[...]

 eigenvalue-minimisations  :   920
 total energy-change (2. order) :-0.9068791E-04  (-0.1307426E-01)
 number of electron      56.0000007 magnetization       6.0000003
 augmentation part       -1.0432169 magnetization       4.0629005

[...]

 Broyden mixing:
  rms(total) = 0.30537E-02    rms(broyden)= 0.30537E-02
  rms(prec ) = 0.34409E-02
  weight for this iteration     100.00

 eigenvalues of (default mixing * dielectric matrix)
  average eigenvalue GAMMA=   1.0459
  1.7457  0.8987  0.4932

[...]

--------------------------------------- Iteration     12(   5)  ---------------------------------------

[...]

 eigenvalue-minimisations  :   520
 total energy-change (2. order) : 0.1255760E-04  (-0.1377376E-04)
 number of electron      56.0000007 magnetization       6.0000003
 augmentation part       -1.0506874 magnetization       4.0586743

 Free energy of the ion-electron system (eV)
  alpha Z        PSCENC =        29.92426974
  Ewald energy   TEWEN  =      8158.94295623
  -Hartree energ DENC   =    -10326.67754871
  -exchange      EXHF   =         0.00000000
  -V(xc)+E(xc)   XCENC  =        21.24276734
  PAW double counting   =      1249.13225271    -1158.20287596
  entropy T*S    EENTRO =         0.00000000
  eigenvalues    EBANDS =      -462.61694638
  atomic energy  EATOM  =      2435.08307139
  Solvation  Ediel_sol  =         0.00000000
  free energy    TOTEN  =       -53.17205363 eV

  energy without entropy =      -53.17205363  energy(sigma->0) =      -53.17205363

 average (electrostatic) potential at core
  the test charge radii are     1.1394  1.1631  0.9698
  (the norm of the test charge is              1.0000)
       1 -51.6642       2 -51.6642       3 -40.0357       4 -40.0357       5 -94.3510
       6 -94.3509       7 -94.3509       8 -94.3510       9 -94.3509      10 -94.3509

 E-fermi :  -3.2772     XC(G=0):  -3.3937     alpha+bet : -2.8116

[...]

 spin component 2

[...]

 k-point     5 :      -0.4000    0.2000    0.0000
  band No.  band energies     occupation
      1     -16.6462      1.00000
      2     -16.1211      1.00000
      3     -15.9366      1.00000
      4     -15.7647      1.00000
      5     -15.5725      1.00000
      6     -15.4325      1.00000
      7     -11.5431      1.00000
      8     -10.0767      1.00000
      9      -7.9342      1.00000
     10      -7.5151      1.00000
     11      -7.3932      1.00000
     12      -6.9588      1.00000
     13      -6.8212      1.00000
     14      -6.4041      1.00000
     15      -6.1061      1.00000
     16      -5.8699      1.00000
     17      -5.7886      1.00000
     18      -5.6754      1.00000
     19      -5.6349      1.00000
     20      -5.3829      1.00000
     21      -5.2584      1.00000
     22      -4.6906      1.00000
     23      -4.5533      1.00000
     24      -4.4843      1.00000
     25      -3.8807      1.00000
     26      -2.5552      0.00000
     27      -1.7290      0.00000
     28      -1.7081      0.00000
     29      -1.4510      0.00000
     30      -1.1071      0.00000
     31      -0.9433      0.00000
     32      -0.9128      0.00000
     33      -0.5251      0.00000
     34      -0.5063      0.00000
     35      -0.1633      0.00000
     36      -0.1375      0.00000
     37       0.5761      0.00000
     38       0.8951      0.00000
     39       1.1264      0.00000
     40       1.9510      0.00000

[...]

 soft charge-density along one line, spin component           2
         0         1         2         3         4         5         6         7         8         9
 total charge-density along one line

------------------------ aborting loop because EDIFF is reached ----------------------------------------

[...]

  FORCE on cell =-STRESS in cart. coord.  units (eV):
  Direction    XX          YY          ZZ          XY          YZ          ZX
  Alpha Z    29.92427    29.92427    29.92427
  Ewald    9794.07754  9794.07528-11429.21169    -0.00123    -0.00041    -0.00074
  Hartree 10136.56924 10136.56958 -9946.29543    -0.00009     0.00003     0.00005
  E(xc)    -211.87382  -211.87382  -211.36155     0.00001     0.00000     0.00001
  Local  -20796.40337-20796.40275 20475.28632     0.00092     0.00021     0.00038
  n-local   458.16935   460.03311   462.12646     0.89340     0.55751     0.52642
  augment   -41.53291   -41.53287   -44.84879     0.00001     0.00002     0.00002
  Kinetic   632.38750   627.63896   664.51560    -3.36347     1.17666     1.13760
  Fock        0.00000     0.00000     0.00000     0.00000     0.00000     0.00000
  Total      -0.12522    -0.12522     0.13519     0.00000    -0.00000     0.00000
  in kB      -0.27903    -0.27903     0.30124     0.00000    -0.00000     0.00000

 VOLUME and BASIS-vectors are now :
  energy-cutoff  :      520.00
  volume of cell :      719.01
      direct lattice vectors                 reciprocal lattice vectors
     6.062662190 -0.000000008  0.000000000     0.164944041 -0.095230481 -0.000000000
     3.031330785  5.250419235  0.000000000     0.000000000  0.190460981 -0.000000000
     0.000000000  0.000000000 22.588010072    -0.000000000 -0.000000000  0.044271275

  length of vectors
     6.062662190  6.062661831 22.588010072     0.190460970  0.190460981  0.044271275

 FORCES acting on ions
    electron-ion (+dipol)            ewald-force                    non-local-force                 convergence-correction
   -.104E-03 -.573E-04 0.469E+00   0.390E-03 0.231E-03 -.471E+00   -.693E-17 0.139E-16 0.117E-01   -.225E-07 0.994E-09 0.530E-04
   0.104E-03 0.573E-04 -.469E+00   -.390E-03 -.231E-03 0.471E+00   -.930E-20 -.104E-16 -.117E-01   0.225E-07 -.994E-09 -.530E-04
   -.299E-04 -.243E-04 0.221E+03   -.197E-03 -.110E-03 -.217E+03   0.684E-19 -.178E-16 -.429E+01   -.143E-06 -.856E-07 -.113E-01
   0.299E-04 0.243E-04 -.221E+03   0.197E-03 0.110E-03 0.217E+03   0.687E-17 0.143E-16 0.429E+01   0.143E-06 0.856E-07 0.113E-01
   -.787E+01 -.346E-01 -.449E+03   0.371E+01 0.408E-01 0.452E+03   0.414E+01 -.731E-02 -.358E+01   0.759E-02 0.129E-03 0.272E-01
   0.390E+01 0.683E+01 -.449E+03   -.182E+01 -.323E+01 0.452E+03   -.208E+01 -.358E+01 -.358E+01   -.368E-02 -.664E-02 0.272E-01
   0.396E+01 -.680E+01 -.449E+03   -.189E+01 0.319E+01 0.452E+03   -.207E+01 0.359E+01 -.358E+01   -.391E-02 0.651E-02 0.272E-01
   0.787E+01 0.346E-01 0.449E+03   -.371E+01 -.408E-01 -.452E+03   -.414E+01 0.731E-02 0.358E+01   -.759E-02 -.129E-03 -.272E-01
   -.390E+01 -.683E+01 0.449E+03   0.182E+01 0.323E+01 -.452E+03   0.208E+01 0.358E+01 0.358E+01   0.368E-02 0.664E-02 -.272E-01
   -.396E+01 0.680E+01 0.449E+03   0.189E+01 -.319E+01 -.452E+03   0.207E+01 -.359E+01 0.358E+01   0.391E-02 -.651E-02 -.272E-01
   -.393E-10 -.636E-10 0.119E-09   0.111E-13 -.266E-14 -.171E-12   0.133E-14 0.444E-15 0.000E+00   0.206E-13 -.457E-13 0.741E-11

 POSITION                                       TOTAL-FORCE (eV/Angst)
      3.03133      1.75014     11.29231        -0.000000      0.000000      0.009438
      6.06267      3.50028     11.29570        -0.000000     -0.000000     -0.009438
      0.00000      0.00000     10.12431        -0.000000     -0.000000     -0.072534
      0.00000      0.00000     12.46370        -0.000000      0.000000      0.072534
      3.80928      0.00069     12.82895        -0.010281     -0.000086     -0.023306
      1.12729      1.95115     12.82895         0.005066      0.008947     -0.023306
      4.15743      3.29859     12.82895         0.005215     -0.008860     -0.023306
      2.25338     -0.00069      9.75906         0.010281      0.000086      0.023306
      1.90404      3.29927      9.75906        -0.005066     -0.008947      0.023306
      4.93656      1.95183      9.75906        -0.005215      0.008860      0.023306
    total drift:                               -0.000000     -0.000000      0.000000

  FREE ENERGIE OF THE ION-ELECTRON SYSTEM (eV)
  free  energy   TOTEN  =       -53.17205363 eV

  energy  without entropy=      -53.17205363  energy(sigma->0) =      -53.17205363

 d Force = 0.3370825E-03[ 0.927E-04, 0.581E-03]  d Energy =-0.1902556E-03 0.527E-03
 d Force =-0.5753826E+01[-0.575E+01,-0.576E+01]  d Ewald  = 0.7885057E+01-0.136E+02

 reached required accuracy - stopping structural energy minimisation

 total charge

[...]

 magnetization (x)

# of ion       s       p       d       tot
    1        0.033   0.040   2.878   2.952
    2        0.033   0.040   2.878   2.952
    3        0.003   0.052  -0.001   0.053
    4        0.003   0.052  -0.001   0.053
    5       -0.000  -0.061   0.000  -0.061
    6       -0.002  -0.051   0.000  -0.053
    7       -0.001  -0.057   0.000  -0.058
    8       -0.000  -0.061   0.000  -0.061
    9       -0.002  -0.051   0.000  -0.053
   10       -0.001  -0.057   0.000  -0.058
tot          0.066  -0.154   5.754   5.667

 BZINTS: Fermi energy: -3.277176; 56.000000 electrons
         Band energy:-462.616946;  BLOECHL correction:  0.000000