 vasp.5.4.4.18Apr17-6-g9f103f2a35 (build May  1 2020 15:48:39) complex
 executed on             LinuxGNU date 2020.07.01  19:54:47

 INCAR:
 POTCAR:   PAW_PBE Cr 06Sep2000
 POTCAR:   PAW_PBE Si 05Jan2001
 POTCAR:    PAW_PBE P 17Jan2003
 POTCAR:   PAW_PBE Se 06Sep2000

 POTCAR:   PAW_PBE Cr 06Sep2000
   VRHFIN =Cr : d5 s1

   TITEL  = PAW_PBE Cr 06Sep2000
   POMASS =   51.996; ZVAL   =    6.000    mass and valenz
   ENMAX  =  227.082; ENMIN  =  170.311 eV
   QCUT   =   -4.085; QGAM   =    8.171    optimization parameters

   Description
     l     E      TYP  RCUT    TYP  RCUT
     2   .000     23  2.500
     2   .000     23  2.500
     0   .000     23  2.500
     0   .000     23  2.500
     1  -.400     23  2.500
     1  2.000     23  2.500
     3   .000      7   .000

 POTCAR:   PAW_PBE Si 05Jan2001
   VRHFIN =Si: s2p2

   TITEL  = PAW_PBE Si 05Jan2001
   POMASS =   28.085; ZVAL   =    4.000    mass and valenz
   ENMAX  =  245.345; ENMIN  =  184.009 eV
   QCUT   =   -4.246; QGAM   =    8.493    optimization parameters

[...]

 POTCAR:    PAW_PBE P 17Jan2003
   VRHFIN =P : s2p3

   TITEL  = PAW_PBE P 17Jan2003
   POMASS =   30.974; ZVAL   =    5.000    mass and valenz
   ENMAX  =  270.000; ENMIN  =  191.280 eV
   QCUT   =   -4.330; QGAM   =    8.659    optimization parameters

[...]

 POTCAR:   PAW_PBE Se 06Sep2000
   VRHFIN =Se: s2p4

   TITEL  = PAW_PBE Se 06Sep2000
   POMASS =   78.960; ZVAL   =    6.000    mass and valenz
   ENMAX  =  211.534; ENMIN  =  158.651 eV
   QCUT   =   -3.943; QGAM   =    7.886    optimization parameters

   Description
     l     E      TYP  RCUT    TYP  RCUT
     0   .000     23  2.100
     0   .000     23  2.100
     1   .000     23  2.100
     1   .000     23  2.100
     2   .000     23  2.100
     3  -.100      7  2.100

 Optimization of the real space projectors (new method)

 maximal supplied QI-value         = 15.12
 optimisation between [QCUT,QGAM] = [ 11.64, 23.28] = [ 37.95,151.78] Ry
 Optimized for a Real-space Cutoff    1.49 Angstroem

   l    n(q)    QCUT    max X(q) W(low)/X(q) W(high)/X(q)  e(spline)
   2      9    11.641     4.777    0.25E-04    0.21E-05    0.63E-07
   2      9    11.641    31.132    0.13E-03    0.22E-03    0.64E-06
   0     10    11.641    20.416    0.11E-04    0.74E-05    0.19E-07
   0     10    11.641    45.408    0.10E-03    0.85E-04    0.30E-06
   1     10    11.641     7.848    0.22E-04    0.23E-04    0.56E-07
   1     10    11.641     9.895    0.85E-04    0.54E-04    0.16E-06
 Optimization of the real space projectors (new method)

[...]

   l    n(q)    QCUT    max X(q) W(low)/X(q) W(high)/X(q)  e(spline)
   0      8    11.508     6.651    0.19E-04    0.31E-05    0.49E-08
   0      8    11.508    90.285    0.95E-04    0.17E-03    0.51E-07
   1      8    11.508     4.328    0.14E-04    0.32E-04    0.22E-07
   1      8    11.508    54.583    0.16E-03    0.71E-04    0.89E-07
 Optimization of the real space projectors (new method)

 maximal supplied QI-value         = 17.95
 optimisation between [QCUT,QGAM] = [ 11.67, 23.34] = [ 38.13,152.52] Ry
 Optimized for a Real-space Cutoff    1.25 Angstroem

   l    n(q)    QCUT    max X(q) W(low)/X(q) W(high)/X(q)  e(spline)
   0      9    11.669     6.499    0.13E-04    0.81E-05    0.11E-07
   0      9    11.669    52.623    0.18E-03    0.46E-04    0.72E-07
   1      8    11.669     4.229    0.40E-04    0.45E-04    0.31E-07
   1      8    11.669    29.991    0.22E-03    0.36E-03    0.10E-06
   2      8    11.669     3.719    0.19E-03    0.46E-04    0.50E-07

 PAW_PBE Cr 06Sep2000                   :
 PAW_PBE Si 05Jan2001                   :
  PAW_PBE P 17Jan2003                   :
 PAW_PBE Se 06Sep2000                   :

 POSCAR: Cr2 Si P Se6
  positions in direct lattice
  velocities in cartesian coordinates
 exchange correlation table for  LEXCH =       42
   RHO(1)=    0.500       N(1)  =     2000
   RHO(2)=  100.500       N(2)  =     4000

 ion  position               nearest neighbor table
   1  0.333  0.333  0.500-   6 2.78   5 2.78   7 2.78   8 2.78  10 2.78   9 2.78
   2  0.667  0.667  0.500-   9 2.78   8 2.78  10 2.78   5 2.78   7 2.78   6 2.78
   3  0.000  0.000  0.448-   4 2.43   8 2.63  10 2.63   9 2.63
   4  0.000  0.000  0.552-   3 2.43   5 2.63   7 2.63   6 2.63
   5  0.626  0.000  0.574-   4 2.63   1 2.78   2 2.78
   6  0.000  0.373  0.574-   4 2.63   1 2.78   2 2.78
   7  0.373  0.626  0.574-   4 2.63   1 2.78   2 2.78
   8  0.374  1.000  0.426-   3 2.63   2 2.78   1 2.78
   9  1.000  0.627  0.426-   3 2.63   2 2.78   1 2.78
  10  0.627  0.374  0.426-   3 2.63   2 2.78   1 2.78

  LATTYP: Found a hexagonal cell.
 ALAT       =     6.9077769333
 C/A-ratio  =     3.3939410937

  Lattice vectors:

 A1 = (   3.4538890000,  -5.9823100000,   0.0000000000)
 A2 = (  -6.9077770000,   0.0000000000,   0.0000000000)
 A3 = (   0.0000000000,   0.0000000000, -23.4445880000)

Analysis of symmetry for initial positions (statically):
 Subroutine PRICEL returns:
 Original cell was already a primitive cell.

 Routine SETGRP: Setting up the symmetry group for a
 hexagonal supercell.

 Subroutine GETGRP returns: Found  3 space group operations
 (whereof  3 operations were pure point group operations)
 out of a pool of 24 trial point group operations.

The static configuration has the point symmetry C_3 .

Analysis of symmetry for dynamics (positions and initial velocities):
 Subroutine PRICEL returns:
 Original cell was already a primitive cell.

[...]

The dynamic configuration has the point symmetry C_3 .

Analysis of constrained symmetry for selective dynamics:
 Subroutine PRICEL returns:
 Original cell was already a primitive cell.

[...]

The constrained configuration has the point symmetry C_3 .

Analysis of structural, dynamic, and magnetic symmetry:
 Subroutine PRICEL returns:
 Original cell was already a primitive cell.

 Routine SETGRP: Setting up the symmetry group for a
 hexagonal supercell.

 Subroutine GETGRP returns: Found  3 space group operations
 (whereof  3 operations were pure point group operations)
 out of a pool of 24 trial point group operations.

The magnetic configuration has the point symmetry C_3 .

 Subroutine INISYM returns: Found  3 space group operations
 (whereof  3 operations are pure point group operations),
 and found     1 'primitive' translations

 KPOINTS: Kpoints from vasprun.xml

Automatic generation of k-mesh.
Space group operators:
 irot       det(A)        alpha          n_x          n_y          n_z        tau_x        tau_y        tau_z
    1     1.000000     0.000000     1.000000     0.000000     0.000000     0.000000     0.000000     0.000000
    2     1.000000   120.000000     0.000000     0.000000     1.000000     0.000000     0.000000     0.000000
    3     1.000000   120.000000     0.000000     0.000000    -1.000000     0.000000     0.000000     0.000000

 Subroutine IBZKPT returns following result:

 Found      5 irreducible k-points:

 Following reciprocal coordinates:
            Coordinates               Weight
  0.000000  0.000000  0.000000      1.000000
  0.200000  0.000000  0.000000      6.000000
  0.400000  0.000000  0.000000      6.000000
  0.400000  0.200000  0.000000      6.000000
 -0.400000  0.200000  0.000000      6.000000

 Following cartesian coordinates:
            Coordinates               Weight
  0.000000  0.000000  0.000000      1.000000
  0.028953 -0.016716  0.000000      6.000000
  0.057906 -0.033432  0.000000      6.000000
  0.057906  0.000000  0.000000      6.000000
 -0.057906  0.066864  0.000000      6.000000

 TETIRR: Found     15 inequivalent tetrahedra from      150

 SYSTEM =  unknown system
 POSCAR =  Cr2 Si P Se6

 Startparameter for this run:
   NWRITE =      2    write-flag & timer
   PREC   = accura    normal or accurate (medium, high low for compatibility)
   ISTART =      0    job   : 0-new  1-cont  2-samecut
   ICHARG =      2    charge: 1-file 2-atom 10-const
   ISPIN  =      2    spin polarized calculation?
   LNONCOLLINEAR =      F non collinear calculations
   LSORBIT =      F    spin-orbit coupling
   INIWAV =      1    electr: 0-lowe 1-rand  2-diag
   LASPH  =      F    aspherical Exc in radial PAW
   METAGGA=      F    non-selfconsistent MetaGGA calc.

 Electronic Relaxation 1
   ENCUT  =  520.0 eV  38.22 Ry    6.18 a.u.  12.84 12.84 43.59*2*pi/ulx,y,z
   ENINI  =  520.0     initial cutoff
   ENAUG  =  446.8 eV  augmentation charge cutoff
   NELM   =    400;   NELMIN=  2; NELMDL=  0     # of ELM steps
   EDIFF  = 0.1E-03   stopping-criterion for ELM
   LREAL  =      T    real-space projection
   NLSPLINE    = F    spline interpolate recip. space projectors
   LCOMPAT=      F    compatible to vasp.4.4
   GGA_COMPAT  = T    GGA compatible to vasp.4.4-vasp.4.6
   LMAXPAW     = -100 max onsite density
   LMAXMIX     =    2 max onsite mixed and CHGCAR
   VOSKOWN=      0    Vosko Wilk Nusair interpolation
   ROPT   =   -0.00025  -0.00025  -0.00025  -0.00025
 Ionic relaxation
   EDIFFG = 0.1E-02   stopping-criterion for IOM
   NSW    =     99    number of steps for IOM
   NBLOCK =      1;   KBLOCK =     99    inner block; outer block
   IBRION =      2    ionic relax: 0-MD 1-quasi-New 2-CG
   NFREE  =      1    steps in history (QN), initial steepest desc. (CG)
   ISIF   =      3    stress and relaxation
   IWAVPR =     11    prediction:  0-non 1-charg 2-wave 3-comb
   ISYM   =      2    0-nonsym 1-usesym 2-fastsym
   LCORR  =      T    Harris-Foulkes like correction to forces

   POTIM  = 0.5000    time-step for ionic-motion
   TEIN   =    0.0    initial temperature
   TEBEG  =    0.0;   TEEND  =   0.0 temperature during run
   SMASS  =  -3.00    Nose mass-parameter (am)
   estimated Nose-frequenzy (Omega)   =  0.10E-29 period in steps =****** mass=  -0.109E-26a.u.
   SCALEE = 1.0000    scale energy and forces
   NPACO  =    256;   APACO  = 16.0  distance and # of slots for P.C.
   PSTRESS=    0.0 pullay stress

  Mass of Ions in am
   POMASS =  52.00 28.09 30.97 78.96
  Ionic Valenz
   ZVAL   =   6.00  4.00  5.00  6.00
  Atomic Wigner-Seitz radii
  virtual crystal weights
   VCA    =   1.00  1.00  1.00  1.00
   NELECT =      57.0000    total number of electrons
   NUPDOWN=      -1.0000    fix difference up-down

 DOS related values:
   EMIN   =  10.00;   EMAX   =-10.00  energy-range for DOS
   EFERMI =   0.00
   ISMEAR =    -5;   SIGMA  =   0.05  broadening in eV -4-tet -1-fermi 0-gaus

 Electronic relaxation 2 (details)
   IALGO  =     38    algorithm
   LDIAG  =      T    sub-space diagonalisation (order eigenvalues)
   LSUBROT=      F    optimize rotation matrix (better conditioning)
   TURBO    =      0    0=normal 1=particle mesh
   IRESTART =      0    0=no restart 2=restart with 2 vectors
   NREBOOT  =      0    no. of reboots
   NMIN     =      0    reboot dimension
   EREF     =   0.00    reference energy to select bands
   IMIX   =      4    mixing-type and parameters
     AMIX     =   0.40;   BMIX     =  1.00
     AMIX_MAG =   1.60;   BMIX_MAG =  1.00
     AMIN     =   0.01
     WC   =   100.;   INIMIX=   1;  MIXPRE=   1;  MAXMIX= -45

 Intra band minimization:
   WEIMIN = 0.0010     energy-eigenvalue tresh-hold
   EBREAK =  0.63E-06  absolut break condition
[...]
   -.712E-04 -.373E-04 0.636E+01   0.314E-03 0.187E-03 -.600E+01   0.347E-17 0.000E+00 -.776E-01   0.186E-05 0.107E-05 -.407E-02
   0.619E-04 0.499E-04 0.504E+01   -.314E-03 -.187E-03 -.471E+01   -.694E-17 0.000E+00 -.675E-01   -.187E-05 -.108E-05 -.406E-02
   -.147E-04 -.277E-04 0.173E+03   -.141E-03 -.779E-04 -.170E+03   0.000E+00 0.000E+00 -.194E+01   -.421E-06 -.217E-06 -.107E-01
   0.368E-04 0.324E-04 -.195E+03   0.176E-03 0.973E-04 0.197E+03   0.139E-16 0.000E+00 -.232E+01   0.614E-06 0.330E-06 0.654E-02
   0.234E+01 0.146E+00 -.345E+03   -.353E+01 -.143E+00 0.346E+03   0.161E+01 -.870E-02 -.307E+01   -.157E-03 -.119E-02 0.149E-01
   -.104E+01 -.210E+01 -.345E+03   0.164E+01 0.313E+01 0.346E+03   -.811E+00 -.139E+01 -.307E+01   -.950E-03 0.728E-03 0.149E-01
   -.130E+01 0.195E+01 -.345E+03   0.189E+01 -.298E+01 0.346E+03   -.796E+00 0.140E+01 -.307E+01   0.111E-02 0.457E-03 0.149E-01
   0.437E+01 -.152E+00 0.350E+03   -.308E+01 0.150E+00 -.352E+03   -.243E+01 0.977E-02 0.296E+01   0.308E-03 -.119E-02 -.243E-01
   -.232E+01 -.371E+01 0.350E+03   0.167E+01 0.259E+01 -.352E+03   0.122E+01 0.210E+01 0.296E+01   -.119E-02 0.331E-03 -.243E-01
   -.205E+01 0.386E+01 0.350E+03   0.141E+01 -.274E+01 -.352E+03   0.120E+01 -.211E+01 0.296E+01   0.879E-03 0.864E-03 -.243E-01
   0.558E-04 0.438E-04 0.478E+01   0.142E-13 0.533E-14 0.568E-13   0.222E-15 0.000E+00 -.473E+01   0.120E-06 0.676E-07 -.404E-01

 POSITION                                       TOTAL-FORCE (eV/Angst)
      3.45388      1.99410     11.72054        -0.000000      0.000000      0.275955
      6.90778      3.98821     11.72405         0.000000      0.000000      0.265130
      0.00000      0.00000     10.50824        -0.000000      0.000000      0.627752
      0.00000      0.00000     12.93635        -0.000000      0.000000     -0.134550
      4.32819      0.00251     13.45138         0.416132     -0.006121     -1.441107
      1.29198      2.23274     13.45138        -0.213367     -0.357320     -1.441107
      4.74152      3.74706     13.45138        -0.202765      0.363442     -1.441107
      6.03348      5.97980      9.99321        -1.138830      0.006426      1.096345
      9.06969      3.74957      9.99321         0.574980      0.983043      1.096345
      5.62015      2.23525      9.99321         0.563850     -0.989469      1.096345
    total drift:                                0.000056      0.000044      0.003104

  FREE ENERGIE OF THE ION-ELECTRON SYSTEM (eV)
  free  energy   TOTEN  =       -46.49004257 eV

  energy  without entropy=      -46.49004257  energy(sigma->0) =      -46.49004257

[...]

 d Force = 0.2868072E+00[-0.785E-01, 0.652E+00]  d Energy = 0.3069130E+01-0.278E+01
 d Force =-0.1408627E+03[-0.157E+03,-0.125E+03]  d Ewald  =-0.1237513E+04 0.110E+04

 Steepest descent step on ions:
 trial-energy change:   -3.069130  1 .order   -2.381321   -5.915790    1.153148
  (g-gl).g = 0.592E+01      g.g   = 0.592E+01  gl.gl    = 0.000E+00
 g(Force)  = 0.707E+00   g(Stress)= 0.521E+01 ortho     = 0.000E+00
 gamma     =   0.00000
 trial     =   1.00000
 opt step  =   0.89276  (harmonic =   0.83687) maximal distance =0.04721874
 next E    =   -49.620155   (d E  =  -3.13011)

[...]

 d Force = 0.1128051E-02[-0.657E-02, 0.882E-02]  d Energy = 0.6762786E-01-0.665E-01
 d Force = 0.1793916E+02[ 0.177E+02, 0.182E+02]  d Ewald  = 0.1518010E+03-0.134E+03

[...]

 d Force = 0.4302414E-01[ 0.287E-01, 0.574E-01]  d Energy = 0.4944885E-01-0.642E-02
 d Force = 0.1408380E+02[ 0.140E+02, 0.141E+02]  d Ewald  =-0.9968381E+02 0.114E+03

 Conjugate gradient step on ions:
 trial-energy change:   -0.049449  1 .order   -0.049305   -0.069527   -0.029082
  (g-gl).g = 0.909E-01      g.g   = 0.714E-01  gl.gl    = 0.592E+01
 g(Force)  = 0.577E-01   g(Stress)= 0.136E-01 ortho     =-0.196E-01
 gamma     =   0.01537
 trial     =   0.97855
 opt step  =   1.68218  (harmonic =   1.68218) maximal distance =0.03875723
 next E    =   -49.686561   (d E  =  -0.05976)

[...]

 d Force = 0.1874771E-01[ 0.159E-02, 0.359E-01]  d Energy = 0.2095115E-01-0.220E-02
 d Force = 0.1425884E+00[ 0.226E+00, 0.589E-01]  d Ewald  = 0.5108009E+02-0.509E+02

[...]

 d Force = 0.3542354E-04[ 0.316E-06, 0.705E-04]  d Energy =-0.4205364E-03 0.456E-03
 d Force = 0.1023396E-01[ 0.104E-01, 0.101E-01]  d Ewald  = 0.2262036E+01-0.225E+01

[...]

 d Force = 0.6734581E-02[ 0.598E-02, 0.749E-02]  d Energy = 0.6286598E-02 0.448E-03
 d Force =-0.1151363E+02[-0.115E+02,-0.116E+02]  d Ewald  = 0.2729739E+02-0.388E+02

[...]

 d Force = 0.4344706E-02[ 0.381E-02, 0.488E-02]  d Energy = 0.4668152E-02-0.323E-03
 d Force =-0.1923152E+01[-0.190E+01,-0.194E+01]  d Ewald  = 0.7902882E+01-0.983E+01

 Conjugate gradient step on ions:
 trial-energy change:   -0.004668  1 .order   -0.005143   -0.005826   -0.004461
  (g-gl).g = 0.123E-01      g.g   = 0.131E-01  gl.gl    = 0.756E-02
 g(Force)  = 0.854E-02   g(Stress)= 0.460E-02 ortho     = 0.436E-03
 gamma     =   1.62702
 trial     =   0.42093
 opt step  =   1.68371  (harmonic =   1.79632) maximal distance =0.05517243
 next E    =   -49.733105   (d E  =  -0.01243)

[...]

 d Force = 0.5574199E-02[-0.284E-03, 0.114E-01]  d Energy = 0.2833235E-02 0.274E-02
 d Force =-0.5530055E+01[-0.535E+01,-0.571E+01]  d Ewald  = 0.2382539E+02-0.294E+02

[...]

 d Force = 0.4213833E-02[ 0.259E-02, 0.584E-02]  d Energy = 0.5103250E-02-0.889E-03
 d Force =-0.7124374E+00[-0.706E+00,-0.719E+00]  d Ewald  =-0.2119484E+02 0.205E+02

 Steepest descent step on ions:
 trial-energy change:   -0.005103  1 .order   -0.005046   -0.007070   -0.003022
  (g-gl).g = 0.142E-01      g.g   = 0.105E-01  gl.gl    = 0.131E-01
 g(Force)  = 0.867E-02   g(Stress)= 0.182E-02 ortho     =-0.229E-02
 gamma     =   0.00000
 trial     =   0.67349
 opt step  =   1.17617  (harmonic =   1.17617) maximal distance =0.01904173
 next E    =   -49.734349   (d E  =  -0.00617)

[...]

 d Force = 0.9502441E-03[-0.322E-04, 0.193E-02]  d Energy = 0.1108474E-02-0.158E-03
 d Force =-0.5229565E+00[-0.519E+00,-0.527E+00]  d Ewald  =-0.1586632E+02 0.153E+02

[...]

 d Force = 0.2766529E-02[ 0.699E-03, 0.483E-02]  d Energy = 0.2872669E-02-0.106E-03
 d Force = 0.1385899E+02[ 0.139E+02, 0.138E+02]  d Ewald  =-0.8960751E+02 0.103E+03

[...]

 Conjugate gradient step on ions:
 trial-energy change:   -0.001949  1 .order   -0.002596   -0.003081   -0.002111
  (g-gl).g = 0.283E-02      g.g   = 0.286E-02  gl.gl    = 0.490E-02
 g(Force)  = 0.225E-02   g(Stress)= 0.608E-03 ortho     =-0.522E-03
 gamma     =   0.57690
 trial     =   1.20499
 opt step  =   3.82768  (harmonic =   3.82768) maximal distance =0.03015512
 next E    =   -49.745388   (d E  =  -0.00489)

[...]

 Conjugate gradient step on ions:
 trial-energy change:   -0.001576  1 .order   -0.002227   -0.002461   -0.001994
  (g-gl).g = 0.503E-02      g.g   = 0.609E-02  gl.gl    = 0.286E-02
 g(Force)  = 0.282E-02   g(Stress)= 0.326E-02 ortho     = 0.277E-03
 gamma     =   1.76094
 trial     =   0.37428
 opt step  =   1.49712  (harmonic =   1.97336) maximal distance =0.02723555
 next E    =   -49.750590   (d E  =  -0.00649)

[...]

 d Force = 0.3764607E-03[ 0.316E-03, 0.437E-03]  d Energy = 0.1527696E-03 0.224E-03
 d Force = 0.1641490E+01[ 0.164E+01, 0.164E+01]  d Ewald  = 0.1858829E+02-0.169E+02

[...]

 d Force = 0.5461153E-03[ 0.371E-03, 0.721E-03]  d Energy = 0.7227532E-03-0.177E-03
 d Force =-0.2973180E+01[-0.298E+01,-0.297E+01]  d Ewald  =-0.7779023E+01 0.481E+01

 Steepest descent step on ions:
 trial-energy change:   -0.000723  1 .order   -0.000818   -0.001144   -0.000491
  (g-gl).g = 0.208E-02      g.g   = 0.158E-02  gl.gl    = 0.282E-02
 g(Force)  = 0.998E-03   g(Stress)= 0.584E-03 ortho     =-0.500E-03
 gamma     =   0.00000
 trial     =   0.72347
 opt step  =   1.26790  (harmonic =   1.26790) maximal distance =0.00295409
 next E    =   -49.750004   (d E  =  -0.00100)

[...]

 eigenvalue-minimisations  :  1080
 total energy-change (2. order) :-0.1673658E-03  (-0.1996690E-02)
 number of electron      57.0000002 magnetization       5.2765979
 augmentation part       -2.3323307 magnetization       4.0368434

[...]

 Broyden mixing:
  rms(total) = 0.64767E-02    rms(broyden)= 0.64766E-02
  rms(prec ) = 0.71998E-02
  weight for this iteration     100.00

 eigenvalues of (default mixing * dielectric matrix)
  average eigenvalue GAMMA=   0.6771
  0.9951  0.3591

[...]

--------------------------------------- Iteration     23(   4)  ---------------------------------------

[...]

 eigenvalue-minimisations  :   720
 total energy-change (2. order) : 0.7478163E-04  (-0.2772989E-04)
 number of electron      57.0000002 magnetization       5.2759339
 augmentation part       -2.3310545 magnetization       4.0363809

 Free energy of the ion-electron system (eV)
  alpha Z        PSCENC =        38.10297889
  Ewald energy   TEWEN  =      7469.83395579
  -Hartree energ DENC   =     -9586.72407812
  -exchange      EXHF   =         0.00000000
  -V(xc)+E(xc)   XCENC  =       -49.78131577
  PAW double counting   =      1283.59169655    -1129.57876970
  entropy T*S    EENTRO =         0.00000000
  eigenvalues    EBANDS =      -461.67349438
  atomic energy  EATOM  =      2386.47938694
  Solvation  Ediel_sol  =         0.00000000
  free energy    TOTEN  =       -49.74963980 eV

  energy without entropy =      -49.74963980  energy(sigma->0) =      -49.74963980

 average (electrostatic) potential at core
  the test charge radii are     1.1394  0.9892  0.9587  1.0808
  (the norm of the test charge is              1.0000)
       1 -51.3366       2 -51.3433       3 -93.0740       4 -92.4582       5 -61.3318
       6 -61.3318       7 -61.3318       8 -61.0080       9 -61.0080      10 -61.0079

 E-fermi :  -2.3001     XC(G=0):  -3.5999     alpha+bet : -2.7663

[...]

 spin component 2

[...]

 k-point     5 :      -0.4000    0.2000    0.0000
  band No.  band energies     occupation
      1     -16.8823      1.00000
      2     -16.2506      1.00000
      3     -16.0190      1.00000
      4     -15.9426      1.00000
      5     -15.6387      1.00000
      6     -15.5166      1.00000
      7     -12.7039      1.00000
      8      -9.8932      1.00000
      9      -8.0271      1.00000
     10      -7.5352      1.00000
     11      -7.4432      1.00000
     12      -6.9297      1.00000
     13      -6.7904      1.00000
     14      -6.2397      1.00000
     15      -5.9679      1.00000
     16      -5.7764      1.00000
     17      -5.7496      1.00000
     18      -5.2788      1.00000
     19      -5.2273      1.00000
     20      -5.1209      1.00000
     21      -4.8528      1.00000
     22      -4.4242      1.00000
     23      -4.2560      1.00000
     24      -4.1711      1.00000
     25      -4.1048      1.00000
     26      -3.2099      1.00000
     27      -1.7490      0.00000
     28      -1.6566      0.00000
     29      -1.3670      0.00000
     30      -0.9741      0.00000
     31      -0.8815      0.00000
     32      -0.8725      0.00000
     33      -0.5919      0.00000
     34      -0.5206      0.00000
     35      -0.1519      0.00000
     36      -0.0147      0.00000
     37       0.0016      0.00000
     38       0.4899      0.00000
     39       0.7614      0.00000
     40       1.3588      0.00000

[...]

 soft charge-density along one line, spin component           2
         0         1         2         3         4         5         6         7         8         9
 total charge-density along one line

------------------------ aborting loop because EDIFF is reached ----------------------------------------

[...]

  FORCE on cell =-STRESS in cart. coord.  units (eV):
  Direction    XX          YY          ZZ          XY          YZ          ZX
  Alpha Z    38.10298    38.10298    38.10298
  Ewald    9100.41254  9100.40999-10730.99073    -0.00110    -0.00044    -0.00080
  Hartree  9431.96592  9431.96629 -9276.89781    -0.00001     0.00005     0.00008
  E(xc)    -219.92409  -219.92409  -219.83514     0.00002     0.00000     0.00002
  Local  -19283.41111-19283.41025 19219.97994     0.00072     0.00020     0.00037
  n-local   324.67092   325.63986   332.15961     0.46013     0.34741     0.35119
  augment    18.00029    18.00037    14.43560    -0.00007     0.00010    -0.00002
  Kinetic   593.47357   586.19804   622.95461    -4.56821     0.11760    -0.14563
  Fock        0.00000     0.00000     0.00000     0.00000     0.00000     0.00000
  Total       0.13710     0.13710    -0.09095     0.00000    -0.00000     0.00000
  in kB       0.28529     0.28529    -0.18925     0.00000    -0.00000     0.00000

 VOLUME and BASIS-vectors are now :
  energy-cutoff  :      520.00
  volume of cell :      769.96
      direct lattice vectors                 reciprocal lattice vectors
     6.303723983 -0.000000324 -0.000000000     0.158636383 -0.091588763  0.000000000
     3.151861906  5.459184678 -0.000000000     0.000000009  0.183177531  0.000000000
    -0.000000000 -0.000000000 22.373911595     0.000000000  0.000000000  0.044694912

  length of vectors
     6.303723983  6.303723568 22.373911595     0.183177519  0.183177531  0.044694912

 FORCES acting on ions
    electron-ion (+dipol)            ewald-force                    non-local-force                 convergence-correction
   -.135E-03 -.753E-04 0.247E+02   0.374E-03 0.220E-03 -.248E+02   -.700E-17 -.347E-19 0.114E+00   0.243E-06 0.140E-06 -.963E-02
   0.131E-03 0.803E-04 0.237E+02   -.395E-03 -.232E-03 -.238E+02   -.533E-19 -.139E-16 0.101E+00   0.132E-06 0.696E-07 -.906E-02
   -.268E-04 -.261E-04 0.174E+03   -.156E-03 -.863E-04 -.172E+03   0.153E-16 0.805E-18 -.265E+01   -.180E-06 -.141E-06 0.411E-02
   0.429E-04 0.397E-04 -.281E+03   0.239E-03 0.133E-03 0.282E+03   -.261E-16 -.146E-16 -.603E+00   -.877E-07 -.338E-07 -.204E-01
   0.460E+01 -.664E-01 -.409E+03   -.672E+01 0.449E-01 0.412E+03   0.211E+01 -.400E-02 -.213E+01   -.483E-02 0.252E-01 -.275E-01
   -.236E+01 -.395E+01 -.409E+03   0.340E+01 0.580E+01 0.412E+03   -.106E+01 -.183E+01 -.213E+01   0.242E-01 -.842E-02 -.275E-01
   -.224E+01 0.402E+01 -.409E+03   0.332E+01 -.585E+01 0.412E+03   -.105E+01 0.183E+01 -.213E+01   -.194E-01 -.168E-01 -.275E-01
   -.216E+01 -.535E-01 0.430E+03   0.371E+01 0.304E-01 -.432E+03   -.156E+01 0.275E-02 0.229E+01   0.545E-02 0.228E-01 0.210E-01
   0.104E+01 0.190E+01 0.430E+03   -.183E+01 -.323E+01 -.432E+03   0.783E+00 0.135E+01 0.229E+01   0.170E-01 -.161E-01 0.210E-01
   0.113E+01 -.185E+01 0.430E+03   -.188E+01 0.320E+01 -.432E+03   0.779E+00 -.135E+01 0.229E+01   -.225E-01 -.668E-02 0.210E-01
   0.867E-04 0.870E-04 0.256E+01   -.133E-14 0.666E-14 -.114E-12   0.000E+00 -.222E-15 -.254E+01   0.306E-06 0.161E-06 -.544E-01

 POSITION                                       TOTAL-FORCE (eV/Angst)
      3.15186      1.81973     11.18528         0.000000     -0.000000      0.002283
      6.30373      3.63946     11.18863         0.000000     -0.000000     -0.009943
     -0.00000     -0.00000     10.27154         0.000000     -0.000000      0.034713
     -0.00000     -0.00000     12.52199         0.000000     -0.000000      0.055771
      3.91538      0.00071     12.76546        -0.015409      0.000346     -0.003298
      1.19479      2.06802     12.76546         0.008004      0.013171     -0.003298
      4.34542      3.39046     12.76546         0.007405     -0.013517     -0.003298
      5.36218      5.45787      9.61678        -0.009980      0.001785     -0.024310
      8.34928      3.54564      9.61678         0.006536      0.007750     -0.024310
      5.19970      1.91485      9.61678         0.003444     -0.009535     -0.024310
    total drift:                                0.000087      0.000087     -0.033816

  FREE ENERGIE OF THE ION-ELECTRON SYSTEM (eV)
  free  energy   TOTEN  =       -49.74963980 eV

  energy  without entropy=      -49.74963980  energy(sigma->0) =      -49.74963980

 d Force = 0.1883050E-03[ 0.974E-04, 0.279E-03]  d Energy =-0.8459774E-04 0.273E-03
 d Force =-0.2240458E+01[-0.224E+01,-0.224E+01]  d Ewald  =-0.5862135E+01 0.362E+01

 reached required accuracy - stopping structural energy minimisation

 total charge

[...]

 magnetization (x)

# of ion       s       p       d       tot
    1        0.036   0.039   2.815   2.890
    2        0.035   0.039   2.813   2.888
    3        0.005   0.021   0.000   0.026
    4       -0.040   0.004   0.000  -0.036
    5       -0.004  -0.133   0.005  -0.132
    6       -0.003  -0.125   0.005  -0.123
    7       -0.005  -0.137   0.005  -0.138
    8       -0.000  -0.076   0.005  -0.071
    9       -0.001  -0.058   0.005  -0.054
   10       -0.001  -0.070   0.005  -0.066
tot          0.020  -0.495   5.659   5.184

 BZINTS: Fermi energy: -2.300146; 57.000000 electrons
         Band energy:-461.673494;  BLOECHL correction: -0.020270