 vasp.5.4.4.18Apr17-6-g9f103f2a35 (build May  1 2020 15:48:39) complex
 executed on             LinuxGNU date 2020.07.01  23:34:35

 INCAR:
 POTCAR:   PAW_PBE Cr 06Sep2000
 POTCAR:   PAW_PBE Ge 05Jan2001
 POTCAR:   PAW_PBE Se 06Sep2000

 POTCAR:   PAW_PBE Cr 06Sep2000
   VRHFIN =Cr : d5 s1

   TITEL  = PAW_PBE Cr 06Sep2000
   POMASS =   51.996; ZVAL   =    6.000    mass and valenz
   ENMAX  =  227.082; ENMIN  =  170.311 eV
   QCUT   =   -4.085; QGAM   =    8.171    optimization parameters

   Description
     l     E      TYP  RCUT    TYP  RCUT
     2   .000     23  2.500
     2   .000     23  2.500
     0   .000     23  2.500
     0   .000     23  2.500
     1  -.400     23  2.500
     1  2.000     23  2.500
     3   .000      7   .000

 POTCAR:   PAW_PBE Ge 05Jan2001
   VRHFIN =Ge: s2p2

   TITEL  = PAW_PBE Ge 05Jan2001
   POMASS =   72.610; ZVAL   =    4.000    mass and valenz
   ENMAX  =  173.807; ENMIN  =  130.355 eV
   QCUT   =   -3.574; QGAM   =    7.148    optimization parameters

[...]

 POTCAR:   PAW_PBE Se 06Sep2000
   VRHFIN =Se: s2p4

   TITEL  = PAW_PBE Se 06Sep2000
   POMASS =   78.960; ZVAL   =    6.000    mass and valenz
   ENMAX  =  211.534; ENMIN  =  158.651 eV
   QCUT   =   -3.943; QGAM   =    7.886    optimization parameters

   Description
     l     E      TYP  RCUT    TYP  RCUT
     0   .000     23  2.100
     0   .000     23  2.100
     1   .000     23  2.100
     1   .000     23  2.100
     2   .000     23  2.100
     3  -.100      7  2.100

 Optimization of the real space projectors (new method)

 maximal supplied QI-value         = 15.12
 optimisation between [QCUT,QGAM] = [ 11.64, 23.28] = [ 37.95,151.78] Ry
 Optimized for a Real-space Cutoff    1.49 Angstroem

   l    n(q)    QCUT    max X(q) W(low)/X(q) W(high)/X(q)  e(spline)
   2      9    11.641     4.777    0.25E-04    0.21E-05    0.63E-07
   2      9    11.641    31.132    0.13E-03    0.22E-03    0.64E-06
   0     10    11.641    20.416    0.11E-04    0.74E-05    0.19E-07
   0     10    11.641    45.408    0.10E-03    0.85E-04    0.30E-06
   1     10    11.641     7.848    0.22E-04    0.23E-04    0.56E-07
   1     10    11.641     9.895    0.85E-04    0.54E-04    0.16E-06
 Optimization of the real space projectors (new method)

[...]

   l    n(q)    QCUT    max X(q) W(low)/X(q) W(high)/X(q)  e(spline)
   0      9    11.539     8.651    0.22E-04    0.16E-04    0.10E-07
   0      9    11.539    33.192    0.11E-03    0.16E-03    0.65E-07
   1      8    11.539     5.899    0.37E-04    0.28E-04    0.43E-07
   1      8    11.539    27.289    0.22E-03    0.28E-04    0.14E-06
   2      8    11.539     4.673    0.11E-03    0.18E-03    0.58E-07
 Optimization of the real space projectors (new method)

 maximal supplied QI-value         = 17.95
 optimisation between [QCUT,QGAM] = [ 11.67, 23.34] = [ 38.13,152.52] Ry
 Optimized for a Real-space Cutoff    1.25 Angstroem

   l    n(q)    QCUT    max X(q) W(low)/X(q) W(high)/X(q)  e(spline)
   0      9    11.669     6.499    0.13E-04    0.81E-05    0.11E-07
   0      9    11.669    52.623    0.18E-03    0.46E-04    0.72E-07
   1      8    11.669     4.229    0.40E-04    0.45E-04    0.31E-07
   1      8    11.669    29.991    0.22E-03    0.36E-03    0.10E-06
   2      8    11.669     3.719    0.19E-03    0.46E-04    0.50E-07

 PAW_PBE Cr 06Sep2000                   :
 PAW_PBE Ge 05Jan2001                   :
 PAW_PBE Se 06Sep2000                   :

 POSCAR: Cr2 Ge2 Se6
  positions in direct lattice
  velocities in cartesian coordinates
 exchange correlation table for  LEXCH =       42
   RHO(1)=    0.500       N(1)  =     2000
   RHO(2)=  100.500       N(2)  =     4000

 ion  position               nearest neighbor table
   1  0.333  0.333  0.500-   6 2.78   5 2.78   7 2.78   8 2.78  10 2.78   9 2.78
   2  0.667  0.667  0.500-   9 2.78   8 2.78  10 2.78   5 2.78   7 2.78   6 2.78
   3  0.000  0.000  0.448-   4 2.43   8 2.63  10 2.63   9 2.63
   4  0.000  0.000  0.552-   3 2.43   5 2.63   7 2.63   6 2.63
   5  0.626  0.000  0.574-   4 2.63   1 2.78   2 2.78
   6  0.000  0.373  0.574-   4 2.63   1 2.78   2 2.78
   7  0.373  0.626  0.574-   4 2.63   1 2.78   2 2.78
   8  0.374  1.000  0.426-   3 2.63   2 2.78   1 2.78
   9  1.000  0.627  0.426-   3 2.63   2 2.78   1 2.78
  10  0.627  0.374  0.426-   3 2.63   2 2.78   1 2.78

  LATTYP: Found a hexagonal cell.
 ALAT       =     6.9077769333
 C/A-ratio  =     3.3939410937

  Lattice vectors:

 A1 = (   3.4538890000,  -5.9823100000,   0.0000000000)
 A2 = (  -6.9077770000,   0.0000000000,   0.0000000000)
 A3 = (   0.0000000000,   0.0000000000, -23.4445880000)

Analysis of symmetry for initial positions (statically):
 Subroutine PRICEL returns:
 Original cell was already a primitive cell.

 Routine SETGRP: Setting up the symmetry group for a
 hexagonal supercell.

 Subroutine GETGRP returns: Found  6 space group operations
 (whereof  6 operations were pure point group operations)
 out of a pool of 24 trial point group operations.

The static configuration has the point symmetry S_6 .

Analysis of symmetry for dynamics (positions and initial velocities):
 Subroutine PRICEL returns:
 Original cell was already a primitive cell.

[...]

The dynamic configuration has the point symmetry S_6 .

Analysis of constrained symmetry for selective dynamics:
 Subroutine PRICEL returns:
 Original cell was already a primitive cell.

[...]

The constrained configuration has the point symmetry S_6 .

Analysis of structural, dynamic, and magnetic symmetry:
 Subroutine PRICEL returns:
 Original cell was already a primitive cell.

 Routine SETGRP: Setting up the symmetry group for a
 hexagonal supercell.

 Subroutine GETGRP returns: Found  6 space group operations
 (whereof  6 operations were pure point group operations)
 out of a pool of 24 trial point group operations.

The magnetic configuration has the point symmetry S_6 .

 Subroutine INISYM returns: Found  6 space group operations
 (whereof  6 operations are pure point group operations),
 and found     1 'primitive' translations

 KPOINTS: Kpoints from vasprun.xml

Automatic generation of k-mesh.
Space group operators:
 irot       det(A)        alpha          n_x          n_y          n_z        tau_x        tau_y        tau_z
    1     1.000000     0.000000     1.000000     0.000000     0.000000     0.000000     0.000000     0.000000
    2    -1.000000     0.000000     1.000000     0.000000     0.000000     0.000000     0.000000     0.000000
    3     1.000000   120.000000     0.000000     0.000000     1.000000     0.000000     0.000000     0.000000
    4    -1.000000   120.000000     0.000000     0.000000     1.000000     0.000000     0.000000     0.000000
    5     1.000000   120.000000     0.000000     0.000000    -1.000000     0.000000     0.000000     0.000000
    6    -1.000000   120.000000     0.000000     0.000000    -1.000000     0.000000     0.000000     0.000000

 Subroutine IBZKPT returns following result:

 Found      5 irreducible k-points:

 Following reciprocal coordinates:
            Coordinates               Weight
  0.000000  0.000000  0.000000      1.000000
  0.200000  0.000000  0.000000      6.000000
  0.400000  0.000000  0.000000      6.000000
  0.400000  0.200000  0.000000      6.000000
 -0.400000  0.200000  0.000000      6.000000

 Following cartesian coordinates:
            Coordinates               Weight
  0.000000  0.000000  0.000000      1.000000
  0.028953 -0.016716  0.000000      6.000000
  0.057906 -0.033432  0.000000      6.000000
  0.057906  0.000000  0.000000      6.000000
 -0.057906  0.066864  0.000000      6.000000

 TETIRR: Found     15 inequivalent tetrahedra from      150

 SYSTEM =  unknown system
 POSCAR =  Cr2 Ge2 Se6

 Startparameter for this run:
   NWRITE =      2    write-flag & timer
   PREC   = accura    normal or accurate (medium, high low for compatibility)
   ISTART =      0    job   : 0-new  1-cont  2-samecut
   ICHARG =      2    charge: 1-file 2-atom 10-const
   ISPIN  =      2    spin polarized calculation?
   LNONCOLLINEAR =      F non collinear calculations
   LSORBIT =      F    spin-orbit coupling
   INIWAV =      1    electr: 0-lowe 1-rand  2-diag
   LASPH  =      F    aspherical Exc in radial PAW
   METAGGA=      F    non-selfconsistent MetaGGA calc.

 Electronic Relaxation 1
   ENCUT  =  520.0 eV  38.22 Ry    6.18 a.u.  12.84 12.84 43.59*2*pi/ulx,y,z
   ENINI  =  520.0     initial cutoff
   ENAUG  =  446.8 eV  augmentation charge cutoff
   NELM   =    400;   NELMIN=  2; NELMDL=  0     # of ELM steps
   EDIFF  = 0.1E-03   stopping-criterion for ELM
   LREAL  =      T    real-space projection
   NLSPLINE    = F    spline interpolate recip. space projectors
   LCOMPAT=      F    compatible to vasp.4.4
   GGA_COMPAT  = T    GGA compatible to vasp.4.4-vasp.4.6
   LMAXPAW     = -100 max onsite density
   LMAXMIX     =    2 max onsite mixed and CHGCAR
   VOSKOWN=      0    Vosko Wilk Nusair interpolation
   ROPT   =   -0.00025  -0.00025  -0.00025
 Ionic relaxation
   EDIFFG = 0.1E-02   stopping-criterion for IOM
   NSW    =     99    number of steps for IOM
   NBLOCK =      1;   KBLOCK =     99    inner block; outer block
   IBRION =      2    ionic relax: 0-MD 1-quasi-New 2-CG
   NFREE  =      1    steps in history (QN), initial steepest desc. (CG)
   ISIF   =      3    stress and relaxation
   IWAVPR =     11    prediction:  0-non 1-charg 2-wave 3-comb
   ISYM   =      2    0-nonsym 1-usesym 2-fastsym
   LCORR  =      T    Harris-Foulkes like correction to forces

   POTIM  = 0.5000    time-step for ionic-motion
   TEIN   =    0.0    initial temperature
   TEBEG  =    0.0;   TEEND  =   0.0 temperature during run
   SMASS  =  -3.00    Nose mass-parameter (am)
   estimated Nose-frequenzy (Omega)   =  0.10E-29 period in steps =****** mass=  -0.109E-26a.u.
   SCALEE = 1.0000    scale energy and forces
   NPACO  =    256;   APACO  = 16.0  distance and # of slots for P.C.
   PSTRESS=    0.0 pullay stress

  Mass of Ions in am
   POMASS =  52.00 72.61 78.96
  Ionic Valenz
   ZVAL   =   6.00  4.00  6.00
  Atomic Wigner-Seitz radii
  virtual crystal weights
   VCA    =   1.00  1.00  1.00
   NELECT =      56.0000    total number of electrons
   NUPDOWN=      -1.0000    fix difference up-down

 DOS related values:
   EMIN   =  10.00;   EMAX   =-10.00  energy-range for DOS
   EFERMI =   0.00
   ISMEAR =    -5;   SIGMA  =   0.05  broadening in eV -4-tet -1-fermi 0-gaus

 Electronic relaxation 2 (details)
   IALGO  =     38    algorithm
   LDIAG  =      T    sub-space diagonalisation (order eigenvalues)
   LSUBROT=      F    optimize rotation matrix (better conditioning)
   TURBO    =      0    0=normal 1=particle mesh
   IRESTART =      0    0=no restart 2=restart with 2 vectors
   NREBOOT  =      0    no. of reboots
   NMIN     =      0    reboot dimension
   EREF     =   0.00    reference energy to select bands
   IMIX   =      4    mixing-type and parameters
     AMIX     =   0.40;   BMIX     =  1.00
     AMIX_MAG =   1.60;   BMIX_MAG =  1.00
     AMIN     =   0.01
     WC   =   100.;   INIMIX=   1;  MIXPRE=   1;  MAXMIX= -45

 Intra band minimization:
   WEIMIN = 0.0010     energy-eigenvalue tresh-hold
[...]
     16      -5.8118      1.00000
     17      -5.8118      1.00000
     18      -5.5829      1.00000
     19      -5.5829      1.00000
     20      -5.3177      1.00000
     21      -4.9567      1.00000
     22      -4.9567      1.00000
     23      -4.7941      1.00000
     24      -4.6229      1.00000
     25      -4.6229      1.00000
     26      -4.6076      1.00000
     27      -4.5991      1.00000
     28      -4.5991      1.00000
     29      -4.2261      1.00000
     30      -4.0469      1.00000
     31      -4.0469      1.00000
     32      -2.9112      0.00000
     33      -2.7906      0.00000
     34      -2.7906      0.00000
     35      -2.5336      0.00000
     36      -2.4490      0.00000
     37      -2.4489      0.00000
     38      -0.4494      0.00000
     39      -0.4494      0.00000
     40       0.6687      0.00000

[...]

 soft charge-density along one line, spin component           1
         0         1         2         3         4         5         6         7         8         9
 total charge-density along one line

[...]

------------------------ aborting loop because EDIFF is reached ----------------------------------------

 total charge

# of ion       s       p       d       tot
    1        0.280   0.300   4.091   4.671
    2        0.280   0.300   4.091   4.671
    3        1.185   0.965   0.063   2.213
    4        1.185   0.965   0.063   2.213
    5        1.486   2.221   0.018   3.726
    6        1.483   2.221   0.018   3.721
    7        1.485   2.220   0.018   3.723
    8        1.486   2.221   0.018   3.726
    9        1.483   2.221   0.018   3.721
   10        1.485   2.220   0.018   3.723
tot         11.837  15.852   8.415  36.105

 magnetization (x)

[...]

  FORCE on cell =-STRESS in cart. coord.  units (eV):
  Direction    XX          YY          ZZ          XY          YZ          ZX
  Alpha Z    33.62853    33.62853    33.62853
  Ewald    7419.63051  7419.62857 -8853.36149    -0.00107    -0.00038    -0.00069
  Hartree  7816.86199  7816.86238 -7615.22589    -0.00006     0.00005     0.00008
  E(xc)    -212.91589  -212.91589  -212.73535     0.00002     0.00000     0.00001
  Local  -15925.76756-15925.76700 15756.68785     0.00086     0.00018     0.00035
  n-local   257.43177   258.73262   263.34080     0.62304     0.23688     0.22347
  augment    37.58524    37.58534    35.32686    -0.00003    -0.00002     0.00004
  Kinetic   555.10124   553.11717   582.93929    -1.73305     0.68646     0.77205
  Fock        0.00000     0.00000     0.00000     0.00000     0.00000     0.00000
  Total     -18.78623   -18.78622    -9.39939     0.00000     0.00000    -0.00000
  in kB     -31.06707   -31.06707   -15.54392     0.00000     0.00000    -0.00000

 VOLUME and BASIS-vectors are now :
  energy-cutoff  :      520.00
  volume of cell :      968.84
      direct lattice vectors                 reciprocal lattice vectors
     6.907777000 -0.000000000  0.000000000     0.144764372 -0.083579742  0.000000000
     3.453888000  5.982310000  0.000000000     0.000000000  0.167159509 -0.000000000
     0.000000000  0.000000000 23.444588000    -0.000000000  0.000000000  0.042653767

[...]

 FORCES acting on ions
    electron-ion (+dipol)            ewald-force                    non-local-force                 convergence-correction
   -.771E-04 -.490E-04 0.649E+00   0.306E-03 0.183E-03 -.640E+00   0.173E-17 0.347E-17 -.501E-02   -.314E-05 -.181E-05 -.638E-04
   0.771E-04 0.490E-04 -.649E+00   -.306E-03 -.183E-03 0.640E+00   0.173E-17 -.347E-17 0.501E-02   0.314E-05 0.181E-05 0.638E-04
   -.230E-04 -.265E-04 0.160E+03   -.141E-03 -.779E-04 -.158E+03   0.260E-17 -.347E-17 -.295E+01   0.650E-06 0.335E-06 0.193E-03
   0.230E-04 0.265E-04 -.160E+03   0.141E-03 0.779E-04 0.158E+03   0.347E-17 0.347E-17 0.295E+01   -.650E-06 -.335E-06 -.193E-03
   -.599E+01 0.155E+00 -.341E+03   0.444E+01 -.152E+00 0.342E+03   0.212E+01 -.958E-02 -.293E+01   -.811E-03 -.554E-04 -.544E-03
   0.313E+01 0.510E+01 -.341E+03   -.235E+01 -.377E+01 0.342E+03   -.107E+01 -.183E+01 -.293E+01   0.361E-03 0.731E-03 -.545E-03
   0.286E+01 -.526E+01 -.341E+03   -.209E+01 0.392E+01 0.342E+03   -.105E+01 0.184E+01 -.293E+01   0.452E-03 -.675E-03 -.543E-03
   0.599E+01 -.155E+00 0.341E+03   -.444E+01 0.152E+00 -.342E+03   -.212E+01 0.958E-02 0.293E+01   0.811E-03 0.554E-04 0.544E-03
   -.313E+01 -.510E+01 0.341E+03   0.235E+01 0.377E+01 -.342E+03   0.107E+01 0.183E+01 0.293E+01   -.361E-03 -.731E-03 0.545E-03
   -.286E+01 0.526E+01 0.341E+03   0.209E+01 -.392E+01 -.342E+03   0.105E+01 -.184E+01 0.293E+01   -.452E-03 0.675E-03 0.543E-03
   -.205E-09 -.396E-09 -.149E-09   0.155E-13 0.799E-14 -.171E-12   -.444E-15 0.000E+00 -.444E-15   0.328E-13 -.142E-13 0.678E-11

 POSITION                                       TOTAL-FORCE (eV/Angst)
      3.45388      1.99410     11.72054         0.000000      0.000000      0.004636
      6.90778      3.98821     11.72405         0.000000      0.000000     -0.004636
      0.00000      0.00000     10.50824         0.000000     -0.000000     -0.545678
      0.00000      0.00000     12.93635         0.000000      0.000000      0.545678
      4.32819      0.00251     13.45138         0.574886     -0.006222     -1.034319
      1.29198      2.23274     13.45138        -0.292831     -0.494755     -1.034319
      4.74152      3.74706     13.45138        -0.282055      0.500977     -1.034319
      6.03348      5.97980      9.99321        -0.574886      0.006222      1.034319
      9.06969      3.74957      9.99321         0.292831      0.494755      1.034319
      5.62015      2.23525      9.99321         0.282055     -0.500977      1.034319
    total drift:                               -0.000000     -0.000000     -0.000000

  FREE ENERGIE OF THE ION-ELECTRON SYSTEM (eV)
  free  energy   TOTEN  =       -45.37177668 eV

  energy  without entropy=      -45.37177668  energy(sigma->0) =      -45.37177668

[...]

 d Force = 0.1021695E+00[-0.178E+00, 0.383E+00]  d Energy = 0.1817541E+01-0.172E+01
 d Force =-0.1081368E+03[-0.119E+03,-0.972E+02]  d Ewald  =-0.1199603E+04 0.109E+04

 Steepest descent step on ions:
 trial-energy change:   -1.817541  1 .order   -1.352183   -4.236737    1.532371
  (g-gl).g = 0.424E+01      g.g   = 0.424E+01  gl.gl    = 0.000E+00
 g(Force)  = 0.405E+00   g(Stress)= 0.383E+01 ortho     = 0.000E+00
 gamma     =   0.00000
 trial     =   1.00000
 opt step  =   0.80913  (harmonic =   0.73438) maximal distance =0.04037415
 next E    =   -47.332324   (d E  =  -1.96055)

[...]

 d Force = 0.2088929E-01[ 0.488E-02, 0.369E-01]  d Energy = 0.1537089E+00-0.133E+00
 d Force = 0.2354216E+02[ 0.231E+02, 0.240E+02]  d Ewald  = 0.2563363E+03-0.233E+03

[...]

 d Force = 0.8180067E-02[ 0.657E-02, 0.979E-02]  d Energy = 0.1158263E-01-0.340E-02
 d Force =-0.2731968E+01[-0.275E+01,-0.271E+01]  d Ewald  =-0.7621435E+02 0.735E+02

 Conjugate gradient step on ions:
 trial-energy change:   -0.011583  1 .order   -0.012483   -0.014761   -0.010205
  (g-gl).g = 0.108E-01      g.g   = 0.153E-01  gl.gl    = 0.424E+01
 g(Force)  = 0.103E-01   g(Stress)= 0.508E-02 ortho     = 0.454E-02
 gamma     =   0.00255
 trial     =   0.96183
 opt step  =   3.11627  (harmonic =   3.11627) maximal distance =0.02789555
 next E    =   -47.366940   (d E  =  -0.02391)

[...]

 d Force = 0.1417120E-02[ 0.139E-02, 0.144E-02]  d Energy =-0.1690242E-02 0.311E-02
 d Force =-0.1020392E+02[-0.102E+02,-0.102E+02]  d Ewald  =-0.8829624E+01-0.137E+01

 Conjugate gradient step on ions:
 trial-energy change:    0.001690  1 .order   -0.001329   -0.001926   -0.000731
  (g-gl).g = 0.163E-02      g.g   = 0.141E-02  gl.gl    = 0.153E-01
 g(Force)  = 0.104E-02   g(Stress)= 0.376E-03 ortho     =-0.265E-03
 gamma     =   0.10616
 trial     =   1.39271
 opt step  =   2.24518  (harmonic =   2.24518) maximal distance =0.00668679
 next E    =   -47.365666   (d E  =  -0.00155)

[...]

 eigenvalue-minimisations  :   984
 total energy-change (2. order) : 0.2927025E-03  (-0.7346592E-04)
 number of electron      56.0000002 magnetization       6.0000000
 augmentation part       -2.8335443 magnetization       4.1990514

[...]

 Broyden mixing:
  rms(total) = 0.11518E-02    rms(broyden)= 0.11518E-02
  rms(prec ) = 0.14604E-02
  weight for this iteration     100.00

 eigenvalues of (default mixing * dielectric matrix)
  average eigenvalue GAMMA=   1.0025
  1.7733  0.8114  0.4226

[...]

--------------------------------------- Iteration      7(   5)  ---------------------------------------

[...]

 eigenvalue-minimisations  :   608
 total energy-change (2. order) :-0.8942570E-04  (-0.6301050E-05)
 number of electron      56.0000002 magnetization       6.0000000
 augmentation part       -2.8367940 magnetization       4.1966504

 Free energy of the ion-electron system (eV)
  alpha Z        PSCENC =        40.45590114
  Ewald energy   TEWEN  =      7192.37769725
  -Hartree energ DENC   =     -9242.99489151
  -exchange      EXHF   =         0.00000000
  -V(xc)+E(xc)   XCENC  =       -58.80463759
  PAW double counting   =      1281.39775535    -1124.99220480
  entropy T*S    EENTRO =         0.00000000
  eigenvalues    EBANDS =      -453.08140030
  atomic energy  EATOM  =      2318.27820089
  Solvation  Ediel_sol  =         0.00000000
  free energy    TOTEN  =       -47.36357956 eV

  energy without entropy =      -47.36357956  energy(sigma->0) =      -47.36357956

 average (electrostatic) potential at core
  the test charge radii are     1.1394  1.1631  1.0808
  (the norm of the test charge is              1.0000)
       1 -51.5575       2 -51.5575       3 -40.0108       4 -40.0108       5 -61.2594
       6 -61.2594       7 -61.2593       8 -61.2594       9 -61.2594      10 -61.2593

 E-fermi :  -3.2930     XC(G=0):  -3.4349     alpha+bet : -2.5876

[...]

 spin component 2

[...]

 k-point     5 :      -0.4000    0.2000    0.0000
  band No.  band energies     occupation
      1     -16.4203      1.00000
      2     -16.1372      1.00000
      3     -15.9012      1.00000
      4     -15.8156      1.00000
      5     -15.7129      1.00000
      6     -15.5606      1.00000
      7     -11.7699      1.00000
      8     -10.0111      1.00000
      9      -7.5645      1.00000
     10      -7.2259      1.00000
     11      -7.0080      1.00000
     12      -6.7024      1.00000
     13      -6.4810      1.00000
     14      -6.1598      1.00000
     15      -5.7816      1.00000
     16      -5.5389      1.00000
     17      -5.4372      1.00000
     18      -5.3382      1.00000
     19      -5.2122      1.00000
     20      -5.1302      1.00000
     21      -4.8336      1.00000
     22      -4.4849      1.00000
     23      -4.3505      1.00000
     24      -4.1301      1.00000
     25      -3.9587      1.00000
     26      -2.5498      0.00000
     27      -1.7663      0.00000
     28      -1.6401      0.00000
     29      -1.5870      0.00000
     30      -1.0853      0.00000
     31      -0.9762      0.00000
     32      -0.9393      0.00000
     33      -0.6366      0.00000
     34      -0.6129      0.00000
     35      -0.3019      0.00000
     36      -0.2225      0.00000
     37       0.3275      0.00000
     38       0.4442      0.00000
     39       0.7484      0.00000
     40       1.6133      0.00000

[...]

 soft charge-density along one line, spin component           2
         0         1         2         3         4         5         6         7         8         9
 total charge-density along one line

------------------------ aborting loop because EDIFF is reached ----------------------------------------

[...]

  FORCE on cell =-STRESS in cart. coord.  units (eV):
  Direction    XX          YY          ZZ          XY          YZ          ZX
  Alpha Z    40.45590    40.45590    40.45590
  Ewald    8738.14823  8738.14622-10283.91859    -0.00114    -0.00038    -0.00069
  Hartree  9075.05942  9075.05981 -8906.16727    -0.00007     0.00004     0.00007
  E(xc)    -217.48019  -217.48019  -217.23235     0.00002     0.00001     0.00001
  Local  -18514.94772-18514.94726 18460.31229     0.00086     0.00017     0.00032
  n-local   269.61496   271.06991   273.37312     0.71490     0.34635     0.28403
  augment    37.28965    37.28967    34.49039     0.00002     0.00000     0.00003
  Kinetic   573.41329   568.50324   598.41540    -3.63513     0.95471     0.95636
  Fock        0.00000     0.00000     0.00000     0.00000     0.00000     0.00000
  Total      -0.17458    -0.17458    -0.27111     0.00000    -0.00000    -0.00000
  in kB      -0.34731    -0.34731    -0.53936     0.00000    -0.00000    -0.00000

 VOLUME and BASIS-vectors are now :
  energy-cutoff  :      520.00
  volume of cell :      805.33
      direct lattice vectors                 reciprocal lattice vectors
     6.369108024 -0.000000030  0.000000000     0.157007856 -0.090648523 -0.000000000
     3.184553654  5.515809053  0.000000000     0.000000001  0.181297066 -0.000000000
     0.000000000  0.000000000 22.923872080    -0.000000000 -0.000000000  0.043622648

  length of vectors
     6.369108024  6.369107589 22.923872080     0.181297054  0.181297066  0.043622648

 FORCES acting on ions
    electron-ion (+dipol)            ewald-force                    non-local-force                 convergence-correction
   -.110E-03 -.675E-04 0.393E+00   0.344E-03 0.205E-03 -.395E+00   -.347E-17 0.398E-20 0.104E-01   -.598E-07 -.360E-07 -.447E-04
   0.110E-03 0.675E-04 -.393E+00   -.344E-03 -.205E-03 0.395E+00   -.269E-20 0.347E-17 -.104E-01   0.598E-07 0.360E-07 0.447E-04
   -.276E-04 -.263E-04 0.191E+03   -.170E-03 -.945E-04 -.188E+03   0.437E-17 -.991E-17 -.324E+01   0.153E-07 0.188E-08 -.874E-02
   0.276E-04 0.263E-04 -.191E+03   0.170E-03 0.945E-04 0.188E+03   -.148E-16 0.991E-17 0.324E+01   -.153E-07 -.188E-08 0.874E-02
   -.671E+01 -.315E-01 -.406E+03   0.457E+01 0.345E-01 0.408E+03   0.216E+01 -.161E-02 -.227E+01   -.358E-03 -.252E-04 0.179E-01
   0.332E+01 0.582E+01 -.406E+03   -.226E+01 -.398E+01 0.408E+03   -.108E+01 -.187E+01 -.227E+01   0.157E-03 0.322E-03 0.179E-01
   0.338E+01 -.579E+01 -.406E+03   -.232E+01 0.394E+01 0.408E+03   -.108E+01 0.187E+01 -.227E+01   0.201E-03 -.297E-03 0.179E-01
   0.671E+01 0.315E-01 0.406E+03   -.457E+01 -.345E-01 -.408E+03   -.216E+01 0.161E-02 0.227E+01   0.358E-03 0.252E-04 -.179E-01
   -.332E+01 -.582E+01 0.406E+03   0.226E+01 0.398E+01 -.408E+03   0.108E+01 0.187E+01 0.227E+01   -.157E-03 -.322E-03 -.179E-01
   -.338E+01 0.579E+01 0.406E+03   0.232E+01 -.394E+01 -.408E+03   0.108E+01 -.187E+01 0.227E+01   -.201E-03 0.297E-03 -.179E-01
   0.507E-10 0.903E-10 0.988E-10   0.213E-13 -.178E-14 -.227E-12   0.444E-15 -.222E-15 0.000E+00   0.158E-12 -.277E-12 -.849E-11

 POSITION                                       TOTAL-FORCE (eV/Angst)
      3.18455      1.83860     11.46022         0.000000      0.000000      0.008204
      6.36911      3.67721     11.46366         0.000000      0.000000     -0.008204
      0.00000      0.00000     10.27485         0.000000      0.000000     -0.118818
      0.00000      0.00000     12.64903         0.000000      0.000000      0.118818
      3.98175      0.00069     13.10340         0.026336      0.002048     -0.059685
      1.19428      2.06717     13.10340        -0.011394     -0.023832     -0.059685
      4.37764      3.44795     13.10340        -0.014942      0.021784     -0.059685
      5.57191      5.51512      9.82047        -0.026336     -0.002048      0.059685
      8.35938      3.44864      9.82047         0.011394      0.023832      0.059685
      5.17602      2.06785      9.82047         0.014942     -0.021784      0.059685
    total drift:                                0.000000      0.000000      0.000000

  FREE ENERGIE OF THE ION-ELECTRON SYSTEM (eV)
  free  energy   TOTEN  =       -47.36357956 eV

  energy  without entropy=      -47.36357956  energy(sigma->0) =      -47.36357956

 d Force = 0.8398575E-03[ 0.829E-03, 0.851E-03]  d Energy = 0.1156551E-02-0.317E-03
 d Force =-0.6234465E+01[-0.623E+01,-0.624E+01]  d Ewald  =-0.5389983E+01-0.844E+00

 reached required accuracy - stopping structural energy minimisation

 total charge

[...]

 magnetization (x)

# of ion       s       p       d       tot
    1        0.037   0.042   2.973   3.051
    2        0.037   0.042   2.973   3.051
    3        0.004   0.046  -0.002   0.048
    4        0.004   0.046  -0.002   0.048
    5       -0.001  -0.088   0.005  -0.083
    6       -0.002  -0.073   0.006  -0.068
    7       -0.001  -0.083   0.006  -0.078
    8       -0.001  -0.088   0.005  -0.083
    9       -0.002  -0.073   0.006  -0.068
   10       -0.001  -0.083   0.006  -0.078
tot          0.076  -0.310   5.975   5.740

 BZINTS: Fermi energy: -3.293012; 56.000000 electrons
         Band energy:-453.081400;  BLOECHL correction:  0.000000