 vasp.5.4.4.18Apr17-6-g9f103f2a35 (build May  1 2020 15:48:39) complex
 executed on             LinuxGNU date 2020.06.18  11:04:35

 INCAR:
 POTCAR:   PAW_PBE Ni 06Sep2000
 POTCAR:   PAW_PBE Si 05Jan2001
 POTCAR:    PAW_PBE P 17Jan2003
 POTCAR:    PAW_PBE S 17Jan2003

 POTCAR:   PAW_PBE Ni 06Sep2000
   VRHFIN =Ni:

   TITEL  = PAW_PBE Ni 06Sep2000
   POMASS =   58.690; ZVAL   =   10.000    mass and valenz
   ENMAX  =  269.533; ENMIN  =  202.150 eV
   QCUT   =   -4.451; QGAM   =    8.902    optimization parameters

   Description
     l     E      TYP  RCUT    TYP  RCUT
     2   .000     23  2.300
     2   .000     23  2.300
     0   .000     23  2.300
     0   .000     23  2.300
     1  -.200     23  2.300
     1   .000     23  2.300
     3   .000      7   .000

 POTCAR:   PAW_PBE Si 05Jan2001
   VRHFIN =Si: s2p2

   TITEL  = PAW_PBE Si 05Jan2001
   POMASS =   28.085; ZVAL   =    4.000    mass and valenz
   ENMAX  =  245.345; ENMIN  =  184.009 eV
   QCUT   =   -4.246; QGAM   =    8.493    optimization parameters

[...]

 POTCAR:    PAW_PBE P 17Jan2003
   VRHFIN =P : s2p3

[...]

 POTCAR:    PAW_PBE S 17Jan2003
   VRHFIN =S : s2p4

   TITEL  = PAW_PBE S 17Jan2003
   POMASS =   32.066; ZVAL   =    6.000    mass and valenz
   ENMAX  =  280.000; ENMIN  =  194.016 eV
   QCUT   =   -4.360; QGAM   =    8.721    optimization parameters

   Description
     l     E      TYP  RCUT    TYP  RCUT
     0   .000     23  1.900
     0   .000     23  1.900
     1   .000     23  1.900
     1   .000     23  1.900
     2   .000     23  1.900

 Optimization of the real space projectors (new method)

 maximal supplied QI-value         = 16.25
 optimisation between [QCUT,QGAM] = [ 11.54, 23.24] = [ 37.28,151.24] Ry
 Optimized for a Real-space Cutoff    1.49 Angstroem

   l    n(q)    QCUT    max X(q) W(low)/X(q) W(high)/X(q)  e(spline)
   2      9    11.539     4.811    0.20E-04    0.14E-04    0.45E-07
   2      9    11.539    15.146    0.24E-03    0.12E-03    0.20E-06
   0     10    11.539    14.357    0.18E-04    0.12E-05    0.14E-07
   0     10    11.539    43.282    0.39E-04    0.17E-04    0.23E-06
   1     10    11.539     5.514    0.99E-05    0.13E-04    0.19E-07
   1     10    11.539     7.697    0.38E-04    0.79E-04    0.91E-07
 Optimization of the real space projectors (new method)

[...]

   l    n(q)    QCUT    max X(q) W(low)/X(q) W(high)/X(q)  e(spline)
   0      8    11.508     6.651    0.19E-04    0.31E-05    0.49E-08
   0      8    11.508    90.285    0.95E-04    0.17E-03    0.51E-07
   1      8    11.508     4.328    0.14E-04    0.32E-04    0.22E-07
   1      8    11.508    54.583    0.16E-03    0.71E-04    0.89E-07
 Optimization of the real space projectors (new method)

 maximal supplied QI-value         = 19.84
 optimisation between [QCUT,QGAM] = [ 11.51, 23.22] = [ 37.09,150.92] Ry
 Optimized for a Real-space Cutoff    1.21 Angstroem

   l    n(q)    QCUT    max X(q) W(low)/X(q) W(high)/X(q)  e(spline)
   0      8    11.508     5.487    0.18E-04    0.22E-05    0.47E-08
   0      8    11.508    85.627    0.96E-04    0.18E-03    0.54E-07
   1      8    11.508     3.530    0.17E-04    0.28E-04    0.21E-07
   1      8    11.508    42.714    0.18E-03    0.63E-04    0.92E-07

 PAW_PBE Ni 06Sep2000                   :
 PAW_PBE Si 05Jan2001                   :
  PAW_PBE P 17Jan2003                   :
  PAW_PBE S 17Jan2003                   :

 POSCAR: Ni2 Si P S6
  positions in direct lattice
  velocities in cartesian coordinates
 exchange correlation table for  LEXCH =       42
   RHO(1)=    0.500       N(1)  =     2000
   RHO(2)=  100.500       N(2)  =     4000

 ion  position               nearest neighbor table
   1  0.333  0.333  0.500-   6 2.78   5 2.78   7 2.78   8 2.78  10 2.78   9 2.78
   2  0.667  0.667  0.500-   9 2.78   8 2.78  10 2.78   5 2.78   7 2.78   6 2.78
   3  0.000  0.000  0.448-   4 2.43   8 2.63  10 2.63   9 2.63
   4  0.000  0.000  0.552-   3 2.43   5 2.63   7 2.63   6 2.63
   5  0.626  0.000  0.574-   4 2.63   1 2.78   2 2.78
   6  0.000  0.373  0.574-   4 2.63   1 2.78   2 2.78
   7  0.373  0.626  0.574-   4 2.63   1 2.78   2 2.78
   8  0.374  1.000  0.426-   3 2.63   2 2.78   1 2.78
   9  1.000  0.627  0.426-   3 2.63   2 2.78   1 2.78
  10  0.627  0.374  0.426-   3 2.63   2 2.78   1 2.78

  LATTYP: Found a hexagonal cell.
 ALAT       =     6.9077769333
 C/A-ratio  =     3.3939410937

  Lattice vectors:

 A1 = (   3.4538890000,  -5.9823100000,   0.0000000000)
 A2 = (  -6.9077770000,   0.0000000000,   0.0000000000)
 A3 = (   0.0000000000,   0.0000000000, -23.4445880000)

Analysis of symmetry for initial positions (statically):
 Subroutine PRICEL returns:
 Original cell was already a primitive cell.

 Routine SETGRP: Setting up the symmetry group for a
 hexagonal supercell.

 Subroutine GETGRP returns: Found  3 space group operations
 (whereof  3 operations were pure point group operations)
 out of a pool of 24 trial point group operations.

The static configuration has the point symmetry C_3 .

Analysis of symmetry for dynamics (positions and initial velocities):
 Subroutine PRICEL returns:
 Original cell was already a primitive cell.

[...]

The dynamic configuration has the point symmetry C_3 .

Analysis of constrained symmetry for selective dynamics:
 Subroutine PRICEL returns:
 Original cell was already a primitive cell.

[...]

The constrained configuration has the point symmetry C_3 .

Analysis of structural, dynamic, and magnetic symmetry:
 Subroutine PRICEL returns:
 Original cell was already a primitive cell.

 Routine SETGRP: Setting up the symmetry group for a
 hexagonal supercell.

 Subroutine GETGRP returns: Found  3 space group operations
 (whereof  3 operations were pure point group operations)
 out of a pool of 24 trial point group operations.

The magnetic configuration has the point symmetry C_3 .

 Subroutine INISYM returns: Found  3 space group operations
 (whereof  3 operations are pure point group operations),
 and found     1 'primitive' translations

 KPOINTS: Kpoints from vasprun.xml

Automatic generation of k-mesh.
Space group operators:
 irot       det(A)        alpha          n_x          n_y          n_z        tau_x        tau_y        tau_z
    1     1.000000     0.000000     1.000000     0.000000     0.000000     0.000000     0.000000     0.000000
    2     1.000000   120.000000     0.000000     0.000000     1.000000     0.000000     0.000000     0.000000
    3     1.000000   120.000000     0.000000     0.000000    -1.000000     0.000000     0.000000     0.000000

 Subroutine IBZKPT returns following result:

 Found      5 irreducible k-points:

 Following reciprocal coordinates:
            Coordinates               Weight
  0.000000  0.000000  0.000000      1.000000
  0.200000  0.000000  0.000000      6.000000
  0.400000  0.000000  0.000000      6.000000
  0.400000  0.200000  0.000000      6.000000
 -0.400000  0.200000  0.000000      6.000000

 Following cartesian coordinates:
            Coordinates               Weight
  0.000000  0.000000  0.000000      1.000000
  0.028953 -0.016716  0.000000      6.000000
  0.057906 -0.033432  0.000000      6.000000
  0.057906  0.000000  0.000000      6.000000
 -0.057906  0.066864  0.000000      6.000000

 TETIRR: Found     15 inequivalent tetrahedra from      150

 SYSTEM =  unknown system
 POSCAR =  Ni2 Si P S6

 Startparameter for this run:
   NWRITE =      2    write-flag & timer
   PREC   = accura    normal or accurate (medium, high low for compatibility)
   ISTART =      0    job   : 0-new  1-cont  2-samecut
   ICHARG =      2    charge: 1-file 2-atom 10-const
   ISPIN  =      2    spin polarized calculation?
   LNONCOLLINEAR =      F non collinear calculations
   LSORBIT =      F    spin-orbit coupling
   INIWAV =      1    electr: 0-lowe 1-rand  2-diag
   LASPH  =      F    aspherical Exc in radial PAW
   METAGGA=      F    non-selfconsistent MetaGGA calc.

 Electronic Relaxation 1
   ENCUT  =  520.0 eV  38.22 Ry    6.18 a.u.  12.84 12.84 43.59*2*pi/ulx,y,z
   ENINI  =  520.0     initial cutoff
   ENAUG  =  544.6 eV  augmentation charge cutoff
   NELM   =    400;   NELMIN=  2; NELMDL=  0     # of ELM steps
   EDIFF  = 0.1E-03   stopping-criterion for ELM
   LREAL  =      T    real-space projection
   NLSPLINE    = F    spline interpolate recip. space projectors
   LCOMPAT=      F    compatible to vasp.4.4
   GGA_COMPAT  = T    GGA compatible to vasp.4.4-vasp.4.6
   LMAXPAW     = -100 max onsite density
   LMAXMIX     =    2 max onsite mixed and CHGCAR
   VOSKOWN=      0    Vosko Wilk Nusair interpolation
   ROPT   =   -0.00025  -0.00025  -0.00025  -0.00025
 Ionic relaxation
   EDIFFG = 0.1E-02   stopping-criterion for IOM
   NSW    =     99    number of steps for IOM
   NBLOCK =      1;   KBLOCK =     99    inner block; outer block
   IBRION =      2    ionic relax: 0-MD 1-quasi-New 2-CG
   NFREE  =      1    steps in history (QN), initial steepest desc. (CG)
   ISIF   =      3    stress and relaxation
   IWAVPR =     11    prediction:  0-non 1-charg 2-wave 3-comb
   ISYM   =      2    0-nonsym 1-usesym 2-fastsym
   LCORR  =      T    Harris-Foulkes like correction to forces

   POTIM  = 0.5000    time-step for ionic-motion
   TEIN   =    0.0    initial temperature
   TEBEG  =    0.0;   TEEND  =   0.0 temperature during run
   SMASS  =  -3.00    Nose mass-parameter (am)
   estimated Nose-frequenzy (Omega)   =  0.10E-29 period in steps =****** mass=  -0.109E-26a.u.
   SCALEE = 1.0000    scale energy and forces
   NPACO  =    256;   APACO  = 16.0  distance and # of slots for P.C.
   PSTRESS=    0.0 pullay stress

  Mass of Ions in am
   POMASS =  58.69 28.09 30.97 32.07
  Ionic Valenz
   ZVAL   =  10.00  4.00  5.00  6.00
  Atomic Wigner-Seitz radii
  virtual crystal weights
   VCA    =   1.00  1.00  1.00  1.00
   NELECT =      65.0000    total number of electrons
   NUPDOWN=      -1.0000    fix difference up-down

 DOS related values:
   EMIN   =  10.00;   EMAX   =-10.00  energy-range for DOS
   EFERMI =   0.00
   ISMEAR =    -5;   SIGMA  =   0.05  broadening in eV -4-tet -1-fermi 0-gaus

 Electronic relaxation 2 (details)
   IALGO  =     38    algorithm
   LDIAG  =      T    sub-space diagonalisation (order eigenvalues)
   LSUBROT=      F    optimize rotation matrix (better conditioning)
   TURBO    =      0    0=normal 1=particle mesh
   IRESTART =      0    0=no restart 2=restart with 2 vectors
   NREBOOT  =      0    no. of reboots
   NMIN     =      0    reboot dimension
   EREF     =   0.00    reference energy to select bands
   IMIX   =      4    mixing-type and parameters
     AMIX     =   0.40;   BMIX     =  1.00
     AMIX_MAG =   1.60;   BMIX_MAG =  1.00
     AMIN     =   0.01
     WC   =   100.;   INIMIX=   1;  MIXPRE=   1;  MAXMIX= -45

 Intra band minimization:
   WEIMIN = 0.0010     energy-eigenvalue tresh-hold
   EBREAK =  0.52E-06  absolut break condition
   DEPER  =   0.30     relativ break condition

   TIME   =   0.40     timestep for ELM

  volume/ion in A,a.u.               =      96.88       653.80
  Fermi-wavevector in a.u.,A,eV,Ry     =   0.665216  1.257076  6.020745  0.442512
  Thomas-Fermi vector in A             =   1.739143

 Write flags
[...]
   0.878E+01 -.155E+02 -.426E+03   -.752E+01 0.133E+02 0.429E+03   -.191E+01 0.332E+01 -.500E+01   0.117E-02 -.119E-01 -.117E+00
   0.249E+02 -.164E+00 0.431E+03   -.219E+02 0.154E+00 -.435E+03   -.450E+01 0.145E-01 0.509E+01   0.870E-02 0.162E-02 0.160E+00
   -.126E+02 -.215E+02 0.431E+03   0.111E+02 0.189E+02 -.435E+03   0.226E+01 0.389E+01 0.509E+01   -.295E-02 -.835E-02 0.160E+00
   -.123E+02 0.217E+02 0.431E+03   0.108E+02 -.191E+02 -.435E+03   0.224E+01 -.391E+01 0.509E+01   -.576E-02 0.673E-02 0.160E+00
   -.595E-04 0.121E-03 -.891E+00   0.000E+00 0.355E-14 0.568E-13   0.444E-15 -.888E-15 0.662E+00   0.510E-06 0.785E-06 0.228E+00

 POSITION                                       TOTAL-FORCE (eV/Angst)
      3.45388      1.99410     11.72054         0.000000     -0.000000      0.005478
      6.90778      3.98821     11.72405        -0.000000      0.000000     -0.013364
      0.00000      0.00000     10.50824         0.000000      0.000000     -0.036813
      0.00000      0.00000     12.93635        -0.000000      0.000000      0.064901
      4.32819      0.00251     13.45138         1.296581     -0.002947     -1.689806
      1.29198      2.23274     13.45138        -0.650843     -1.121398     -1.689806
      4.74152      3.74706     13.45138        -0.645738      1.124346     -1.689806
      6.03348      5.97980      9.99321        -1.496968      0.004469      1.683071
      9.06969      3.74957      9.99321         0.752354      1.294177      1.683071
      5.62015      2.23525      9.99321         0.744613     -1.298647      1.683071
    total drift:                               -0.000059      0.000122     -0.000558

  FREE ENERGIE OF THE ION-ELECTRON SYSTEM (eV)
  free  energy   TOTEN  =       -35.74992175 eV

  energy  without entropy=      -35.74992175  energy(sigma->0) =      -35.74992175

[...]

 d Force = 0.7978299E+00[ 0.362E+00, 0.123E+01]  d Energy = 0.8764507E+01-0.797E+01
 d Force =-0.2226402E+03[-0.261E+03,-0.185E+03]  d Ewald  =-0.2768345E+04 0.255E+04

 Steepest descent step on ions:
 trial-energy change:   -8.764507  1 .order   -8.529924  -12.266916   -4.792931
  (g-gl).g = 0.123E+02      g.g   = 0.123E+02  gl.gl    = 0.000E+00
 g(Force)  = 0.139E+01   g(Stress)= 0.109E+02 ortho     = 0.000E+00
 gamma     =   0.00000
 trial     =   1.00000
 opt step  =   1.50003  (harmonic =   1.64128) maximal distance =0.12179622
 next E    =   -45.742063   (d E  =  -9.99214)

[...]

 d Force =-0.3388947E+00[-0.870E+00, 0.192E+00]  d Energy =-0.3152132E+01 0.281E+01
 d Force =-0.1506527E+03[-0.165E+03,-0.136E+03]  d Ewald  =-0.1985597E+04 0.183E+04

[...]

 d Force = 0.3514464E+00[-0.348E-01, 0.738E+00]  d Energy = 0.3202868E+01-0.285E+01
 d Force = 0.1263202E+03[ 0.117E+03, 0.136E+03]  d Ewald  = 0.1547688E+04-0.142E+04

[...]

 d Force =-0.1597503E-02[-0.161E-02,-0.159E-02]  d Energy = 0.8021726E-01-0.818E-01
 d Force = 0.5582764E+01[ 0.556E+01, 0.560E+01]  d Ewald  = 0.6908252E+02-0.635E+02

[...]

 d Force =-0.4356923E-02[-0.596E-02,-0.276E-02]  d Energy = 0.7561937E-02-0.119E-01
 d Force = 0.9449529E+01[ 0.939E+01, 0.951E+01]  d Ewald  = 0.1164130E+03-0.107E+03

[...]

 d Force = 0.5643013E-01[-0.303E-02, 0.116E+00]  d Energy = 0.5966455E-01-0.323E-02
 d Force = 0.2392673E+02[ 0.236E+02, 0.242E+02]  d Ewald  =-0.1390812E+03 0.163E+03

 Conjugate gradient step on ions:
 trial-energy change:   -0.059665  1 .order   -0.061500   -0.129477    0.006477
  (g-gl).g = 0.189E+00      g.g   = 0.128E+00  gl.gl    = 0.123E+02
 g(Force)  = 0.111E+00   g(Stress)= 0.169E-01 ortho     =-0.606E-01
 gamma     =   0.01540
 trial     =   1.01623
 opt step  =   0.96379  (harmonic =   0.96782) maximal distance =0.03379953
 next E    =   -44.713879   (d E  =  -0.05983)

[...]

 d Force =-0.1599294E-04[-0.176E-03, 0.144E-03]  d Energy = 0.1741122E-03-0.190E-03
 d Force =-0.1211567E+01[-0.121E+01,-0.121E+01]  d Ewald  = 0.7211572E+01-0.842E+01

[...]

 d Force = 0.2942929E-01[ 0.182E-01, 0.406E-01]  d Energy = 0.3707884E-01-0.765E-02
 d Force = 0.7818323E+01[ 0.768E+01, 0.796E+01]  d Ewald  = 0.1246208E+03-0.117E+03

[...]

 Conjugate gradient step on ions:
 trial-energy change:   -0.003364  1 .order   -0.003514   -0.005988   -0.001039
  (g-gl).g =-0.305E-02      g.g   = 0.581E-02  gl.gl    = 0.501E-01
 g(Force)  = 0.565E-02   g(Stress)= 0.159E-03 ortho     = 0.623E-02
 gamma     =  -0.06085
 trial     =   1.10231
 opt step  =   1.33381  (harmonic =   1.33381) maximal distance =0.00392159
 next E    =   -44.761776   (d E  =  -0.00362)

[...]

 d Force = 0.1868343E-03[ 0.736E-04, 0.300E-03]  d Energy = 0.2236182E-03-0.368E-04
 d Force =-0.5879135E+00[-0.586E+00,-0.589E+00]  d Ewald  =-0.2354260E+01 0.177E+01

[...]

 d Force = 0.2580175E-02[ 0.226E-02, 0.290E-02]  d Energy = 0.1037197E-02 0.154E-02
 d Force = 0.3116861E+01[ 0.314E+01, 0.309E+01]  d Ewald  =-0.3148267E+02 0.346E+02

 Conjugate gradient step on ions:
 trial-energy change:   -0.001037  1 .order   -0.001743   -0.004131    0.000645
  (g-gl).g = 0.341E-02      g.g   = 0.438E-02  gl.gl    = 0.581E-02
 g(Force)  = 0.323E-02   g(Stress)= 0.115E-02 ortho     = 0.834E-03
 gamma     =   0.58590
 trial     =   0.84818
 opt step  =   0.56697  (harmonic =   0.73362) maximal distance =0.00177778
 next E    =   -44.762910   (d E  =  -0.00117)

[...]

 d Force =-0.7812590E-03[-0.811E-03,-0.752E-03]  d Energy = 0.7041361E-04-0.852E-03
 d Force =-0.1040600E+01[-0.104E+01,-0.104E+01]  d Ewald  = 0.1044923E+02-0.115E+02

[...]

 d Force = 0.1758897E-02[ 0.151E-02, 0.201E-02]  d Energy = 0.1876384E-02-0.117E-03
 d Force = 0.3877692E+01[ 0.389E+01, 0.387E+01]  d Ewald  =-0.2427290E+01 0.630E+01

 Conjugate gradient step on ions:
 trial-energy change:   -0.001876  1 .order   -0.002004   -0.002236   -0.001773
  (g-gl).g = 0.497E-02      g.g   = 0.578E-02  gl.gl    = 0.438E-02
 g(Force)  = 0.242E-02   g(Stress)= 0.336E-02 ortho     = 0.492E-03
 gamma     =   1.13354
 trial     =   0.35263
 opt step  =   1.41052  (harmonic =   1.70354) maximal distance =0.00914933
 next E    =   -44.768249   (d E  =  -0.00540)

[...]

 d Force = 0.2063611E-02[-0.410E-03, 0.454E-02]  d Energy = 0.1795267E-02 0.268E-03
 d Force = 0.1175173E+02[ 0.118E+02, 0.117E+02]  d Ewald  =-0.7152950E+01 0.189E+02

[...]

 d Force = 0.1117054E-02[ 0.558E-03, 0.168E-02]  d Energy = 0.1296597E-02-0.180E-03
 d Force = 0.2137276E+01[ 0.216E+01, 0.211E+01]  d Ewald  = 0.2840613E+02-0.263E+02

 Conjugate gradient step on ions:
 trial-energy change:   -0.001297  1 .order   -0.001443   -0.002186   -0.000701
  (g-gl).g = 0.457E-02      g.g   = 0.447E-02  gl.gl    = 0.578E-02
 g(Force)  = 0.328E-02   g(Stress)= 0.120E-02 ortho     =-0.759E-03
 gamma     =   0.79087
 trial     =   0.56421
 opt step  =   0.83061  (harmonic =   0.83061) maximal distance =0.00482804
 next E    =   -44.768129   (d E  =  -0.00161)

[...]

 d Force = 0.1297302E-03[-0.417E-05, 0.264E-03]  d Energy = 0.5931633E-04 0.704E-04
 d Force = 0.1025581E+01[ 0.103E+01, 0.102E+01]  d Ewald  = 0.1340497E+02-0.124E+02

[...]

 d Force = 0.3459482E-03[ 0.266E-03, 0.426E-03]  d Energy = 0.3557530E-03-0.980E-05
 d Force =-0.3302587E+01[-0.330E+01,-0.330E+01]  d Ewald  = 0.1353012E+02-0.168E+02

 Conjugate gradient step on ions:
 trial-energy change:   -0.000356  1 .order   -0.000466   -0.000614   -0.000319
  (g-gl).g =-0.438E-03      g.g   = 0.104E-02  gl.gl    = 0.447E-02
 g(Force)  = 0.688E-03   g(Stress)= 0.356E-03 ortho     = 0.519E-03
 gamma     =  -0.09779
 trial     =   0.61749
 opt step  =   1.28482  (harmonic =   1.28482) maximal distance =0.00470428
 next E    =   -44.768514   (d E  =  -0.00064)

[...]

 eigenvalue-minimisations  :   992
 total energy-change (2. order) : 0.5182510E-03  (-0.1781501E-03)
 number of electron      64.9999996 magnetization      -0.0060986
 augmentation part        6.6872250 magnetization      -0.0183367

 Broyden mixing:
  rms(total) = 0.12947E-01    rms(broyden)= 0.12946E-01
  rms(prec ) = 0.14088E-01
  weight for this iteration     100.00

 eigenvalues of (default mixing * dielectric matrix)
  average eigenvalue GAMMA=   0.3471
  0.4708  0.2234

[...]

--------------------------------------- Iteration     21(   4)  ---------------------------------------

[...]

 eigenvalue-minimisations  :  1008
 total energy-change (2. order) :-0.5606750E-04  (-0.8018383E-04)
 number of electron      64.9999996 magnetization      -0.0060986
 augmentation part        6.6872250 magnetization      -0.0183367

 Free energy of the ion-electron system (eV)
  alpha Z        PSCENC =        39.55049659
  Ewald energy   TEWEN  =     11312.74726056
  -Hartree energ DENC   =    -15037.21881969
  -exchange      EXHF   =         0.00000000
  -V(xc)+E(xc)   XCENC  =       128.79467708
  PAW double counting   =      2541.11209595    -2628.76582512
  entropy T*S    EENTRO =         0.00000000
  eigenvalues    EBANDS =      -511.94729920
  atomic energy  EATOM  =      4110.95894311
  Solvation  Ediel_sol  =         0.00000000
  free energy    TOTEN  =       -44.76847071 eV

  energy without entropy =      -44.76847071  energy(sigma->0) =      -44.76847071

 average (electrostatic) potential at core
  the test charge radii are     0.9791  0.9892  0.9587  0.9698
  (the norm of the test charge is              1.0000)
       1 -49.9568       2 -49.9726       3 -92.7277       4 -92.8948       5 -94.4977
       6 -94.4977       7 -94.4976       8 -94.1510       9 -94.1510      10 -94.1509

 E-fermi :  -2.6684     XC(G=0):  -3.7311     alpha+bet : -3.1098

[...]

 spin component 2

[...]

 k-point     5 :      -0.4000    0.2000    0.0000
  band No.  band energies     occupation
      1     -18.0134      1.00000
      2     -16.3892      1.00000
      3     -16.1900      1.00000
      4     -16.0349      1.00000
      5     -15.6496      1.00000
      6     -15.4485      1.00000
      7     -11.8898      1.00000
      8      -9.9749      1.00000
      9      -8.7434      1.00000
     10      -8.2938      1.00000
     11      -8.0861      1.00000
     12      -7.5706      1.00000
     13      -7.3730      1.00000
     14      -6.7439      1.00000
     15      -6.5413      1.00000
     16      -6.2353      1.00000
     17      -6.1839      1.00000
     18      -6.0714      1.00000
     19      -5.8016      1.00000
     20      -5.6882      1.00000
     21      -5.5086      1.00000
     22      -4.9136      1.00000
     23      -4.7975      1.00000
     24      -4.6576      1.00000
     25      -4.5442      1.00000
     26      -4.3428      1.00000
     27      -4.2923      1.00000
     28      -4.1259      1.00000
     29      -3.8715      1.00000
     30      -3.8187      1.00000
     31      -3.7076      1.00000
     32      -2.8468      1.00000
     33      -2.7210      0.87988
     34      -2.1142      0.00000
     35      -1.8753      0.00000
     36      -0.5163      0.00000
     37       0.4901      0.00000
     38       0.5593      0.00000
     39       0.9791      0.00000
     40       1.5530      0.00000
     41       1.8044      0.00000
     42       1.9955      0.00000
     43       2.9677      0.00000
     44       3.1469      0.00000
     45       3.2867      0.00000
     46       3.3397      0.00000
     47       3.5111      0.00000
     48       4.0318      0.00000

[...]

 soft charge-density along one line, spin component           2
         0         1         2         3         4         5         6         7         8         9
 total charge-density along one line

------------------------ aborting loop because EDIFF is reached ----------------------------------------

[...]

  FORCE on cell =-STRESS in cart. coord.  units (eV):
  Direction    XX          YY          ZZ          XY          YZ          ZX
  Alpha Z    39.55050    39.55050    39.55050
  Ewald   13696.89014 13696.88689-16081.03215    -0.00211    -0.00066    -0.00119
  Hartree 14449.54884 14449.54975-13860.87500    -0.00040     0.00006     0.00010
  E(xc)    -271.80313  -271.80316  -271.55318     0.00004     0.00000     0.00001
  Local  -29071.46176-29071.46101 28977.42017     0.00207     0.00039     0.00072
  n-local   463.38619   464.33019   465.28369     0.43845     0.27816     0.17602
  augment   -14.32443   -14.32455   -18.71969     0.00020    -0.00001     0.00007
  Kinetic   713.37159   703.00236   750.34502    -5.02748    -1.78412    -2.30409
  Fock        0.00000     0.00000     0.00000     0.00000     0.00000     0.00000
  Total       0.44445     0.44445     0.41936    -0.00000    -0.00000    -0.00000
  in kB       1.13710     1.13710     1.07290    -0.00000    -0.00000    -0.00000

 VOLUME and BASIS-vectors are now :
  energy-cutoff  :      520.00
  volume of cell :      626.24
      direct lattice vectors                 reciprocal lattice vectors
     5.820366479  0.000000334  0.000000000     0.171810493 -0.099194816  0.000000000
     2.910182690  5.040585206 -0.000000000    -0.000000011  0.198389669 -0.000000000
    -0.000000000  0.000000000 21.345636154    -0.000000000  0.000000000  0.046847983

  length of vectors
     5.820366479  5.820366184 21.345636154     0.198389659  0.198389669  0.046847983

 FORCES acting on ions
    electron-ion (+dipol)            ewald-force                    non-local-force                 convergence-correction
   -.163E-03 -.143E-03 0.229E+01   0.925E-03 0.545E-03 -.306E+01   0.686E-17 -.136E-16 0.798E+00   -.170E-06 0.221E-05 -.151E-01
   0.191E-03 0.744E-04 0.233E+01   -.927E-03 -.545E-03 -.310E+01   -.776E-19 0.142E-16 0.801E+00   -.321E-06 0.195E-05 -.168E-01
   -.400E-04 -.173E-04 0.304E+03   -.233E-03 -.131E-03 -.301E+03   0.212E-16 -.139E-17 -.366E+01   -.597E-07 -.360E-07 -.208E-01
   0.502E-04 -.123E-04 -.323E+03   0.276E-03 0.154E-03 0.316E+03   -.731E-18 0.167E-16 0.755E+01   0.157E-06 0.595E-07 0.252E-01
   -.386E+01 -.132E+00 -.608E+03   0.571E+00 -.710E-03 0.611E+03   0.329E+01 0.202E-01 -.396E+01   0.172E-01 0.118E+00 0.325E-01
   0.181E+01 0.340E+01 -.608E+03   -.287E+00 -.494E+00 0.611E+03   -.163E+01 -.286E+01 -.396E+01   0.938E-01 -.740E-01 0.325E-01
   0.204E+01 -.327E+01 -.608E+03   -.285E+00 0.494E+00 0.611E+03   -.166E+01 0.284E+01 -.396E+01   -.111E+00 -.442E-01 0.325E-01
   0.221E+02 -.178E+00 0.611E+03   -.193E+02 0.308E-01 -.614E+03   -.275E+01 0.262E-01 0.369E+01   -.283E-02 0.129E+00 -.404E-01
   -.112E+02 -.190E+02 0.611E+03   0.970E+01 0.167E+02 -.614E+03   0.140E+01 0.236E+01 0.369E+01   0.113E+00 -.622E-01 -.404E-01
   -.109E+02 0.192E+02 0.611E+03   0.965E+01 -.168E+02 -.614E+03   0.135E+01 -.239E+01 0.369E+01   -.111E+00 -.671E-01 -.404E-01
   0.763E-04 -.118E-03 -.462E+01   -.888E-14 0.711E-14 0.455E-12   0.000E+00 0.000E+00 0.468E+01   0.104E-06 0.451E-05 -.510E-01

 POSITION                                       TOTAL-FORCE (eV/Angst)
      2.91018      1.68019     10.67236        -0.000000      0.000000      0.007990
      5.82037      3.36039     10.67222         0.000000      0.000000      0.014764
     -0.00000      0.00000      9.50944        -0.000000      0.000000     -0.024570
     -0.00000      0.00000     11.73245        -0.000000      0.000000      0.022422
      3.79025     -0.00004     12.19695         0.018949      0.006321     -0.017112
      1.01503      1.75816     12.19695        -0.004000     -0.019571     -0.017112
      3.92528      3.28247     12.19695        -0.014949      0.013249     -0.017112
      2.10519     -0.00010      9.18362        -0.017038      0.007422      0.010243
      1.85750      3.21748      9.18362         0.014946      0.011044      0.010243
      4.76785      1.82320      9.18362         0.002092     -0.018466      0.010243
    total drift:                                0.000076     -0.000114      0.016025

  FREE ENERGIE OF THE ION-ELECTRON SYSTEM (eV)
  free  energy   TOTEN  =       -44.76847071 eV

  energy  without entropy=      -44.76847071  energy(sigma->0) =      -44.76847071

 d Force = 0.1876636E-03[ 0.878E-04, 0.288E-03]  d Energy = 0.2391615E-03-0.515E-04
 d Force =-0.3564937E+01[-0.356E+01,-0.357E+01]  d Ewald  = 0.1460399E+02-0.182E+02

 reached required accuracy - stopping structural energy minimisation

 total charge

[...]

 magnetization (x)

# of ion       s       p       d       tot
    1       -0.000  -0.002   0.698   0.696
    2       -0.000   0.002  -0.705  -0.703
    3       -0.000  -0.000   0.000  -0.000
    4       -0.000  -0.000   0.000  -0.000
    5       -0.000   0.008   0.000   0.007
    6       -0.000   0.007   0.000   0.007
    7        0.000  -0.019   0.000  -0.019
    8        0.000  -0.018   0.000  -0.018
    9       -0.000  -0.013   0.000  -0.013
   10       -0.000   0.025   0.000   0.025
tot         -0.000  -0.010  -0.007  -0.017

 BZINTS: Fermi energy: -2.668396; 65.000000 electrons
         Band energy:-511.947299;  BLOECHL correction: -0.031154