 vasp.5.4.4.18Apr17-6-g9f103f2a35 (build May  1 2020 15:48:39) complex
 executed on             LinuxGNU date 2020.07.07  10:59:41

 INCAR:
 POTCAR:   PAW_PBE Fe 06Sep2000
 POTCAR:   PAW_PBE Ge 05Jan2001
 POTCAR:    PAW_PBE S 17Jan2003

 POTCAR:   PAW_PBE Fe 06Sep2000
   VRHFIN =Fe:  d7 s1

   TITEL  = PAW_PBE Fe 06Sep2000
   POMASS =   55.847; ZVAL   =    8.000    mass and valenz
   ENMAX  =  267.883; ENMIN  =  200.912 eV
   QCUT   =   -4.437; QGAM   =    8.874    optimization parameters

   Description
     l     E      TYP  RCUT    TYP  RCUT
     2   .000     23  2.300
     2   .000     23  2.300
     0   .000     23  2.300
     0   .000     23  2.300
     1  -.200     23  2.300
     1   .000     23  2.300
     3   .000      7   .000

 POTCAR:   PAW_PBE Ge 05Jan2001
   VRHFIN =Ge: s2p2

   TITEL  = PAW_PBE Ge 05Jan2001
   POMASS =   72.610; ZVAL   =    4.000    mass and valenz
   ENMAX  =  173.807; ENMIN  =  130.355 eV
   QCUT   =   -3.574; QGAM   =    7.148    optimization parameters

[...]

 POTCAR:    PAW_PBE S 17Jan2003
   VRHFIN =S : s2p4

   TITEL  = PAW_PBE S 17Jan2003
   POMASS =   32.066; ZVAL   =    6.000    mass and valenz
   ENMAX  =  280.000; ENMIN  =  194.016 eV
   QCUT   =   -4.360; QGAM   =    8.721    optimization parameters

   Description
     l     E      TYP  RCUT    TYP  RCUT
     0   .000     23  1.900
     0   .000     23  1.900
     1   .000     23  1.900
     1   .000     23  1.900
     2   .000     23  1.900

 Optimization of the real space projectors (new method)

 maximal supplied QI-value         = 16.25
 optimisation between [QCUT,QGAM] = [ 11.54, 23.24] = [ 37.28,151.24] Ry
 Optimized for a Real-space Cutoff    1.53 Angstroem

   l    n(q)    QCUT    max X(q) W(low)/X(q) W(high)/X(q)  e(spline)
   2     10    11.539     4.378    0.86E-05    0.15E-04    0.46E-07
   2     10    11.539    23.237    0.11E-03    0.14E-03    0.22E-06
   0     11    11.539    17.641    0.19E-04    0.14E-05    0.18E-07
   0     11    11.539    50.908    0.43E-04    0.16E-04    0.30E-06
   1     10    11.539     6.148    0.11E-04    0.38E-05    0.26E-07
   1     10    11.539     8.345    0.44E-04    0.25E-04    0.11E-06
 Optimization of the real space projectors (new method)

[...]

   l    n(q)    QCUT    max X(q) W(low)/X(q) W(high)/X(q)  e(spline)
   0      9    11.539     8.651    0.22E-04    0.16E-04    0.10E-07
   0      9    11.539    33.192    0.11E-03    0.16E-03    0.65E-07
   1      8    11.539     5.899    0.37E-04    0.28E-04    0.43E-07
   1      8    11.539    27.289    0.22E-03    0.28E-04    0.14E-06
   2      8    11.539     4.673    0.11E-03    0.18E-03    0.58E-07
 Optimization of the real space projectors (new method)

 maximal supplied QI-value         = 19.84
 optimisation between [QCUT,QGAM] = [ 11.51, 23.22] = [ 37.09,150.92] Ry
 Optimized for a Real-space Cutoff    1.21 Angstroem

   l    n(q)    QCUT    max X(q) W(low)/X(q) W(high)/X(q)  e(spline)
   0      8    11.508     5.487    0.18E-04    0.22E-05    0.47E-08
   0      8    11.508    85.627    0.96E-04    0.18E-03    0.54E-07
   1      8    11.508     3.530    0.17E-04    0.28E-04    0.21E-07
   1      8    11.508    42.714    0.18E-03    0.63E-04    0.92E-07

 PAW_PBE Fe 06Sep2000                   :
 PAW_PBE Ge 05Jan2001                   :
  PAW_PBE S 17Jan2003                   :

 POSCAR: Fe2 Ge2 S6
  positions in direct lattice
  velocities in cartesian coordinates
 exchange correlation table for  LEXCH =       42
   RHO(1)=    0.500       N(1)  =     2000
   RHO(2)=  100.500       N(2)  =     4000

 ion  position               nearest neighbor table
   1  0.333  0.333  0.500-   6 2.78   5 2.78   7 2.78   8 2.78  10 2.78   9 2.78
   2  0.667  0.667  0.500-   9 2.78   8 2.78  10 2.78   5 2.78   7 2.78   6 2.78
   3  0.000  0.000  0.448-   4 2.43   8 2.63  10 2.63   9 2.63
   4  0.000  0.000  0.552-   3 2.43   5 2.63   7 2.63   6 2.63
   5  0.626  0.000  0.574-   4 2.63   1 2.78   2 2.78
   6  0.000  0.373  0.574-   4 2.63   1 2.78   2 2.78
   7  0.373  0.626  0.574-   4 2.63   1 2.78   2 2.78
   8  0.374  1.000  0.426-   3 2.63   2 2.78   1 2.78
   9  1.000  0.627  0.426-   3 2.63   2 2.78   1 2.78
  10  0.627  0.374  0.426-   3 2.63   2 2.78   1 2.78

  LATTYP: Found a hexagonal cell.
 ALAT       =     6.9077769333
 C/A-ratio  =     3.3939410937

  Lattice vectors:

 A1 = (   3.4538890000,  -5.9823100000,   0.0000000000)
 A2 = (  -6.9077770000,   0.0000000000,   0.0000000000)
 A3 = (   0.0000000000,   0.0000000000, -23.4445880000)

Analysis of symmetry for initial positions (statically):
 Subroutine PRICEL returns:
 Original cell was already a primitive cell.

 Routine SETGRP: Setting up the symmetry group for a
 hexagonal supercell.

 Subroutine GETGRP returns: Found  6 space group operations
 (whereof  6 operations were pure point group operations)
 out of a pool of 24 trial point group operations.

The static configuration has the point symmetry S_6 .

Analysis of symmetry for dynamics (positions and initial velocities):
 Subroutine PRICEL returns:
 Original cell was already a primitive cell.

[...]

The dynamic configuration has the point symmetry S_6 .

Analysis of constrained symmetry for selective dynamics:
 Subroutine PRICEL returns:
 Original cell was already a primitive cell.

[...]

The constrained configuration has the point symmetry S_6 .

Analysis of structural, dynamic, and magnetic symmetry:
 Subroutine PRICEL returns:
 Original cell was already a primitive cell.

 Routine SETGRP: Setting up the symmetry group for a
 hexagonal supercell.

 Subroutine GETGRP returns: Found  6 space group operations
 (whereof  6 operations were pure point group operations)
 out of a pool of 24 trial point group operations.

The magnetic configuration has the point symmetry S_6 .

 Subroutine INISYM returns: Found  6 space group operations
 (whereof  6 operations are pure point group operations),
 and found     1 'primitive' translations

 KPOINTS: Kpoints from vasprun.xml

Automatic generation of k-mesh.
Space group operators:
 irot       det(A)        alpha          n_x          n_y          n_z        tau_x        tau_y        tau_z
    1     1.000000     0.000000     1.000000     0.000000     0.000000     0.000000     0.000000     0.000000
    2    -1.000000     0.000000     1.000000     0.000000     0.000000     0.000000     0.000000     0.000000
    3     1.000000   120.000000     0.000000     0.000000     1.000000     0.000000     0.000000     0.000000
    4    -1.000000   120.000000     0.000000     0.000000     1.000000     0.000000     0.000000     0.000000
    5     1.000000   120.000000     0.000000     0.000000    -1.000000     0.000000     0.000000     0.000000
    6    -1.000000   120.000000     0.000000     0.000000    -1.000000     0.000000     0.000000     0.000000

 Subroutine IBZKPT returns following result:

 Found      5 irreducible k-points:

 Following reciprocal coordinates:
            Coordinates               Weight
  0.000000  0.000000  0.000000      1.000000
  0.200000  0.000000  0.000000      6.000000
  0.400000  0.000000  0.000000      6.000000
  0.400000  0.200000  0.000000      6.000000
 -0.400000  0.200000  0.000000      6.000000

 Following cartesian coordinates:
            Coordinates               Weight
  0.000000  0.000000  0.000000      1.000000
  0.028953 -0.016716  0.000000      6.000000
  0.057906 -0.033432  0.000000      6.000000
  0.057906  0.000000  0.000000      6.000000
 -0.057906  0.066864  0.000000      6.000000

 TETIRR: Found     15 inequivalent tetrahedra from      150

 SYSTEM =  unknown system
 POSCAR =  Fe2 Ge2 S6

 Startparameter for this run:
   NWRITE =      2    write-flag & timer
   PREC   = accura    normal or accurate (medium, high low for compatibility)
   ISTART =      0    job   : 0-new  1-cont  2-samecut
   ICHARG =      2    charge: 1-file 2-atom 10-const
   ISPIN  =      2    spin polarized calculation?
   LNONCOLLINEAR =      F non collinear calculations
   LSORBIT =      F    spin-orbit coupling
   INIWAV =      1    electr: 0-lowe 1-rand  2-diag
   LASPH  =      F    aspherical Exc in radial PAW
   METAGGA=      F    non-selfconsistent MetaGGA calc.

 Electronic Relaxation 1
   ENCUT  =  520.0 eV  38.22 Ry    6.18 a.u.  12.84 12.84 43.59*2*pi/ulx,y,z
   ENINI  =  520.0     initial cutoff
   ENAUG  =  511.4 eV  augmentation charge cutoff
   NELM   =    400;   NELMIN=  2; NELMDL=  0     # of ELM steps
   EDIFF  = 0.1E-03   stopping-criterion for ELM
   LREAL  =      T    real-space projection
   NLSPLINE    = F    spline interpolate recip. space projectors
   LCOMPAT=      F    compatible to vasp.4.4
   GGA_COMPAT  = T    GGA compatible to vasp.4.4-vasp.4.6
   LMAXPAW     = -100 max onsite density
   LMAXMIX     =    2 max onsite mixed and CHGCAR
   VOSKOWN=      0    Vosko Wilk Nusair interpolation
   ROPT   =   -0.00025  -0.00025  -0.00025
 Ionic relaxation
   EDIFFG = 0.1E-02   stopping-criterion for IOM
   NSW    =     99    number of steps for IOM
   NBLOCK =      1;   KBLOCK =     99    inner block; outer block
   IBRION =      2    ionic relax: 0-MD 1-quasi-New 2-CG
   NFREE  =      1    steps in history (QN), initial steepest desc. (CG)
   ISIF   =      3    stress and relaxation
   IWAVPR =     11    prediction:  0-non 1-charg 2-wave 3-comb
   ISYM   =      2    0-nonsym 1-usesym 2-fastsym
   LCORR  =      T    Harris-Foulkes like correction to forces

   POTIM  = 0.5000    time-step for ionic-motion
   TEIN   =    0.0    initial temperature
   TEBEG  =    0.0;   TEEND  =   0.0 temperature during run
   SMASS  =  -3.00    Nose mass-parameter (am)
   estimated Nose-frequenzy (Omega)   =  0.10E-29 period in steps =****** mass=  -0.109E-26a.u.
   SCALEE = 1.0000    scale energy and forces
   NPACO  =    256;   APACO  = 16.0  distance and # of slots for P.C.
   PSTRESS=    0.0 pullay stress

  Mass of Ions in am
   POMASS =  55.85 72.61 32.07
  Ionic Valenz
   ZVAL   =   8.00  4.00  6.00
  Atomic Wigner-Seitz radii
  virtual crystal weights
   VCA    =   1.00  1.00  1.00
   NELECT =      60.0000    total number of electrons
   NUPDOWN=      -1.0000    fix difference up-down

 DOS related values:
   EMIN   =  10.00;   EMAX   =-10.00  energy-range for DOS
   EFERMI =   0.00
   ISMEAR =    -5;   SIGMA  =   0.05  broadening in eV -4-tet -1-fermi 0-gaus

 Electronic relaxation 2 (details)
   IALGO  =     38    algorithm
   LDIAG  =      T    sub-space diagonalisation (order eigenvalues)
   LSUBROT=      F    optimize rotation matrix (better conditioning)
   TURBO    =      0    0=normal 1=particle mesh
   IRESTART =      0    0=no restart 2=restart with 2 vectors
   NREBOOT  =      0    no. of reboots
   NMIN     =      0    reboot dimension
   EREF     =   0.00    reference energy to select bands
   IMIX   =      4    mixing-type and parameters
     AMIX     =   0.40;   BMIX     =  1.00
     AMIX_MAG =   1.60;   BMIX_MAG =  1.00
     AMIN     =   0.01
     WC   =   100.;   INIMIX=   1;  MIXPRE=   1;  MAXMIX= -45

 Intra band minimization:
   WEIMIN = 0.0010     energy-eigenvalue tresh-hold
   EBREAK =  0.52E-06  absolut break condition
   DEPER  =   0.30     relativ break condition

[...]
  n-local   411.71969   414.06581   421.94385     1.11051     0.44337     0.22135
  augment   -20.90098   -20.90079   -23.49276    -0.00011     0.00003     0.00001
  Kinetic   643.65458   642.36524   680.54776    -1.14338    -0.37974    -0.14930
  Fock        0.00000     0.00000     0.00000     0.00000     0.00000     0.00000
  Total     -25.50834   -25.50833   -11.75002    -0.00000     0.00000     0.00000
  in kB     -42.18353   -42.18352   -19.43119    -0.00000     0.00000     0.00000

 VOLUME and BASIS-vectors are now :
  energy-cutoff  :      520.00
  volume of cell :      968.84
      direct lattice vectors                 reciprocal lattice vectors
     6.907777000 -0.000000000  0.000000000     0.144764372 -0.083579742  0.000000000
     3.453888000  5.982310000  0.000000000     0.000000000  0.167159509 -0.000000000
     0.000000000  0.000000000 23.444588000    -0.000000000  0.000000000  0.042653767

[...]

 FORCES acting on ions
    electron-ion (+dipol)            ewald-force                    non-local-force                 convergence-correction
   0.200E-03 0.952E-04 0.920E+00   0.461E-03 0.278E-03 -.899E+00   0.000E+00 -.867E-18 -.155E-01   0.180E-05 0.104E-05 -.497E-03
   -.200E-03 -.952E-04 -.920E+00   -.461E-03 -.278E-03 0.899E+00   0.173E-17 0.867E-18 0.155E-01   -.180E-05 -.104E-05 0.497E-03
   -.309E-04 0.851E-05 0.174E+03   -.141E-03 -.779E-04 -.172E+03   -.121E-16 0.173E-17 -.321E+01   -.214E-06 -.198E-06 0.609E-01
   0.309E-04 -.851E-05 -.174E+03   0.141E-03 0.779E-04 0.172E+03   0.694E-17 -.173E-17 0.321E+01   0.214E-06 0.198E-06 -.609E-01
   -.166E+02 0.160E+00 -.381E+03   0.139E+02 -.154E+00 0.384E+03   0.372E+01 -.119E-01 -.467E+01   0.221E-01 -.483E-03 -.129E+00
   0.843E+01 0.143E+02 -.381E+03   -.706E+01 -.119E+02 0.384E+03   -.187E+01 -.321E+01 -.467E+01   -.115E-01 -.189E-01 -.129E+00
   0.815E+01 -.145E+02 -.381E+03   -.679E+01 0.121E+02 0.384E+03   -.185E+01 0.322E+01 -.467E+01   -.106E-01 0.194E-01 -.129E+00
   0.166E+02 -.160E+00 0.381E+03   -.139E+02 0.154E+00 -.384E+03   -.372E+01 0.119E-01 0.467E+01   -.221E-01 0.483E-03 0.129E+00
   -.843E+01 -.143E+02 0.381E+03   0.706E+01 0.119E+02 -.384E+03   0.187E+01 0.321E+01 0.467E+01   0.115E-01 0.189E-01 0.129E+00
   -.815E+01 0.145E+02 0.381E+03   0.679E+01 -.121E+02 -.384E+03   0.185E+01 -.322E+01 0.467E+01   0.106E-01 -.194E-01 0.129E+00
   0.907E-10 0.107E-09 0.530E-10   0.888E-15 0.178E-14 -.171E-12   0.111E-14 0.444E-15 -.888E-15   0.230E-13 -.133E-13 -.374E-11

 POSITION                                       TOTAL-FORCE (eV/Angst)
      3.45388      1.99410     11.72054         0.000000     -0.000000      0.004831
      6.90778      3.98821     11.72405         0.000000     -0.000000     -0.004831
      0.00000      0.00000     10.50824         0.000000     -0.000000     -1.199636
      0.00000      0.00000     12.93635         0.000000     -0.000000      1.199636
      4.32819      0.00251     13.45138         0.999885     -0.004669     -1.392395
      1.29198      2.23274     13.45138        -0.503986     -0.863592     -1.392395
      4.74152      3.74706     13.45138        -0.495899      0.868261     -1.392395
      6.03348      5.97980      9.99321        -0.999885      0.004669      1.392395
      9.06969      3.74957      9.99321         0.503986      0.863592      1.392395
      5.62015      2.23525      9.99321         0.495899     -0.868261      1.392395
    total drift:                                0.000000      0.000000      0.000000

  FREE ENERGIE OF THE ION-ELECTRON SYSTEM (eV)
  free  energy   TOTEN  =       -42.05200884 eV

  energy  without entropy=      -42.05200884  energy(sigma->0) =      -42.05200884

[...]

 d Force = 0.4742057E+00[ 0.165E+00, 0.783E+00]  d Energy = 0.5104126E+01-0.463E+01
 d Force =-0.1657737E+03[-0.189E+03,-0.142E+03]  d Ewald  =-0.2061206E+04 0.190E+04

 Steepest descent step on ions:
 trial-energy change:   -5.104126  1 .order   -4.661583   -7.794697   -1.528469
  (g-gl).g = 0.779E+01      g.g   = 0.779E+01  gl.gl    = 0.000E+00
 g(Force)  = 0.851E+00   g(Stress)= 0.694E+01 ortho     = 0.000E+00
 gamma     =   0.00000
 trial     =   1.00000
 opt step  =   1.16338  (harmonic =   1.24392) maximal distance =0.07814752
 next E    =   -47.282926   (d E  =  -5.23092)

[...]

 d Force = 0.3922187E-02[-0.194E-01, 0.272E-01]  d Energy = 0.1994596E+00-0.196E+00
 d Force =-0.3323274E+02[-0.341E+02,-0.324E+02]  d Ewald  =-0.4231509E+03 0.390E+03

[...]

 d Force = 0.3025016E-02[ 0.178E-02, 0.427E-02]  d Energy = 0.5562075E-02-0.254E-02
 d Force = 0.7110544E+01[ 0.707E+01, 0.715E+01]  d Ewald  = 0.9020479E+02-0.831E+02

[...]

 d Force = 0.3942912E+00[ 0.235E+00, 0.553E+00]  d Energy = 0.4232818E+00-0.290E-01
 d Force =-0.1285219E+03[-0.131E+03,-0.126E+03]  d Ewald  = 0.8217776E+02-0.211E+03

 Conjugate gradient step on ions:
 trial-energy change:   -0.423282  1 .order   -0.415601   -0.687801   -0.143401
  (g-gl).g = 0.512E+00      g.g   = 0.661E+00  gl.gl    = 0.779E+01
 g(Force)  = 0.550E+00   g(Stress)= 0.111E+00 ortho     = 0.149E+00
 gamma     =   0.06564
 trial     =   1.02590
 opt step  =   1.27049  (harmonic =   1.29613) maximal distance =0.06810336
 next E    =   -47.801637   (d E  =  -0.44048)

[...]

 d Force = 0.4632684E-01[ 0.360E-01, 0.566E-01]  d Energy = 0.1585709E-01 0.305E-01
 d Force =-0.3193430E+02[-0.321E+02,-0.318E+02]  d Ewald  = 0.1995213E+02-0.519E+02

[...]

 Conjugate gradient step on ions:
 trial-energy change:   -0.096487  1 .order   -0.100679   -0.208313    0.006954
  (g-gl).g = 0.142E+00      g.g   = 0.195E+00  gl.gl    = 0.661E+00
 g(Force)  = 0.428E-01   g(Stress)= 0.152E+00 ortho     =-0.527E-02
 gamma     =   0.21566
 trial     =   1.07482
 opt step  =   1.03569  (harmonic =   1.04010) maximal distance =0.02993031
 next E    =   -47.896909   (d E  =  -0.09661)

[...]

 d Force =-0.2620085E-03[-0.307E-03,-0.217E-03]  d Energy = 0.3511430E-03-0.613E-03
 d Force = 0.2010902E+01[ 0.201E+01, 0.201E+01]  d Ewald  = 0.1683990E+01 0.327E+00

[...]

 d Force = 0.2553249E-01[ 0.567E-02, 0.454E-01]  d Energy =-0.2583319E-01 0.514E-01
 d Force =-0.1589773E+03[-0.161E+03,-0.157E+03]  d Ewald  =-0.8466194E+03 0.688E+03

[...]

 d Force =-0.1177721E-01[-0.210E-01,-0.256E-02]  d Energy = 0.3275593E-01-0.445E-01
 d Force = 0.1090183E+03[ 0.108E+03, 0.110E+03]  d Ewald  = 0.6101678E+03-0.501E+03

[...]

 Conjugate gradient step on ions:
 trial-energy change:   -0.041362  1 .order   -0.040606   -0.049088   -0.032125
  (g-gl).g = 0.432E-01      g.g   = 0.382E-01  gl.gl    = 0.103E+00
 g(Force)  = 0.215E-01   g(Stress)= 0.167E-01 ortho     =-0.436E-02
 gamma     =   0.42146
 trial     =   1.35126
 opt step  =   2.96463  (harmonic =   3.91026) maximal distance =0.05882270
 next E    =   -48.083298   (d E  =  -0.06183)

[...]

 d Force = 0.3966234E-02[ 0.325E-02, 0.468E-02]  d Energy = 0.1283868E-02 0.268E-02
 d Force =-0.3108532E+02[-0.310E+02,-0.312E+02]  d Ewald  =-0.1997018E+02-0.111E+02

[...]

 d Force =-0.2202569E-02[-0.101E-01, 0.566E-02]  d Energy =-0.3243072E-02 0.104E-02
 d Force =-0.4080228E+02[-0.410E+02,-0.406E+02]  d Ewald  =-0.1957095E+03 0.155E+03

 Conjugate gradient step on ions:
 trial-energy change:    0.003243  1 .order    0.002868   -0.012270    0.018005
  (g-gl).g = 0.105E-01      g.g   = 0.670E-02  gl.gl    = 0.382E-01
 g(Force)  = 0.141E-02   g(Stress)= 0.529E-02 ortho     = 0.804E-03
 gamma     =   0.27478
 trial     =   1.77350
 opt step  =   0.71877  (harmonic =   0.71877) maximal distance =0.00532157
 next E    =   -48.089619   (d E  =  -0.00249)

[...]

 eigenvalue-minimisations  :  1200
 total energy-change (2. order) : 0.1525388E-02  (-0.4054491E-03)
 number of electron      59.9999997 magnetization       1.9999996
 augmentation part        2.0919459 magnetization       1.5622922

[...]

 Broyden mixing:
  rms(total) = 0.17795E-02    rms(broyden)= 0.17794E-02
  rms(prec ) = 0.27288E-02
  weight for this iteration     100.00

 eigenvalues of (default mixing * dielectric matrix)
  average eigenvalue GAMMA=   1.1088
  2.3568  1.1317  1.1317  0.2613  0.6627

[...]

--------------------------------------- Iteration     17(   7)  ---------------------------------------

[...]

 eigenvalue-minimisations  :   928
 total energy-change (2. order) :-0.8700363E-04  (-0.3543675E-05)
 number of electron      59.9999997 magnetization       1.9999996
 augmentation part        2.0790044 magnetization       1.5625171

 Free energy of the ion-electron system (eV)
  alpha Z        PSCENC =        35.67484839
  Ewald energy   TEWEN  =     10680.63855174
  -Hartree energ DENC   =    -13451.50603368
  -exchange      EXHF   =         0.00000000
  -V(xc)+E(xc)   XCENC  =        64.68366852
  PAW double counting   =      1791.20094987    -1756.12284460
  entropy T*S    EENTRO =         0.00000000
  eigenvalues    EBANDS =      -485.43012099
  atomic energy  EATOM  =      3072.77161792
  Solvation  Ediel_sol  =         0.00000000
  free energy    TOTEN  =       -48.08936283 eV

  energy without entropy =      -48.08936283  energy(sigma->0) =      -48.08936283

 average (electrostatic) potential at core
  the test charge radii are     1.0103  1.1631  0.9698
  (the norm of the test charge is              1.0000)
       1 -52.1379       2 -52.1379       3 -39.8907       4 -39.8907       5 -94.5825
       6 -94.5825       7 -94.5825       8 -94.5825       9 -94.5825      10 -94.5825

 E-fermi :  -2.8999     XC(G=0):  -3.5489     alpha+bet : -2.7696

[...]

 spin component 2

[...]

 k-point     5 :      -0.4000    0.2000    0.0000
  band No.  band energies     occupation
      1     -16.7795      1.00000
      2     -16.5561      1.00000
      3     -16.0834      1.00000
      4     -15.9361      1.00000
      5     -15.6982      1.00000
      6     -15.5326      1.00000
      7     -11.5850      1.00000
      8     -10.2538      1.00000
      9      -8.3573      1.00000
     10      -7.8005      1.00000
     11      -7.7724      1.00000
     12      -7.2585      1.00000
     13      -6.9021      1.00000
     14      -6.7886      1.00000
     15      -6.5982      1.00000
     16      -6.1973      1.00000
     17      -6.1225      1.00000
     18      -6.1195      1.00000
     19      -5.9013      1.00000
     20      -5.6483      1.00000
     21      -5.5643      1.00000
     22      -4.7200      1.00000
     23      -4.6416      1.00000
     24      -4.4019      1.00000
     25      -4.3723      1.00000
     26      -3.3663      1.00000
     27      -3.2570      1.00000
     28      -3.0981      1.00000
     29      -3.0546      1.00000
     30      -2.6525      0.00000
     31      -2.6434      0.00000
     32      -1.9160      0.00000
     33      -1.4554      0.00000
     34      -1.3021      0.00000
     35      -1.1650      0.00000
     36      -1.0129      0.00000
     37      -0.3024      0.00000
     38       0.9517      0.00000
     39       1.0040      0.00000
     40       1.6259      0.00000
     41       1.6953      0.00000
     42       1.8311      0.00000
     43       2.8716      0.00000
     44       2.9357      0.00000
     45       3.0486      0.00000
     46       3.0877      0.00000
     47       3.6669      0.00000
     48       3.7082      0.00000

[...]

 soft charge-density along one line, spin component           2
         0         1         2         3         4         5         6         7         8         9
 total charge-density along one line

------------------------ aborting loop because EDIFF is reached ----------------------------------------

[...]

  FORCE on cell =-STRESS in cart. coord.  units (eV):
  Direction    XX          YY          ZZ          XY          YZ          ZX
  Alpha Z    35.67485    35.67485    35.67485
  Ewald   12621.16712 12621.16486-14561.69566    -0.00211    -0.00051    -0.00092
  Hartree 13099.97353 13099.97429-12745.37071    -0.00036     0.00005     0.00007
  E(xc)    -237.56075  -237.56081  -236.28778     0.00006     0.00000     0.00001
  Local  -26600.04349-26600.04330 26400.34303     0.00199     0.00029     0.00054
  n-local   418.85672   419.16446   427.01768     0.16615     0.64986     0.76915
  augment   -21.92319   -21.92333   -31.72616     0.00026    -0.00002     0.00002
  Kinetic   685.47304   681.94494   712.22291    -2.07720     1.68712     1.92578
  Fock        0.00000     0.00000     0.00000     0.00000     0.00000     0.00000
  Total       0.00690     0.00690     0.17816     0.00000    -0.00000     0.00000
  in kB       0.01567     0.01567     0.40483     0.00000    -0.00000     0.00000

 VOLUME and BASIS-vectors are now :
  energy-cutoff  :      520.00
  volume of cell :      705.09
      direct lattice vectors                 reciprocal lattice vectors
     5.953047103  0.000000036 -0.000000000     0.167981201 -0.096983985  0.000000000
     2.976523234  5.155489829 -0.000000000    -0.000000001  0.193967991  0.000000000
    -0.000000000 -0.000000000 22.973962488     0.000000000  0.000000000  0.043527537

  length of vectors
     5.953047103  5.953046778 22.973962488     0.193967980  0.193967991  0.043527537

 FORCES acting on ions
    electron-ion (+dipol)            ewald-force                    non-local-force                 convergence-correction
   -.928E-04 -.648E-04 -.346E+00   0.647E-03 0.387E-03 0.347E+00   0.217E-17 0.872E-18 -.490E-02   -.359E-07 -.235E-07 -.168E-04
   0.928E-04 0.648E-04 0.346E+00   -.647E-03 -.387E-03 -.347E+00   -.174E-17 -.872E-18 0.490E-02   0.359E-07 0.235E-07 0.168E-04
   -.414E-04 -.140E-05 0.271E+03   -.203E-03 -.114E-03 -.268E+03   0.328E-16 0.223E-16 -.352E+01   0.568E-07 0.299E-07 -.178E-01
   0.414E-04 0.140E-05 -.271E+03   0.203E-03 0.114E-03 0.268E+03   -.504E-17 -.223E-16 0.352E+01   -.568E-07 -.299E-07 0.178E-01
   -.310E+02 0.420E-01 -.526E+03   0.265E+02 -.458E-01 0.530E+03   0.449E+01 0.368E-02 -.425E+01   0.591E-03 -.199E-04 0.385E-01
   0.155E+02 0.268E+02 -.526E+03   -.133E+02 -.230E+02 0.530E+03   -.224E+01 -.389E+01 -.425E+01   -.313E-03 -.502E-03 0.385E-01
   0.155E+02 -.269E+02 -.526E+03   -.132E+02 0.230E+02 0.530E+03   -.225E+01 0.389E+01 -.425E+01   -.279E-03 0.522E-03 0.385E-01
   0.310E+02 -.420E-01 0.526E+03   -.265E+02 0.458E-01 -.530E+03   -.449E+01 -.368E-02 0.425E+01   -.591E-03 0.199E-04 -.385E-01
   -.155E+02 -.268E+02 0.526E+03   0.133E+02 0.230E+02 -.530E+03   0.224E+01 0.389E+01 0.425E+01   0.313E-03 0.502E-03 -.385E-01
   -.155E+02 0.269E+02 0.526E+03   0.132E+02 -.230E+02 -.530E+03   0.225E+01 -.389E+01 0.425E+01   0.279E-03 -.522E-03 -.385E-01
   0.498E-10 -.208E-10 0.158E-09   0.178E-13 0.000E+00 0.000E+00   0.444E-15 0.000E+00 0.888E-15   -.755E-13 -.849E-13 0.517E-11

 POSITION                                       TOTAL-FORCE (eV/Angst)
      2.97652      1.71849     11.48774        -0.000000      0.000000     -0.003928
      5.95305      3.43699     11.48622         0.000000     -0.000000      0.003928
     -0.00000     -0.00000     10.29730         0.000000      0.000000     -0.016087
     -0.00000     -0.00000     12.67666        -0.000000     -0.000000      0.016087
      3.67358     -0.00027     12.89535        -0.003470      0.000699      0.006545
      1.13951      1.97422     12.89535         0.002340      0.002656      0.006545
      4.11650      3.18154     12.89535         0.001130     -0.003354      0.006545
      2.27947      0.00027     10.07861         0.003470     -0.000699     -0.006545
      1.83702      3.18127     10.07861        -0.002340     -0.002656     -0.006545
      4.81308      1.97395     10.07861        -0.001130      0.003354     -0.006545
    total drift:                                0.000000     -0.000000      0.000000

  FREE ENERGIE OF THE ION-ELECTRON SYSTEM (eV)
  free  energy   TOTEN  =       -48.08936283 eV

  energy  without entropy=      -48.08936283  energy(sigma->0) =      -48.08936283

 d Force = 0.3191264E-02[ 0.396E-03, 0.599E-02]  d Energy = 0.5473379E-02-0.228E-02
 d Force = 0.2418617E+02[ 0.241E+02, 0.243E+02]  d Ewald  = 0.1167157E+03-0.925E+02

 reached required accuracy - stopping structural energy minimisation

 total charge

[...]

 magnetization (x)

# of ion       s       p       d       tot
    1        0.011   0.012   1.007   1.030
    2        0.011   0.012   1.007   1.030
    3       -0.004   0.016   0.001   0.012
    4       -0.004   0.016   0.001   0.012
    5       -0.001  -0.024   0.000  -0.025
    6       -0.001  -0.005   0.000  -0.006
    7       -0.001  -0.020   0.000  -0.021
    8       -0.001  -0.024   0.000  -0.025
    9       -0.001  -0.005   0.000  -0.006
   10       -0.001  -0.020   0.000  -0.021
tot          0.006  -0.040   2.015   1.981

 BZINTS: Fermi energy: -2.899930; 60.000000 electrons
         Band energy:-485.430121;  BLOECHL correction:  0.000000