 vasp.5.4.4.18Apr17-6-g9f103f2a35 (build May  1 2020 15:48:39) complex
 executed on             LinuxGNU date 2020.06.18  09:02:10

 INCAR:
 POTCAR:   PAW_PBE Cr 06Sep2000
 POTCAR:    PAW_PBE P 17Jan2003
 POTCAR:   PAW_PBE Ge 05Jan2001
 POTCAR:   PAW_PBE Se 06Sep2000

 POTCAR:   PAW_PBE Cr 06Sep2000
   VRHFIN =Cr : d5 s1

   TITEL  = PAW_PBE Cr 06Sep2000
   POMASS =   51.996; ZVAL   =    6.000    mass and valenz
   ENMAX  =  227.082; ENMIN  =  170.311 eV
   QCUT   =   -4.085; QGAM   =    8.171    optimization parameters

   Description
     l     E      TYP  RCUT    TYP  RCUT
     2   .000     23  2.500
     2   .000     23  2.500
     0   .000     23  2.500
     0   .000     23  2.500
     1  -.400     23  2.500
     1  2.000     23  2.500
     3   .000      7   .000

 POTCAR:    PAW_PBE P 17Jan2003
   VRHFIN =P : s2p3

   TITEL  = PAW_PBE P 17Jan2003
   POMASS =   30.974; ZVAL   =    5.000    mass and valenz
   ENMAX  =  270.000; ENMIN  =  191.280 eV
   QCUT   =   -4.330; QGAM   =    8.659    optimization parameters

[...]

 POTCAR:   PAW_PBE Ge 05Jan2001
   VRHFIN =Ge: s2p2

   TITEL  = PAW_PBE Ge 05Jan2001
   POMASS =   72.610; ZVAL   =    4.000    mass and valenz
   ENMAX  =  173.807; ENMIN  =  130.355 eV
   QCUT   =   -3.574; QGAM   =    7.148    optimization parameters

[...]

 POTCAR:   PAW_PBE Se 06Sep2000
   VRHFIN =Se: s2p4

   TITEL  = PAW_PBE Se 06Sep2000
   POMASS =   78.960; ZVAL   =    6.000    mass and valenz
   ENMAX  =  211.534; ENMIN  =  158.651 eV
   QCUT   =   -3.943; QGAM   =    7.886    optimization parameters

   Description
     l     E      TYP  RCUT    TYP  RCUT
     0   .000     23  2.100
     0   .000     23  2.100
     1   .000     23  2.100
     1   .000     23  2.100
     2   .000     23  2.100
     3  -.100      7  2.100

 Optimization of the real space projectors (new method)

 maximal supplied QI-value         = 15.12
 optimisation between [QCUT,QGAM] = [ 11.64, 23.28] = [ 37.95,151.78] Ry
 Optimized for a Real-space Cutoff    1.49 Angstroem

   l    n(q)    QCUT    max X(q) W(low)/X(q) W(high)/X(q)  e(spline)
   2      9    11.641     4.777    0.25E-04    0.21E-05    0.63E-07
   2      9    11.641    31.132    0.13E-03    0.22E-03    0.64E-06
   0     10    11.641    20.416    0.11E-04    0.74E-05    0.19E-07
   0     10    11.641    45.408    0.10E-03    0.85E-04    0.30E-06
   1     10    11.641     7.848    0.22E-04    0.23E-04    0.56E-07
   1     10    11.641     9.895    0.85E-04    0.54E-04    0.16E-06
 Optimization of the real space projectors (new method)

[...]

   l    n(q)    QCUT    max X(q) W(low)/X(q) W(high)/X(q)  e(spline)
   0      9    11.539     8.651    0.22E-04    0.16E-04    0.10E-07
   0      9    11.539    33.192    0.11E-03    0.16E-03    0.65E-07
   1      8    11.539     5.899    0.37E-04    0.28E-04    0.43E-07
   1      8    11.539    27.289    0.22E-03    0.28E-04    0.14E-06
   2      8    11.539     4.673    0.11E-03    0.18E-03    0.58E-07
 Optimization of the real space projectors (new method)

 maximal supplied QI-value         = 17.95
 optimisation between [QCUT,QGAM] = [ 11.67, 23.34] = [ 38.13,152.52] Ry
 Optimized for a Real-space Cutoff    1.25 Angstroem

   l    n(q)    QCUT    max X(q) W(low)/X(q) W(high)/X(q)  e(spline)
   0      9    11.669     6.499    0.13E-04    0.81E-05    0.11E-07
   0      9    11.669    52.623    0.18E-03    0.46E-04    0.72E-07
   1      8    11.669     4.229    0.40E-04    0.45E-04    0.31E-07
   1      8    11.669    29.991    0.22E-03    0.36E-03    0.10E-06
   2      8    11.669     3.719    0.19E-03    0.46E-04    0.50E-07

 PAW_PBE Cr 06Sep2000                   :
  PAW_PBE P 17Jan2003                   :
 PAW_PBE Ge 05Jan2001                   :
 PAW_PBE Se 06Sep2000                   :

 POSCAR: Cr2 P Ge Se6
  positions in direct lattice
  velocities in cartesian coordinates
 exchange correlation table for  LEXCH =       42
   RHO(1)=    0.500       N(1)  =     2000
   RHO(2)=  100.500       N(2)  =     4000

 ion  position               nearest neighbor table
   1  0.333  0.333  0.500-   6 2.78   5 2.78   7 2.78   8 2.78  10 2.78   9 2.78
   2  0.667  0.667  0.500-   9 2.78   8 2.78  10 2.78   5 2.78   7 2.78   6 2.78
   3  0.000  0.000  0.448-   4 2.43   8 2.63  10 2.63   9 2.63
   4  0.000  0.000  0.552-   3 2.43   5 2.63   7 2.63   6 2.63
   5  0.626  0.000  0.574-   4 2.63   1 2.78   2 2.78
   6  0.000  0.373  0.574-   4 2.63   1 2.78   2 2.78
   7  0.373  0.626  0.574-   4 2.63   1 2.78   2 2.78
   8  0.374  1.000  0.426-   3 2.63   2 2.78   1 2.78
   9  1.000  0.627  0.426-   3 2.63   2 2.78   1 2.78
  10  0.627  0.374  0.426-   3 2.63   2 2.78   1 2.78

  LATTYP: Found a hexagonal cell.
 ALAT       =     6.9077769333
 C/A-ratio  =     3.3939410937

  Lattice vectors:

 A1 = (   3.4538890000,  -5.9823100000,   0.0000000000)
 A2 = (  -6.9077770000,   0.0000000000,   0.0000000000)
 A3 = (   0.0000000000,   0.0000000000, -23.4445880000)

Analysis of symmetry for initial positions (statically):
 Subroutine PRICEL returns:
 Original cell was already a primitive cell.

 Routine SETGRP: Setting up the symmetry group for a
 hexagonal supercell.

 Subroutine GETGRP returns: Found  3 space group operations
 (whereof  3 operations were pure point group operations)
 out of a pool of 24 trial point group operations.

The static configuration has the point symmetry C_3 .

Analysis of symmetry for dynamics (positions and initial velocities):
 Subroutine PRICEL returns:
 Original cell was already a primitive cell.

[...]

The dynamic configuration has the point symmetry C_3 .

Analysis of constrained symmetry for selective dynamics:
 Subroutine PRICEL returns:
 Original cell was already a primitive cell.

[...]

The constrained configuration has the point symmetry C_3 .

Analysis of structural, dynamic, and magnetic symmetry:
 Subroutine PRICEL returns:
 Original cell was already a primitive cell.

 Routine SETGRP: Setting up the symmetry group for a
 hexagonal supercell.

 Subroutine GETGRP returns: Found  3 space group operations
 (whereof  3 operations were pure point group operations)
 out of a pool of 24 trial point group operations.

The magnetic configuration has the point symmetry C_3 .

 Subroutine INISYM returns: Found  3 space group operations
 (whereof  3 operations are pure point group operations),
 and found     1 'primitive' translations

 KPOINTS: Kpoints from vasprun.xml

Automatic generation of k-mesh.
Space group operators:
 irot       det(A)        alpha          n_x          n_y          n_z        tau_x        tau_y        tau_z
    1     1.000000     0.000000     1.000000     0.000000     0.000000     0.000000     0.000000     0.000000
    2     1.000000   120.000000     0.000000     0.000000     1.000000     0.000000     0.000000     0.000000
    3     1.000000   120.000000     0.000000     0.000000    -1.000000     0.000000     0.000000     0.000000

 Subroutine IBZKPT returns following result:

 Found      5 irreducible k-points:

 Following reciprocal coordinates:
            Coordinates               Weight
  0.000000  0.000000  0.000000      1.000000
  0.200000  0.000000  0.000000      6.000000
  0.400000  0.000000  0.000000      6.000000
  0.400000  0.200000  0.000000      6.000000
 -0.400000  0.200000  0.000000      6.000000

 Following cartesian coordinates:
            Coordinates               Weight
  0.000000  0.000000  0.000000      1.000000
  0.028953 -0.016716  0.000000      6.000000
  0.057906 -0.033432  0.000000      6.000000
  0.057906  0.000000  0.000000      6.000000
 -0.057906  0.066864  0.000000      6.000000

 TETIRR: Found     15 inequivalent tetrahedra from      150

 SYSTEM =  unknown system
 POSCAR =  Cr2 P Ge Se6

 Startparameter for this run:
   NWRITE =      2    write-flag & timer
   PREC   = accura    normal or accurate (medium, high low for compatibility)
   ISTART =      0    job   : 0-new  1-cont  2-samecut
   ICHARG =      2    charge: 1-file 2-atom 10-const
   ISPIN  =      2    spin polarized calculation?
   LNONCOLLINEAR =      F non collinear calculations
   LSORBIT =      F    spin-orbit coupling
   INIWAV =      1    electr: 0-lowe 1-rand  2-diag
   LASPH  =      F    aspherical Exc in radial PAW
   METAGGA=      F    non-selfconsistent MetaGGA calc.

 Electronic Relaxation 1
   ENCUT  =  520.0 eV  38.22 Ry    6.18 a.u.  12.84 12.84 43.59*2*pi/ulx,y,z
   ENINI  =  520.0     initial cutoff
   ENAUG  =  446.8 eV  augmentation charge cutoff
   NELM   =    400;   NELMIN=  2; NELMDL=  0     # of ELM steps
   EDIFF  = 0.1E-03   stopping-criterion for ELM
   LREAL  =      T    real-space projection
   NLSPLINE    = F    spline interpolate recip. space projectors
   LCOMPAT=      F    compatible to vasp.4.4
   GGA_COMPAT  = T    GGA compatible to vasp.4.4-vasp.4.6
   LMAXPAW     = -100 max onsite density
   LMAXMIX     =    2 max onsite mixed and CHGCAR
   VOSKOWN=      0    Vosko Wilk Nusair interpolation
   ROPT   =   -0.00025  -0.00025  -0.00025  -0.00025
 Ionic relaxation
   EDIFFG = 0.1E-02   stopping-criterion for IOM
   NSW    =     99    number of steps for IOM
   NBLOCK =      1;   KBLOCK =     99    inner block; outer block
   IBRION =      2    ionic relax: 0-MD 1-quasi-New 2-CG
   NFREE  =      1    steps in history (QN), initial steepest desc. (CG)
   ISIF   =      3    stress and relaxation
   IWAVPR =     11    prediction:  0-non 1-charg 2-wave 3-comb
   ISYM   =      2    0-nonsym 1-usesym 2-fastsym
   LCORR  =      T    Harris-Foulkes like correction to forces

   POTIM  = 0.5000    time-step for ionic-motion
   TEIN   =    0.0    initial temperature
   TEBEG  =    0.0;   TEEND  =   0.0 temperature during run
   SMASS  =  -3.00    Nose mass-parameter (am)
   estimated Nose-frequenzy (Omega)   =  0.10E-29 period in steps =****** mass=  -0.109E-26a.u.
   SCALEE = 1.0000    scale energy and forces
   NPACO  =    256;   APACO  = 16.0  distance and # of slots for P.C.
   PSTRESS=    0.0 pullay stress

  Mass of Ions in am
   POMASS =  52.00 30.97 72.61 78.96
  Ionic Valenz
   ZVAL   =   6.00  5.00  4.00  6.00
  Atomic Wigner-Seitz radii
  virtual crystal weights
   VCA    =   1.00  1.00  1.00  1.00
   NELECT =      57.0000    total number of electrons
   NUPDOWN=      -1.0000    fix difference up-down

 DOS related values:
   EMIN   =  10.00;   EMAX   =-10.00  energy-range for DOS
   EFERMI =   0.00
   ISMEAR =    -5;   SIGMA  =   0.05  broadening in eV -4-tet -1-fermi 0-gaus

 Electronic relaxation 2 (details)
   IALGO  =     38    algorithm
   LDIAG  =      T    sub-space diagonalisation (order eigenvalues)
   LSUBROT=      F    optimize rotation matrix (better conditioning)
   TURBO    =      0    0=normal 1=particle mesh
   IRESTART =      0    0=no restart 2=restart with 2 vectors
   NREBOOT  =      0    no. of reboots
   NMIN     =      0    reboot dimension
   EREF     =   0.00    reference energy to select bands
   IMIX   =      4    mixing-type and parameters
     AMIX     =   0.40;   BMIX     =  1.00
     AMIX_MAG =   1.60;   BMIX_MAG =  1.00
     AMIN     =   0.01
     WC   =   100.;   INIMIX=   1;  MIXPRE=   1;  MAXMIX= -45

 Intra band minimization:
[...]
     37      -2.4659      0.00000
     38      -1.4849      0.00000
     39      -1.4849      0.00000
     40       0.3826      0.00000
     41       0.5381      0.00000
     42       0.5381      0.00000
     43       0.6270      0.00000
     44       1.0178      0.00000
     45       1.3118      0.00000
     46       1.6074      0.00000
     47       2.3708      0.00000
     48       2.4461      0.00000

[...]

 soft charge-density along one line, spin component           1
         0         1         2         3         4         5         6         7         8         9
 total charge-density along one line

[...]

------------------------ aborting loop because EDIFF is reached ----------------------------------------

 total charge

# of ion       s       p       d       tot
    1        0.279   0.298   4.095   4.672
    2        0.279   0.298   4.097   4.674
    3        1.133   1.194   0.000   2.327
    4        1.177   0.936   0.066   2.179
    5        1.487   2.227   0.018   3.732
    6        1.483   2.210   0.018   3.711
    7        1.486   2.218   0.018   3.722
    8        1.494   2.196   0.019   3.710
    9        1.488   2.173   0.019   3.680
   10        1.493   2.189   0.019   3.701
tot         11.800  15.939   8.370  36.109

 magnetization (x)

[...]

  FORCE on cell =-STRESS in cart. coord.  units (eV):
  Direction    XX          YY          ZZ          XY          YZ          ZX
  Alpha Z    32.59752    32.59752    32.59752
  Ewald    7704.79684  7704.79469 -9187.98168    -0.00106    -0.00039    -0.00072
  Hartree  8118.36648  8118.36687 -7918.82893    -0.00003     0.00005     0.00008
  E(xc)    -215.54847  -215.54848  -215.43752     0.00002     0.00001     0.00001
  Local  -16549.70348-16549.70273 16350.59480     0.00082     0.00020     0.00038
  n-local   293.62073   294.53631   302.58124     0.34361     0.17181     0.16445
  augment    25.29510    25.29519    22.27918     0.00001     0.00003     0.00002
  Kinetic   572.68018   569.39269   602.13187    -2.34563     0.29756     0.03294
  Fock        0.00000     0.00000     0.00000     0.00000     0.00000     0.00000
  Total     -19.08152   -19.08152   -12.06352     0.00000     0.00000     0.00000
  in kB     -31.55541   -31.55540   -19.94963     0.00000     0.00000     0.00000

 VOLUME and BASIS-vectors are now :
  energy-cutoff  :      520.00
  volume of cell :      968.84
      direct lattice vectors                 reciprocal lattice vectors
     6.907777000 -0.000000000  0.000000000     0.144764372 -0.083579742  0.000000000
     3.453888000  5.982310000  0.000000000     0.000000000  0.167159509 -0.000000000
     0.000000000  0.000000000 23.444588000    -0.000000000  0.000000000  0.042653767

[...]

 FORCES acting on ions
    electron-ion (+dipol)            ewald-force                    non-local-force                 convergence-correction
   -.724E-04 -.511E-04 -.491E+01   0.314E-03 0.187E-03 0.471E+01   -.694E-17 0.694E-17 -.688E-02   -.463E-06 -.333E-06 0.175E-01
   0.809E-04 0.489E-04 -.622E+01   -.314E-03 -.187E-03 0.600E+01   0.000E+00 0.000E+00 0.344E-02   0.640E-06 0.288E-06 0.172E-01
   -.335E-04 -.298E-04 0.196E+03   -.176E-03 -.973E-04 -.197E+03   0.295E-16 0.694E-17 0.121E+01   0.134E-06 0.479E-07 0.199E-02
   0.256E-04 0.296E-04 -.171E+03   0.141E-03 0.779E-04 0.170E+03   0.000E+00 -.694E-17 0.114E+01   -.620E-07 -.231E-07 0.342E-01
   -.450E+01 0.139E+00 -.350E+03   0.308E+01 -.150E+00 0.352E+03   0.200E+01 -.901E-02 -.289E+01   0.418E-02 0.129E-01 0.635E-01
   0.237E+01 0.382E+01 -.350E+03   -.167E+01 -.259E+01 0.352E+03   -.101E+01 -.173E+01 -.289E+01   0.904E-02 -.100E-01 0.635E-01
   0.213E+01 -.397E+01 -.350E+03   -.141E+01 0.274E+01 0.352E+03   -.992E+00 0.174E+01 -.289E+01   -.132E-01 -.281E-02 0.635E-01
   -.233E+01 -.159E+00 0.345E+03   0.353E+01 0.143E+00 -.346E+03   -.166E+01 0.822E-02 0.301E+01   -.443E-03 0.142E-01 -.908E-02
   0.103E+01 0.210E+01 0.345E+03   -.164E+01 -.313E+01 -.346E+03   0.835E+00 0.143E+01 0.301E+01   0.125E-01 -.671E-02 -.908E-02
   0.131E+01 -.194E+01 0.345E+03   -.189E+01 0.298E+01 -.346E+03   0.820E+00 -.144E+01 0.301E+01   -.121E-01 -.748E-02 -.908E-02
   -.464E-04 -.237E-04 -.294E+01   0.844E-14 0.711E-14 -.568E-13   0.222E-15 0.222E-15 0.271E+01   0.221E-06 0.461E-07 0.234E+00

 POSITION                                       TOTAL-FORCE (eV/Angst)
      3.45388      1.99410     11.72054        -0.000000     -0.000000     -0.190063
      6.90778      3.98821     11.72405        -0.000000     -0.000000     -0.201094
      0.00000      0.00000     10.50824        -0.000000     -0.000000     -0.572081
      0.00000      0.00000     12.93635        -0.000000     -0.000000     -0.148582
      4.32819      0.00251     13.45138         0.588091     -0.006591     -1.039399
      1.29198      2.23274     13.45138        -0.299753     -0.506006     -1.039399
      4.74152      3.74706     13.45138        -0.288338      0.512597     -1.039399
      6.03348      5.97980      9.99321        -0.461873      0.005600      1.410006
      9.06969      3.74957      9.99321         0.235786      0.397193      1.410006
      5.62015      2.23525      9.99321         0.226086     -0.402794      1.410006
    total drift:                               -0.000046     -0.000024     -0.000639

  FREE ENERGIE OF THE ION-ELECTRON SYSTEM (eV)
  free  energy   TOTEN  =       -45.64099742 eV

  energy  without entropy=      -45.64099742  energy(sigma->0) =      -45.64099742

[...]

 d Force = 0.2052792E+00[-0.960E-01, 0.507E+00]  d Energy = 0.2390207E+01-0.218E+01
 d Force =-0.1233992E+03[-0.136E+03,-0.111E+03]  d Ewald  =-0.1143598E+04 0.102E+04

 Steepest descent step on ions:
 trial-energy change:   -2.390207  1 .order   -1.883554   -4.755962    0.988854
  (g-gl).g = 0.476E+01      g.g   = 0.476E+01  gl.gl    = 0.000E+00
 g(Force)  = 0.541E+00   g(Stress)= 0.422E+01 ortho     = 0.000E+00
 gamma     =   0.00000
 trial     =   1.00000
 opt step  =   0.88267  (harmonic =   0.82787) maximal distance =0.06004144
 next E    =   -48.088396   (d E  =  -2.44740)

[...]

 d Force = 0.5228504E-02[-0.176E-02, 0.122E-01]  d Energy = 0.6450071E-01-0.593E-01
 d Force = 0.1681168E+02[ 0.166E+02, 0.170E+02]  d Ewald  = 0.1514780E+03-0.135E+03

[...]

 d Force = 0.2216542E-01[ 0.117E-01, 0.326E-01]  d Energy = 0.2168965E-01 0.476E-03
 d Force = 0.3622384E+01[ 0.368E+01, 0.356E+01]  d Ewald  =-0.3773533E+02 0.414E+02

 Conjugate gradient step on ions:
 trial-energy change:   -0.021690  1 .order   -0.022481   -0.033895   -0.011066
  (g-gl).g = 0.602E-01      g.g   = 0.350E-01  gl.gl    = 0.476E+01
 g(Force)  = 0.332E-01   g(Stress)= 0.186E-02 ortho     =-0.251E-01
 gamma     =   0.01265
 trial     =   0.97653
 opt step  =   1.72446  (harmonic =   1.44992) maximal distance =0.01725589
 next E    =   -48.121277   (d E  =  -0.02557)

[...]

 d Force = 0.3307234E-02[-0.236E-02, 0.897E-02]  d Energy = 0.1614813E-02 0.169E-02
 d Force = 0.2857877E+01[ 0.290E+01, 0.282E+01]  d Ewald  =-0.2890968E+02 0.318E+02

[...]

 eigenvalue-minimisations  :  1120
 total energy-change (2. order) :-0.5767989E-02  (-0.4312358E-01)
 number of electron      57.0000001 magnetization       5.3909693
 augmentation part       -2.7324078 magnetization       4.0105504

[...]

 d Force = 0.2686882E-02[ 0.278E-03, 0.510E-02]  d Energy = 0.4647364E-02-0.196E-02
 d Force =-0.2599718E+01[-0.259E+01,-0.260E+01]  d Ewald  = 0.7177404E+02-0.744E+02

 Steepest descent step on ions:
 trial-energy change:   -0.004647  1 .order   -0.005140   -0.009076   -0.001203
  (g-gl).g = 0.129E-01      g.g   = 0.806E-02  gl.gl    = 0.350E-01
 g(Force)  = 0.453E-02   g(Stress)= 0.353E-02 ortho     =-0.545E-02
 gamma     =   0.00000
 trial     =   1.12612
 opt step  =   1.46151  (harmonic =   1.29821) maximal distance =0.01646136
 next E    =   -48.123823   (d E  =  -0.00481)

[...]

 Broyden mixing:
  rms(total) = 0.23674E-02    rms(broyden)= 0.23674E-02
  rms(prec ) = 0.28991E-02
  weight for this iteration     100.00

 eigenvalues of (default mixing * dielectric matrix)
  average eigenvalue GAMMA=   1.0359
  2.0420  0.7180  0.3476

[...]

--------------------------------------- Iteration      7(   5)  ---------------------------------------

[...]

 eigenvalue-minimisations  :   752
 total energy-change (2. order) : 0.2950977E-04  (-0.1279675E-04)
 number of electron      57.0000001 magnetization       5.3816268
 augmentation part       -2.7346318 magnetization       4.0081111

 Free energy of the ion-electron system (eV)
  alpha Z        PSCENC =        40.67777618
  Ewald energy   TEWEN  =      7187.32490843
  -Hartree energ DENC   =     -9305.84995217
  -exchange      EXHF   =         0.00000000
  -V(xc)+E(xc)   XCENC  =       -48.24671554
  PAW double counting   =      1291.51512983    -1141.11629977
  entropy T*S    EENTRO =         0.00000000
  eigenvalues    EBANDS =      -461.40109508
  atomic energy  EATOM  =      2388.97348331
  Solvation  Ediel_sol  =         0.00000000
  free energy    TOTEN  =       -48.12276482 eV

  energy without entropy =      -48.12276482  energy(sigma->0) =      -48.12276482

 average (electrostatic) potential at core
  the test charge radii are     1.1394  0.9587  1.1631  1.0808
  (the norm of the test charge is              1.0000)
       1 -51.3028       2 -51.3089       3 -92.5916       4 -40.0232       5 -61.1303
       6 -61.1303       7 -61.1302       8 -61.3395       9 -61.3394      10 -61.3394

 E-fermi :  -2.2479     XC(G=0):  -3.5510     alpha+bet : -2.7015

[...]

 spin component 2

[...]

 k-point     5 :      -0.4000    0.2000    0.0000
  band No.  band energies     occupation
      1     -16.9014      1.00000
      2     -16.2096      1.00000
      3     -15.9710      1.00000
      4     -15.8926      1.00000
      5     -15.6680      1.00000
      6     -15.5184      1.00000
      7     -12.6444      1.00000
      8     -10.5244      1.00000
      9      -7.9716      1.00000
     10      -7.5038      1.00000
     11      -7.3471      1.00000
     12      -6.8317      1.00000
     13      -6.7109      1.00000
     14      -6.1989      1.00000
     15      -5.8715      1.00000
     16      -5.7384      1.00000
     17      -5.7358      1.00000
     18      -5.3415      1.00000
     19      -5.2268      1.00000
     20      -5.1063      1.00000
     21      -4.8578      1.00000
     22      -4.3748      1.00000
     23      -4.2165      1.00000
     24      -4.1888      1.00000
     25      -4.1271      1.00000
     26      -3.0171      1.00000
     27      -1.9298      0.00000
     28      -1.6588      0.00000
     29      -1.6213      0.00000
     30      -0.9837      0.00000
     31      -0.8957      0.00000
     32      -0.8696      0.00000
     33      -0.6286      0.00000
     34      -0.5473      0.00000
     35      -0.0917      0.00000
     36      -0.0367      0.00000
     37      -0.0186      0.00000
     38       0.2534      0.00000
     39       0.5491      0.00000
     40       1.2643      0.00000
     41       1.4295      0.00000
     42       1.4876      0.00000
     43       2.7535      0.00000
     44       2.9492      0.00000
     45       3.0438      0.00000
     46       3.0553      0.00000
     47       3.2846      0.00000
     48       3.5069      0.00000

[...]

 soft charge-density along one line, spin component           2
         0         1         2         3         4         5         6         7         8         9
 total charge-density along one line

------------------------ aborting loop because EDIFF is reached ----------------------------------------

[...]

  FORCE on cell =-STRESS in cart. coord.  units (eV):
  Direction    XX          YY          ZZ          XY          YZ          ZX
  Alpha Z    40.67778    40.67778    40.67778
  Ewald    8805.40550  8805.40308-10423.48594    -0.00117    -0.00042    -0.00076
  Hartree  9144.60712  9144.60751 -8983.48012    -0.00003     0.00005     0.00008
  E(xc)    -220.44799  -220.44800  -220.48523     0.00003     0.00001     0.00001
  Local  -18689.81926-18689.81851 18628.19729     0.00081     0.00019     0.00036
  n-local   304.85530   306.08530   312.19823     0.57879     0.36428     0.38463
  augment    25.08203    25.08209    21.37150     0.00007     0.00003     0.00002
  Kinetic   592.11652   585.39760   624.83340    -4.28862    -0.04752    -0.37490
  Fock        0.00000     0.00000     0.00000     0.00000     0.00000     0.00000
  Total      -0.26808    -0.26808    -0.17310     0.00000     0.00000     0.00000
  in kB      -0.55321    -0.55321    -0.35721     0.00000     0.00000     0.00000

 VOLUME and BASIS-vectors are now :
  energy-cutoff  :      520.00
  volume of cell :      776.39
      direct lattice vectors                 reciprocal lattice vectors
     6.351684246  0.000000012  0.000000000     0.157438557 -0.090897187  0.000000000
     3.175841734  5.500719643  0.000000000    -0.000000000  0.181794395 -0.000000000
    -0.000000000  0.000000000 22.221266114    -0.000000000 -0.000000000  0.045001936

  length of vectors
     6.351684246  6.351683817 22.221266114     0.181794383  0.181794395  0.045001936

 FORCES acting on ions
    electron-ion (+dipol)            ewald-force                    non-local-force                 convergence-correction
   -.132E-03 -.802E-04 -.465E+01   0.364E-03 0.216E-03 0.489E+01   0.919E-20 0.139E-16 -.176E+00   0.115E-06 0.664E-07 -.251E-02
   0.133E-03 0.759E-04 -.573E+01   -.380E-03 -.224E-03 0.598E+01   0.983E-20 -.920E-20 -.189E+00   0.156E-06 0.966E-07 -.235E-02
   -.500E-04 -.263E-04 0.247E+03   -.227E-03 -.126E-03 -.247E+03   0.260E-16 -.191E-16 0.184E-01   0.657E-07 0.382E-07 0.535E-02
   0.312E-04 0.199E-04 -.202E+03   0.169E-03 0.944E-04 0.201E+03   0.341E-17 0.139E-16 0.119E+01   -.747E-07 -.415E-07 -.607E-02
   -.574E+01 -.688E-03 -.417E+03   0.366E+01 -.220E-01 0.420E+03   0.209E+01 -.562E-02 -.225E+01   0.327E-02 0.253E-01 -.606E-02
   0.287E+01 0.497E+01 -.417E+03   -.185E+01 -.316E+01 0.420E+03   -.105E+01 -.180E+01 -.225E+01   0.203E-01 -.155E-01 -.606E-02
   0.287E+01 -.497E+01 -.417E+03   -.181E+01 0.318E+01 0.420E+03   -.104E+01 0.181E+01 -.225E+01   -.235E-01 -.981E-02 -.606E-02
   -.489E+01 -.789E-01 0.405E+03   0.700E+01 0.506E-01 -.408E+03   -.212E+01 0.592E-02 0.224E+01   -.340E-02 0.261E-01 0.407E-02
   0.238E+01 0.427E+01 0.405E+03   -.346E+01 -.609E+01 -.408E+03   0.107E+01 0.184E+01 0.224E+01   0.243E-01 -.101E-01 0.407E-02
   0.251E+01 -.419E+01 0.405E+03   -.355E+01 0.604E+01 -.408E+03   0.106E+01 -.184E+01 0.224E+01   -.209E-01 -.160E-01 0.407E-02
   -.115E-03 -.513E-04 -.800E+00   -.888E-14 -.266E-14 -.568E-13   0.666E-15 -.222E-15 0.799E+00   0.375E-06 0.210E-06 -.115E-01

 POSITION                                       TOTAL-FORCE (eV/Angst)
      3.17584      1.83357     11.10897        -0.000000     -0.000000      0.063545
      6.35169      3.66715     11.11230        -0.000000     -0.000000      0.054250
     -0.00000      0.00000      9.90595        -0.000000     -0.000000     -0.107333
     -0.00000      0.00000     12.26134        -0.000000     -0.000000     -0.261216
      3.97721      0.00116     12.72189         0.012593     -0.002353      0.047710
      1.18824      2.05578     12.72189        -0.008334     -0.009729      0.047710
      4.36209      3.44379     12.72189        -0.004259      0.012082      0.047710
      5.52402      5.49931      9.54599        -0.011548      0.003145      0.035874
      8.35221      3.46783      9.54599         0.008498      0.008428      0.035874
      5.17881      2.03429      9.54599         0.003050     -0.011574      0.035874
    total drift:                               -0.000114     -0.000051     -0.012431

  FREE ENERGIE OF THE ION-ELECTRON SYSTEM (eV)
  free  energy   TOTEN  =       -48.12276482 eV

  energy  without entropy=      -48.12276482  energy(sigma->0) =      -48.12276482

 d Force =-0.1286724E-03[-0.340E-03, 0.829E-04]  d Energy =-0.8916629E-03 0.763E-03
 d Force =-0.7743817E+00[-0.774E+00,-0.775E+00]  d Ewald  = 0.2127805E+02-0.221E+02

 reached required accuracy - stopping structural energy minimisation

 total charge

[...]

 magnetization (x)

# of ion       s       p       d       tot
    1        0.035   0.040   2.807   2.882
    2        0.035   0.040   2.808   2.883
    3       -0.031   0.001   0.000  -0.029
    4        0.006   0.027  -0.001   0.032
    5        0.000  -0.080   0.005  -0.074
    6       -0.001  -0.061   0.005  -0.057
    7       -0.001  -0.076   0.005  -0.071
    8       -0.003  -0.105   0.004  -0.104
    9       -0.002  -0.100   0.005  -0.097
   10       -0.004  -0.110   0.005  -0.110
tot          0.035  -0.424   5.643   5.254

 BZINTS: Fermi energy: -2.247933; 57.000000 electrons
         Band energy:-461.401095;  BLOECHL correction: -0.025547