 vasp.5.4.4.18Apr17-6-g9f103f2a35 (build May  1 2020 15:48:39) complex
 executed on             LinuxGNU date 2020.06.21  16:57:47

 INCAR:
 POTCAR:   PAW_PBE Ni 06Sep2000
 POTCAR:   PAW_PBE Si 05Jan2001
 POTCAR:    PAW_PBE S 17Jan2003

 POTCAR:   PAW_PBE Ni 06Sep2000
   VRHFIN =Ni:

   TITEL  = PAW_PBE Ni 06Sep2000
   POMASS =   58.690; ZVAL   =   10.000    mass and valenz
   ENMAX  =  269.533; ENMIN  =  202.150 eV
   QCUT   =   -4.451; QGAM   =    8.902    optimization parameters

   Description
     l     E      TYP  RCUT    TYP  RCUT
     2   .000     23  2.300
     2   .000     23  2.300
     0   .000     23  2.300
     0   .000     23  2.300
     1  -.200     23  2.300
     1   .000     23  2.300
     3   .000      7   .000

 POTCAR:   PAW_PBE Si 05Jan2001
   VRHFIN =Si: s2p2

   TITEL  = PAW_PBE Si 05Jan2001
   POMASS =   28.085; ZVAL   =    4.000    mass and valenz
   ENMAX  =  245.345; ENMIN  =  184.009 eV
   QCUT   =   -4.246; QGAM   =    8.493    optimization parameters

[...]

 POTCAR:    PAW_PBE S 17Jan2003
   VRHFIN =S : s2p4

   TITEL  = PAW_PBE S 17Jan2003
   POMASS =   32.066; ZVAL   =    6.000    mass and valenz
   ENMAX  =  280.000; ENMIN  =  194.016 eV
   QCUT   =   -4.360; QGAM   =    8.721    optimization parameters

   Description
     l     E      TYP  RCUT    TYP  RCUT
     0   .000     23  1.900
     0   .000     23  1.900
     1   .000     23  1.900
     1   .000     23  1.900
     2   .000     23  1.900

 Optimization of the real space projectors (new method)

 maximal supplied QI-value         = 16.25
 optimisation between [QCUT,QGAM] = [ 11.54, 23.24] = [ 37.28,151.24] Ry
 Optimized for a Real-space Cutoff    1.49 Angstroem

   l    n(q)    QCUT    max X(q) W(low)/X(q) W(high)/X(q)  e(spline)
   2      9    11.539     4.811    0.20E-04    0.14E-04    0.45E-07
   2      9    11.539    15.146    0.24E-03    0.12E-03    0.20E-06
   0     10    11.539    14.357    0.18E-04    0.12E-05    0.14E-07
   0     10    11.539    43.282    0.39E-04    0.17E-04    0.23E-06
   1     10    11.539     5.514    0.99E-05    0.13E-04    0.19E-07
   1     10    11.539     7.697    0.38E-04    0.79E-04    0.91E-07
 Optimization of the real space projectors (new method)

[...]

   l    n(q)    QCUT    max X(q) W(low)/X(q) W(high)/X(q)  e(spline)
   0      8    11.508     8.708    0.18E-04    0.44E-05    0.47E-08
   0      8    11.508   106.241    0.70E-04    0.15E-03    0.51E-07
   1      8    11.508     5.901    0.63E-05    0.23E-04    0.21E-07
   1      8    11.508    73.241    0.15E-03    0.36E-04    0.79E-07
 Optimization of the real space projectors (new method)

 maximal supplied QI-value         = 19.84
 optimisation between [QCUT,QGAM] = [ 11.51, 23.22] = [ 37.09,150.92] Ry
 Optimized for a Real-space Cutoff    1.21 Angstroem

   l    n(q)    QCUT    max X(q) W(low)/X(q) W(high)/X(q)  e(spline)
   0      8    11.508     5.487    0.18E-04    0.22E-05    0.47E-08
   0      8    11.508    85.627    0.96E-04    0.18E-03    0.54E-07
   1      8    11.508     3.530    0.17E-04    0.28E-04    0.21E-07
   1      8    11.508    42.714    0.18E-03    0.63E-04    0.92E-07

 PAW_PBE Ni 06Sep2000                   :
 PAW_PBE Si 05Jan2001                   :
  PAW_PBE S 17Jan2003                   :

 POSCAR: Ni2 Si2 S6
  positions in direct lattice
  velocities in cartesian coordinates
 exchange correlation table for  LEXCH =       42
   RHO(1)=    0.500       N(1)  =     2000
   RHO(2)=  100.500       N(2)  =     4000

 ion  position               nearest neighbor table
   1  0.333  0.333  0.500-   6 2.78   5 2.78   7 2.78   8 2.78  10 2.78   9 2.78
   2  0.667  0.667  0.500-   9 2.78   8 2.78  10 2.78   5 2.78   7 2.78   6 2.78
   3  0.000  0.000  0.448-   4 2.43   8 2.63  10 2.63   9 2.63
   4  0.000  0.000  0.552-   3 2.43   5 2.63   7 2.63   6 2.63
   5  0.626  0.000  0.574-   4 2.63   1 2.78   2 2.78
   6  0.000  0.373  0.574-   4 2.63   1 2.78   2 2.78
   7  0.373  0.626  0.574-   4 2.63   1 2.78   2 2.78
   8  0.374  1.000  0.426-   3 2.63   2 2.78   1 2.78
   9  1.000  0.627  0.426-   3 2.63   2 2.78   1 2.78
  10  0.627  0.374  0.426-   3 2.63   2 2.78   1 2.78

  LATTYP: Found a hexagonal cell.
 ALAT       =     6.9077769333
 C/A-ratio  =     3.3939410937

  Lattice vectors:

 A1 = (   3.4538890000,  -5.9823100000,   0.0000000000)
 A2 = (  -6.9077770000,   0.0000000000,   0.0000000000)
 A3 = (   0.0000000000,   0.0000000000, -23.4445880000)

Analysis of symmetry for initial positions (statically):
 Subroutine PRICEL returns:
 Original cell was already a primitive cell.

 Routine SETGRP: Setting up the symmetry group for a
 hexagonal supercell.

 Subroutine GETGRP returns: Found  6 space group operations
 (whereof  6 operations were pure point group operations)
 out of a pool of 24 trial point group operations.

The static configuration has the point symmetry S_6 .

Analysis of symmetry for dynamics (positions and initial velocities):
 Subroutine PRICEL returns:
 Original cell was already a primitive cell.

[...]

The dynamic configuration has the point symmetry S_6 .

Analysis of constrained symmetry for selective dynamics:
 Subroutine PRICEL returns:
 Original cell was already a primitive cell.

[...]

The constrained configuration has the point symmetry S_6 .

Analysis of structural, dynamic, and magnetic symmetry:
 Subroutine PRICEL returns:
 Original cell was already a primitive cell.

 Routine SETGRP: Setting up the symmetry group for a
 hexagonal supercell.

 Subroutine GETGRP returns: Found  6 space group operations
 (whereof  6 operations were pure point group operations)
 out of a pool of 24 trial point group operations.

The magnetic configuration has the point symmetry S_6 .

 Subroutine INISYM returns: Found  6 space group operations
 (whereof  6 operations are pure point group operations),
 and found     1 'primitive' translations

 KPOINTS: Kpoints from vasprun.xml

Automatic generation of k-mesh.
Space group operators:
 irot       det(A)        alpha          n_x          n_y          n_z        tau_x        tau_y        tau_z
    1     1.000000     0.000000     1.000000     0.000000     0.000000     0.000000     0.000000     0.000000
    2    -1.000000     0.000000     1.000000     0.000000     0.000000     0.000000     0.000000     0.000000
    3     1.000000   120.000000     0.000000     0.000000     1.000000     0.000000     0.000000     0.000000
    4    -1.000000   120.000000     0.000000     0.000000     1.000000     0.000000     0.000000     0.000000
    5     1.000000   120.000000     0.000000     0.000000    -1.000000     0.000000     0.000000     0.000000
    6    -1.000000   120.000000     0.000000     0.000000    -1.000000     0.000000     0.000000     0.000000

 Subroutine IBZKPT returns following result:

 Found      5 irreducible k-points:

 Following reciprocal coordinates:
            Coordinates               Weight
  0.000000  0.000000  0.000000      1.000000
  0.200000  0.000000  0.000000      6.000000
  0.400000  0.000000  0.000000      6.000000
  0.400000  0.200000  0.000000      6.000000
 -0.400000  0.200000  0.000000      6.000000

 Following cartesian coordinates:
            Coordinates               Weight
  0.000000  0.000000  0.000000      1.000000
  0.028953 -0.016716  0.000000      6.000000
  0.057906 -0.033432  0.000000      6.000000
  0.057906  0.000000  0.000000      6.000000
 -0.057906  0.066864  0.000000      6.000000

 TETIRR: Found     15 inequivalent tetrahedra from      150

 SYSTEM =  unknown system
 POSCAR =  Ni2 Si2 S6

 Startparameter for this run:
   NWRITE =      2    write-flag & timer
   PREC   = accura    normal or accurate (medium, high low for compatibility)
   ISTART =      0    job   : 0-new  1-cont  2-samecut
   ICHARG =      2    charge: 1-file 2-atom 10-const
   ISPIN  =      2    spin polarized calculation?
   LNONCOLLINEAR =      F non collinear calculations
   LSORBIT =      F    spin-orbit coupling
   INIWAV =      1    electr: 0-lowe 1-rand  2-diag
   LASPH  =      F    aspherical Exc in radial PAW
   METAGGA=      F    non-selfconsistent MetaGGA calc.

 Electronic Relaxation 1
   ENCUT  =  520.0 eV  38.22 Ry    6.18 a.u.  12.84 12.84 43.59*2*pi/ulx,y,z
   ENINI  =  520.0     initial cutoff
   ENAUG  =  544.6 eV  augmentation charge cutoff
   NELM   =    400;   NELMIN=  2; NELMDL=  0     # of ELM steps
   EDIFF  = 0.1E-03   stopping-criterion for ELM
   LREAL  =      T    real-space projection
   NLSPLINE    = F    spline interpolate recip. space projectors
   LCOMPAT=      F    compatible to vasp.4.4
   GGA_COMPAT  = T    GGA compatible to vasp.4.4-vasp.4.6
   LMAXPAW     = -100 max onsite density
   LMAXMIX     =    2 max onsite mixed and CHGCAR
   VOSKOWN=      0    Vosko Wilk Nusair interpolation
   ROPT   =   -0.00025  -0.00025  -0.00025
 Ionic relaxation
   EDIFFG = 0.1E-02   stopping-criterion for IOM
   NSW    =     99    number of steps for IOM
   NBLOCK =      1;   KBLOCK =     99    inner block; outer block
   IBRION =      2    ionic relax: 0-MD 1-quasi-New 2-CG
   NFREE  =      1    steps in history (QN), initial steepest desc. (CG)
   ISIF   =      3    stress and relaxation
   IWAVPR =     11    prediction:  0-non 1-charg 2-wave 3-comb
   ISYM   =      2    0-nonsym 1-usesym 2-fastsym
   LCORR  =      T    Harris-Foulkes like correction to forces

   POTIM  = 0.5000    time-step for ionic-motion
   TEIN   =    0.0    initial temperature
   TEBEG  =    0.0;   TEEND  =   0.0 temperature during run
   SMASS  =  -3.00    Nose mass-parameter (am)
   estimated Nose-frequenzy (Omega)   =  0.10E-29 period in steps =****** mass=  -0.109E-26a.u.
   SCALEE = 1.0000    scale energy and forces
   NPACO  =    256;   APACO  = 16.0  distance and # of slots for P.C.
   PSTRESS=    0.0 pullay stress

  Mass of Ions in am
   POMASS =  58.69 28.09 32.07
  Ionic Valenz
   ZVAL   =  10.00  4.00  6.00
  Atomic Wigner-Seitz radii
  virtual crystal weights
   VCA    =   1.00  1.00  1.00
   NELECT =      64.0000    total number of electrons
   NUPDOWN=      -1.0000    fix difference up-down

 DOS related values:
   EMIN   =  10.00;   EMAX   =-10.00  energy-range for DOS
   EFERMI =   0.00
   ISMEAR =    -5;   SIGMA  =   0.05  broadening in eV -4-tet -1-fermi 0-gaus

 Electronic relaxation 2 (details)
   IALGO  =     38    algorithm
   LDIAG  =      T    sub-space diagonalisation (order eigenvalues)
   LSUBROT=      F    optimize rotation matrix (better conditioning)
   TURBO    =      0    0=normal 1=particle mesh
   IRESTART =      0    0=no restart 2=restart with 2 vectors
   NREBOOT  =      0    no. of reboots
   NMIN     =      0    reboot dimension
   EREF     =   0.00    reference energy to select bands
   IMIX   =      4    mixing-type and parameters
     AMIX     =   0.40;   BMIX     =  1.00
     AMIX_MAG =   1.60;   BMIX_MAG =  1.00
     AMIN     =   0.01
     WC   =   100.;   INIMIX=   1;  MIXPRE=   1;  MAXMIX= -45

 Intra band minimization:
   WEIMIN = 0.0010     energy-eigenvalue tresh-hold
   EBREAK =  0.52E-06  absolut break condition
   DEPER  =   0.30     relativ break condition

   TIME   =   0.40     timestep for ELM

  volume/ion in A,a.u.               =      96.88       653.80
[...]
     37      -3.2433      0.00000
     38      -1.3658      0.00000
     39      -1.3658      0.00000
     40      -0.2296      0.00000
     41      -0.1141      0.00000
     42       0.2926      0.00000
     43       0.2926      0.00000
     44       0.5530      0.00000
     45       1.3597      0.00000
     46       1.4087      0.00000
     47       2.1880      0.00000
     48       2.2183      0.00000

[...]

 soft charge-density along one line, spin component           1
         0         1         2         3         4         5         6         7         8         9
 total charge-density along one line

[...]

------------------------ aborting loop because EDIFF is reached ----------------------------------------

 total charge

# of ion       s       p       d       tot
    1        0.273   0.190   8.204   8.667
    2        0.273   0.190   8.204   8.667
    3        0.809   0.618   0.000   1.427
    4        0.809   0.618   0.000   1.427
    5        1.387   2.118   0.000   3.505
    6        1.385   2.190   0.000   3.574
    7        1.386   2.137   0.000   3.523
    8        1.387   2.118   0.000   3.505
    9        1.385   2.190   0.000   3.574
   10        1.386   2.137   0.000   3.523
tot         10.476  14.507  16.407  41.391

 magnetization (x)

[...]

  FORCE on cell =-STRESS in cart. coord.  units (eV):
  Direction    XX          YY          ZZ          XY          YZ          ZX
  Alpha Z    24.40283    24.40283    24.40283
  Ewald   10003.16019 10003.15816-11941.28445    -0.00208    -0.00052    -0.00095
  Hartree 10911.66480 10911.66584-10145.95431    -0.00055     0.00007     0.00010
  E(xc)    -258.48314  -258.48223  -258.04575    -0.00080     0.00004    -0.00004
  Local  -21778.28637-21778.28634 21194.21583     0.00246     0.00033     0.00065
  n-local   428.61780   429.33958   440.47200     0.28965     0.11294    -0.08966
  augment   -11.99372   -11.99360   -16.06217     0.00003     0.00001     0.00001
  Kinetic   651.14877   647.67100   685.47972    -1.89480    -1.03083    -1.36823
  Fock        0.00000     0.00000     0.00000     0.00000     0.00000     0.00000
  Total     -31.14680   -31.14680   -16.77632     0.00000     0.00000     0.00000
  in kB     -51.50795   -51.50794   -27.74325     0.00001     0.00000     0.00000

 VOLUME and BASIS-vectors are now :
  energy-cutoff  :      520.00
  volume of cell :      968.84
      direct lattice vectors                 reciprocal lattice vectors
     6.907777000 -0.000000000  0.000000000     0.144764372 -0.083579742  0.000000000
     3.453888000  5.982310000  0.000000000     0.000000000  0.167159509 -0.000000000
     0.000000000  0.000000000 23.444588000    -0.000000000  0.000000000  0.042653767

[...]

 FORCES acting on ions
    electron-ion (+dipol)            ewald-force                    non-local-force                 convergence-correction
   0.270E-03 0.145E-03 0.120E+01   0.643E-03 0.389E-03 -.118E+01   0.347E-17 -.347E-17 -.768E-02   -.215E-05 -.137E-05 0.307E-04
   -.270E-03 -.145E-03 -.120E+01   -.643E-03 -.389E-03 0.118E+01   -.347E-17 0.104E-16 0.768E-02   0.215E-05 0.137E-05 -.307E-04
   -.795E-04 0.570E-04 0.192E+03   -.141E-03 -.779E-04 -.186E+03   -.486E-16 0.000E+00 -.539E+01   0.304E-06 0.555E-07 -.270E-02
   0.795E-04 -.570E-04 -.192E+03   0.141E-03 0.779E-04 0.186E+03   0.208E-16 0.000E+00 0.539E+01   -.304E-06 -.555E-07 0.270E-02
   -.264E+02 0.161E+00 -.422E+03   0.233E+02 -.155E+00 0.425E+03   0.450E+01 -.970E-02 -.528E+01   0.194E-02 -.355E-03 0.934E-02
   0.133E+02 0.228E+02 -.422E+03   -.118E+02 -.201E+02 0.425E+03   -.226E+01 -.389E+01 -.528E+01   -.128E-02 -.150E-02 0.934E-02
   0.131E+02 -.230E+02 -.422E+03   -.115E+02 0.202E+02 0.425E+03   -.224E+01 0.390E+01 -.528E+01   -.663E-03 0.186E-02 0.934E-02
   0.264E+02 -.161E+00 0.422E+03   -.233E+02 0.155E+00 -.425E+03   -.450E+01 0.970E-02 0.528E+01   -.194E-02 0.355E-03 -.934E-02
   -.133E+02 -.228E+02 0.422E+03   0.118E+02 0.201E+02 -.425E+03   0.226E+01 0.389E+01 0.528E+01   0.128E-02 0.150E-02 -.934E-02
   -.131E+02 0.230E+02 0.422E+03   0.115E+02 -.202E+02 -.425E+03   0.224E+01 -.390E+01 0.528E+01   0.663E-03 -.186E-02 -.934E-02
   0.882E-10 0.213E-10 0.104E-09   0.355E-14 0.000E+00 -.171E-12   0.888E-15 0.888E-15 0.000E+00   0.203E-13 -.352E-13 -.776E-11

 POSITION                                       TOTAL-FORCE (eV/Angst)
      3.45388      1.99410     11.72054         0.000000      0.000000      0.009017
      6.90778      3.98821     11.72405         0.000000      0.000000     -0.009017
      0.00000      0.00000     10.50824         0.000000      0.000000     -0.203500
      0.00000      0.00000     12.93635         0.000000      0.000000      0.203500
      4.32819      0.00251     13.45138         1.362323     -0.003885     -1.660631
      1.29198      2.23274     13.45138        -0.684526     -1.177864     -1.660631
      4.74152      3.74706     13.45138        -0.677797      1.181749     -1.660631
      6.03348      5.97980      9.99321        -1.362323      0.003885      1.660631
      9.06969      3.74957      9.99321         0.684526      1.177864      1.660631
      5.62015      2.23525      9.99321         0.677797     -1.181749      1.660631
    total drift:                                0.000000      0.000000      0.000000

  FREE ENERGIE OF THE ION-ELECTRON SYSTEM (eV)
  free  energy   TOTEN  =       -36.17215008 eV

  energy  without entropy=      -36.17215008  energy(sigma->0) =      -36.17215008

[...]

 d Force = 0.6804809E+00[ 0.167E+00, 0.119E+01]  d Energy = 0.8709260E+01-0.803E+01
 d Force =-0.2134813E+03[-0.250E+03,-0.177E+03]  d Ewald  =-0.2819955E+04 0.261E+04

 Steepest descent step on ions:
 trial-energy change:   -8.709260  1 .order   -6.651228  -12.057477   -1.244980
  (g-gl).g = 0.121E+02      g.g   = 0.121E+02  gl.gl    = 0.000E+00
 g(Force)  = 0.134E+01   g(Stress)= 0.107E+02 ortho     = 0.000E+00
 gamma     =   0.00000
 trial     =   1.00000
 opt step  =   1.05230  (harmonic =   1.11514) maximal distance =0.08430286
 next E    =   -44.914258   (d E  =  -8.74211)

[...]

 d Force = 0.5516529E-02[ 0.133E-02, 0.971E-02]  d Energy = 0.3696120E-01-0.314E-01
 d Force =-0.1427913E+02[-0.144E+02,-0.141E+02]  d Ewald  =-0.1890820E+03 0.175E+03

[...]

 d Force = 0.6698212E-02[-0.617E-03, 0.140E-01]  d Energy = 0.6935788E-02-0.238E-03
 d Force =-0.7622065E+00[-0.709E+00,-0.816E+00]  d Ewald  = 0.1668567E+02-0.174E+02

 Conjugate gradient step on ions:
 trial-energy change:   -0.006936  1 .order   -0.007089   -0.014166   -0.000012
  (g-gl).g =-0.989E-01      g.g   = 0.150E-01  gl.gl    = 0.121E+02
 g(Force)  = 0.141E-01   g(Stress)= 0.867E-03 ortho     = 0.114E+00
 gamma     =  -0.00820
 trial     =   1.01046
 opt step  =   1.01130  (harmonic =   1.01130) maximal distance =0.01729642
 next E    =   -44.925460   (d E  =  -0.00709)

[...]

 d Force =-0.5284192E-06[-0.544E-06,-0.512E-06]  d Energy = 0.1187898E-03-0.119E-03
 d Force =-0.5882586E-03[-0.588E-03,-0.588E-03]  d Ewald  = 0.1388714E-01-0.145E-01

[...]

 d Force = 0.3110228E-03[-0.300E-04, 0.652E-03]  d Energy = 0.3100026E-03 0.102E-05
 d Force =-0.7274476E+01[-0.727E+01,-0.728E+01]  d Ewald  = 0.4840622E+02-0.557E+02

 Conjugate gradient step on ions:
 trial-energy change:   -0.000310  1 .order   -0.001470   -0.002628   -0.000311
  (g-gl).g = 0.245E-02      g.g   = 0.263E-02  gl.gl    = 0.150E-01
 g(Force)  = 0.752E-03   g(Stress)= 0.187E-02 ortho     =-0.158E-03
 gamma     =   0.16360
 trial     =   1.01063
 opt step  =   1.14639  (harmonic =   1.14639) maximal distance =0.00229541
 next E    =   -44.926916   (d E  =  -0.00149)

[...]

 eigenvalue-minimisations  :   992
 total energy-change (2. order) : 0.4763937E-03  (-0.1341087E-03)
 number of electron      63.9999995 magnetization       1.9984253
 augmentation part        6.9305640 magnetization       1.1039934

 Broyden mixing:
  rms(total) = 0.36500E-02    rms(broyden)= 0.36490E-02
  rms(prec ) = 0.47751E-02
  weight for this iteration     100.00

 eigenvalues of (default mixing * dielectric matrix)
  average eigenvalue GAMMA=   0.8725
  1.4724  0.2727

[...]

--------------------------------------- Iteration      7(   4)  ---------------------------------------

[...]

 eigenvalue-minimisations  :   800
 total energy-change (2. order) :-0.8415120E-04  (-0.1931932E-04)
 number of electron      63.9999995 magnetization       1.9984253
 augmentation part        6.9305640 magnetization       1.1039934

 Free energy of the ion-electron system (eV)
  alpha Z        PSCENC =        37.76417206
  Ewald energy   TEWEN  =     11002.46666111
  -Hartree energ DENC   =    -14669.01622147
  -exchange      EXHF   =         0.00000000
  -V(xc)+E(xc)   XCENC  =       115.70017826
  PAW double counting   =      2531.20050840    -2609.27374017
  entropy T*S    EENTRO =         0.00000000
  eigenvalues    EBANDS =      -491.53710737
  atomic energy  EATOM  =      4037.76956432
  Solvation  Ediel_sol  =         0.00000000
  free energy    TOTEN  =       -44.92598486 eV

  energy without entropy =      -44.92598486  energy(sigma->0) =      -44.92598486

 average (electrostatic) potential at core
  the test charge radii are     0.9791  0.9892  0.9698
  (the norm of the test charge is              1.0000)
       1 -50.1011       2 -50.1011       3 -92.4671       4 -92.4671       5 -94.1793
       6 -94.1793       7 -94.1793       8 -94.1793       9 -94.1793      10 -94.1793

 E-fermi :  -2.5005     XC(G=0):  -3.3904     alpha+bet : -3.1412

[...]

 spin component 2

[...]

 k-point     5 :      -0.4000    0.2000    0.0000
  band No.  band energies     occupation
      1     -16.5433      1.00000
      2     -16.1177      1.00000
      3     -15.7683      1.00000
      4     -15.6725      1.00000
      5     -15.4306      1.00000
      6     -15.2362      1.00000
      7     -10.5231      1.00000
      8      -9.3216      1.00000
      9      -8.1654      1.00000
     10      -7.6716      1.00000
     11      -7.6132      1.00000
     12      -7.0864      1.00000
     13      -6.9130      1.00000
     14      -6.5241      1.00000
     15      -6.2060      1.00000
     16      -5.9935      1.00000
     17      -5.8520      1.00000
     18      -5.7532      1.00000
     19      -5.5941      1.00000
     20      -5.3947      1.00000
     21      -5.2649      1.00000
     22      -4.6682      1.00000
     23      -4.5857      1.00000
     24      -4.4287      1.00000
     25      -4.3745      1.00000
     26      -4.0996      1.00000
     27      -3.9759      1.00000
     28      -3.8876      1.00000
     29      -3.8223      1.00000
     30      -3.6502      1.00000
     31      -3.3166      1.00000
     32      -2.2612      0.00000
     33      -2.2043      0.00000
     34      -1.8910      0.00000
     35      -1.6106      0.00000
     36       0.3199      0.00000
     37       0.7730      0.00000
     38       1.2006      0.00000
     39       1.5111      0.00000
     40       1.9443      0.00000
     41       2.2657      0.00000
     42       2.4248      0.00000
     43       3.2654      0.00000
     44       3.3582      0.00000
     45       3.4668      0.00000
     46       3.7184      0.00000
     47       3.7303      0.00000
     48       4.4666      0.00000

[...]

 soft charge-density along one line, spin component           2
         0         1         2         3         4         5         6         7         8         9
 total charge-density along one line

------------------------ aborting loop because EDIFF is reached ----------------------------------------

[...]

  FORCE on cell =-STRESS in cart. coord.  units (eV):
  Direction    XX          YY          ZZ          XY          YZ          ZX
  Alpha Z    37.76417    37.76417    37.76417
  Ewald   13308.82298 13308.82032-15615.17891    -0.00233    -0.00062    -0.00111
  Hartree 14054.21163 14054.21268-13443.68493    -0.00054     0.00006     0.00010
  E(xc)    -267.43819  -267.43817  -266.99748    -0.00000     0.00000     0.00001
  Local  -28260.86488-28260.86472 28130.28922     0.00244     0.00037     0.00068
  n-local   448.63316   449.11991   448.08723     0.14260     0.59001     0.22258
  augment    -9.51230    -9.51217   -13.25757     0.00004     0.00004     0.00005
  Kinetic   692.59976   683.58778   722.73453    -4.41014    -0.64553    -1.31694
  Fock        0.00000     0.00000     0.00000     0.00000     0.00000     0.00000
  Total      -0.04693    -0.04693    -0.24375     0.00000    -0.00000     0.00000
  in kB      -0.12010    -0.12010    -0.62379     0.00000    -0.00000     0.00000

 VOLUME and BASIS-vectors are now :
  energy-cutoff  :      520.00
  volume of cell :      626.05
      direct lattice vectors                 reciprocal lattice vectors
     5.818254417  0.000000030  0.000000000     0.171872856 -0.099230833 -0.000000000
     2.909126918  5.038755953 -0.000000000    -0.000000001  0.198461686  0.000000000
     0.000000000 -0.000000000 21.354722949    -0.000000000  0.000000000  0.046828048

  length of vectors
     5.818254417  5.818254118 21.354722949     0.198461676  0.198461686  0.046828048

 FORCES acting on ions
    electron-ion (+dipol)            ewald-force                    non-local-force                 convergence-correction
   -.132E-03 -.832E-04 0.963E+00   0.898E-03 0.533E-03 -.973E+00   0.208E-16 -.693E-21 0.128E-01   0.890E-07 0.561E-07 0.751E-03
   0.132E-03 0.832E-04 -.963E+00   -.898E-03 -.533E-03 0.973E+00   0.139E-16 0.693E-21 -.128E-01   -.890E-07 -.561E-07 -.751E-03
   -.297E-04 -.480E-04 0.283E+03   -.223E-03 -.125E-03 -.276E+03   0.137E-16 0.143E-16 -.702E+01   0.243E-07 0.128E-07 0.322E-01
   0.297E-04 0.480E-04 -.283E+03   0.223E-03 0.125E-03 0.276E+03   0.175E-16 -.143E-16 0.702E+01   -.243E-07 -.128E-07 -.322E-01
   -.278E+02 0.286E-02 -.601E+03   0.247E+02 0.780E-03 0.605E+03   0.310E+01 -.828E-02 -.406E+01   -.857E-02 0.433E-03 -.726E-01
   0.139E+02 0.241E+02 -.601E+03   -.124E+02 -.214E+02 0.605E+03   -.156E+01 -.268E+01 -.406E+01   0.466E-02 0.720E-02 -.726E-01
   0.139E+02 -.241E+02 -.601E+03   -.124E+02 0.214E+02 0.605E+03   -.155E+01 0.269E+01 -.406E+01   0.391E-02 -.764E-02 -.726E-01
   0.278E+02 -.286E-02 0.601E+03   -.247E+02 -.780E-03 -.605E+03   -.310E+01 0.828E-02 0.406E+01   0.857E-02 -.433E-03 0.726E-01
   -.139E+02 -.241E+02 0.601E+03   0.124E+02 0.214E+02 -.605E+03   0.156E+01 0.268E+01 0.406E+01   -.466E-02 -.720E-02 0.726E-01
   -.139E+02 0.241E+02 0.601E+03   0.124E+02 -.214E+02 -.605E+03   0.155E+01 -.269E+01 0.406E+01   -.391E-02 0.764E-02 0.726E-01
   0.248E-09 0.357E-09 0.160E-09   0.000E+00 0.107E-13 -.114E-12   -.444E-15 -.444E-15 0.000E+00   -.562E-12 0.667E-12 0.318E-10

 POSITION                                       TOTAL-FORCE (eV/Angst)
      2.90912      1.67958     10.67612         0.000000     -0.000000      0.003546
      5.81826      3.35917     10.67860        -0.000000      0.000000     -0.003546
      0.00000     -0.00000      9.54422        -0.000000     -0.000000     -0.021398
      0.00000     -0.00000     11.81050         0.000000     -0.000000      0.021398
      3.69990      0.00096     12.17019        -0.002031     -0.003365      0.016003
      1.06001      1.83408     12.17019        -0.001899      0.003442      0.016003
      3.96748      3.20373     12.17019         0.003930     -0.000077      0.016003
      5.02748      5.03780      9.18453         0.002031      0.003365     -0.016003
      7.66737      3.20468      9.18453         0.001899     -0.003442     -0.016003
      4.75990      1.83503      9.18453        -0.003930      0.000077     -0.016003
    total drift:                                0.000000      0.000000      0.000000

  FREE ENERGIE OF THE ION-ELECTRON SYSTEM (eV)
  free  energy   TOTEN  =       -44.92598486 eV

  energy  without entropy=      -44.92598486  energy(sigma->0) =      -44.92598486

 d Force =-0.1143720E-04[-0.188E-04,-0.407E-05]  d Energy = 0.2488938E-03-0.260E-03
 d Force =-0.9796178E+00[-0.980E+00,-0.980E+00]  d Ewald  = 0.6500865E+01-0.748E+01

 reached required accuracy - stopping structural energy minimisation

 total charge

[...]

 magnetization (x)

# of ion       s       p       d       tot
    1       -0.002  -0.002   0.649   0.646
    2       -0.002  -0.002   0.649   0.646
    3        0.001  -0.001   0.000  -0.000
    4        0.001  -0.001   0.000  -0.000
    5        0.009   0.043   0.000   0.052
    6        0.010   0.066   0.000   0.076
    7        0.008   0.055   0.000   0.063
    8        0.009   0.043   0.000   0.052
    9        0.010   0.066   0.000   0.076
   10        0.008   0.055   0.000   0.063
tot          0.054   0.321   1.298   1.673

 BZINTS: Fermi energy: -2.500509; 64.000000 electrons
         Band energy:-491.537107;  BLOECHL correction:  0.000000