 vasp.5.4.4.18Apr17-6-g9f103f2a35 (build May  1 2020 15:48:39) complex
 executed on             LinuxGNU date 2020.06.19  21:47:25

 INCAR:
 POTCAR:   PAW_PBE Ni 06Sep2000
 POTCAR:    PAW_PBE P 17Jan2003
 POTCAR:   PAW_PBE Ge 05Jan2001
 POTCAR:   PAW_PBE Te 08Apr2002

 POTCAR:   PAW_PBE Ni 06Sep2000
   VRHFIN =Ni:

   TITEL  = PAW_PBE Ni 06Sep2000
   POMASS =   58.690; ZVAL   =   10.000    mass and valenz
   ENMAX  =  269.533; ENMIN  =  202.150 eV
   QCUT   =   -4.451; QGAM   =    8.902    optimization parameters

   Description
     l     E      TYP  RCUT    TYP  RCUT
     2   .000     23  2.300
     2   .000     23  2.300
     0   .000     23  2.300
     0   .000     23  2.300
     1  -.200     23  2.300
     1   .000     23  2.300
     3   .000      7   .000

 POTCAR:    PAW_PBE P 17Jan2003
   VRHFIN =P : s2p3

   TITEL  = PAW_PBE P 17Jan2003
   POMASS =   30.974; ZVAL   =    5.000    mass and valenz
   ENMAX  =  270.000; ENMIN  =  191.280 eV
   QCUT   =   -4.330; QGAM   =    8.659    optimization parameters

[...]

 POTCAR:   PAW_PBE Ge 05Jan2001
   VRHFIN =Ge: s2p2

   TITEL  = PAW_PBE Ge 05Jan2001
   POMASS =   72.610; ZVAL   =    4.000    mass and valenz
   ENMAX  =  173.807; ENMIN  =  130.355 eV
   QCUT   =   -3.574; QGAM   =    7.148    optimization parameters

[...]

 POTCAR:   PAW_PBE Te 08Apr2002
   VRHFIN =Te: s2p4

   TITEL  = PAW_PBE Te 08Apr2002
   POMASS =  127.600; ZVAL   =    6.000    mass and valenz
   ENMAX  =  174.982; ENMIN  =  131.236 eV
   QCUT   =   -3.586; QGAM   =    7.172    optimization parameters

   Description
     l     E      TYP  RCUT    TYP  RCUT
     0   .000     23  2.300
     0   .000     23  2.300
     1   .000     23  2.300
     1   .000     23  2.300
     2   .000     23  2.300
     3  -.100     23  2.300

 Optimization of the real space projectors (new method)

 maximal supplied QI-value         = 16.25
 optimisation between [QCUT,QGAM] = [ 11.54, 23.24] = [ 37.28,151.24] Ry
 Optimized for a Real-space Cutoff    1.49 Angstroem

   l    n(q)    QCUT    max X(q) W(low)/X(q) W(high)/X(q)  e(spline)
   2      9    11.539     4.811    0.20E-04    0.14E-04    0.45E-07
   2      9    11.539    15.146    0.24E-03    0.12E-03    0.20E-06
   0     10    11.539    14.357    0.18E-04    0.12E-05    0.14E-07
   0     10    11.539    43.282    0.39E-04    0.17E-04    0.23E-06
   1     10    11.539     5.514    0.99E-05    0.13E-04    0.19E-07
   1     10    11.539     7.697    0.38E-04    0.79E-04    0.91E-07
 Optimization of the real space projectors (new method)

[...]

   l    n(q)    QCUT    max X(q) W(low)/X(q) W(high)/X(q)  e(spline)
   0      9    11.539     8.651    0.22E-04    0.16E-04    0.10E-07
   0      9    11.539    33.192    0.11E-03    0.16E-03    0.65E-07
   1      8    11.539     5.899    0.37E-04    0.28E-04    0.43E-07
   1      8    11.539    27.289    0.22E-03    0.28E-04    0.14E-06
   2      8    11.539     4.673    0.11E-03    0.18E-03    0.58E-07
 Optimization of the real space projectors (new method)

 maximal supplied QI-value         = 16.25
 optimisation between [QCUT,QGAM] = [ 11.54, 23.24] = [ 37.28,151.24] Ry
 Optimized for a Real-space Cutoff    1.36 Angstroem

   l    n(q)    QCUT    max X(q) W(low)/X(q) W(high)/X(q)  e(spline)
   0      9    11.539     7.090    0.13E-04    0.25E-05    0.51E-08
   0      9    11.539   101.654    0.53E-04    0.69E-04    0.12E-06
   1      9    11.539     5.276    0.20E-04    0.98E-05    0.24E-07
   1      9    11.539    81.891    0.24E-03    0.13E-04    0.15E-06
   2      9    11.539     5.599    0.30E-04    0.97E-04    0.54E-07

 PAW_PBE Ni 06Sep2000                   :
  PAW_PBE P 17Jan2003                   :
 PAW_PBE Ge 05Jan2001                   :
 PAW_PBE Te 08Apr2002                   :

 POSCAR: Ni2 P Ge Te6
  positions in direct lattice
  velocities in cartesian coordinates
 exchange correlation table for  LEXCH =       42
   RHO(1)=    0.500       N(1)  =     2000
   RHO(2)=  100.500       N(2)  =     4000

 ion  position               nearest neighbor table
   1  0.333  0.333  0.500-   6 2.78   5 2.78   7 2.78   8 2.78  10 2.78   9 2.78
   2  0.667  0.667  0.500-   9 2.78   8 2.78  10 2.78   5 2.78   7 2.78   6 2.78
   3  0.000  0.000  0.448-   4 2.43   8 2.63  10 2.63   9 2.63
   4  0.000  0.000  0.552-   3 2.43   5 2.63   7 2.63   6 2.63
   5  0.626  0.000  0.574-   4 2.63   1 2.78   2 2.78
   6  0.000  0.373  0.574-   4 2.63   1 2.78   2 2.78
   7  0.373  0.626  0.574-   4 2.63   1 2.78   2 2.78
   8  0.374  1.000  0.426-   3 2.63   2 2.78   1 2.78
   9  1.000  0.627  0.426-   3 2.63   2 2.78   1 2.78
  10  0.627  0.374  0.426-   3 2.63   2 2.78   1 2.78

  LATTYP: Found a hexagonal cell.
 ALAT       =     6.9077769333
 C/A-ratio  =     3.3939410937

  Lattice vectors:

 A1 = (   3.4538890000,  -5.9823100000,   0.0000000000)
 A2 = (  -6.9077770000,   0.0000000000,   0.0000000000)
 A3 = (   0.0000000000,   0.0000000000, -23.4445880000)

Analysis of symmetry for initial positions (statically):
 Subroutine PRICEL returns:
 Original cell was already a primitive cell.

 Routine SETGRP: Setting up the symmetry group for a
 hexagonal supercell.

 Subroutine GETGRP returns: Found  3 space group operations
 (whereof  3 operations were pure point group operations)
 out of a pool of 24 trial point group operations.

The static configuration has the point symmetry C_3 .

Analysis of symmetry for dynamics (positions and initial velocities):
 Subroutine PRICEL returns:
 Original cell was already a primitive cell.

[...]

The dynamic configuration has the point symmetry C_3 .

Analysis of constrained symmetry for selective dynamics:
 Subroutine PRICEL returns:
 Original cell was already a primitive cell.

[...]

The constrained configuration has the point symmetry C_3 .

Analysis of structural, dynamic, and magnetic symmetry:
 Subroutine PRICEL returns:
 Original cell was already a primitive cell.

 Routine SETGRP: Setting up the symmetry group for a
 hexagonal supercell.

 Subroutine GETGRP returns: Found  3 space group operations
 (whereof  3 operations were pure point group operations)
 out of a pool of 24 trial point group operations.

The magnetic configuration has the point symmetry C_3 .

 Subroutine INISYM returns: Found  3 space group operations
 (whereof  3 operations are pure point group operations),
 and found     1 'primitive' translations

 KPOINTS: Kpoints from vasprun.xml

Automatic generation of k-mesh.
Space group operators:
 irot       det(A)        alpha          n_x          n_y          n_z        tau_x        tau_y        tau_z
    1     1.000000     0.000000     1.000000     0.000000     0.000000     0.000000     0.000000     0.000000
    2     1.000000   120.000000     0.000000     0.000000     1.000000     0.000000     0.000000     0.000000
    3     1.000000   120.000000     0.000000     0.000000    -1.000000     0.000000     0.000000     0.000000

 Subroutine IBZKPT returns following result:

 Found      5 irreducible k-points:

 Following reciprocal coordinates:
            Coordinates               Weight
  0.000000  0.000000  0.000000      1.000000
  0.200000  0.000000  0.000000      6.000000
  0.400000  0.000000  0.000000      6.000000
  0.400000  0.200000  0.000000      6.000000
 -0.400000  0.200000  0.000000      6.000000

 Following cartesian coordinates:
            Coordinates               Weight
  0.000000  0.000000  0.000000      1.000000
  0.028953 -0.016716  0.000000      6.000000
  0.057906 -0.033432  0.000000      6.000000
  0.057906  0.000000  0.000000      6.000000
 -0.057906  0.066864  0.000000      6.000000

 TETIRR: Found     15 inequivalent tetrahedra from      150

 SYSTEM =  unknown system
 POSCAR =  Ni2 P Ge Te6

 Startparameter for this run:
   NWRITE =      2    write-flag & timer
   PREC   = accura    normal or accurate (medium, high low for compatibility)
   ISTART =      0    job   : 0-new  1-cont  2-samecut
   ICHARG =      2    charge: 1-file 2-atom 10-const
   ISPIN  =      2    spin polarized calculation?
   LNONCOLLINEAR =      F non collinear calculations
   LSORBIT =      F    spin-orbit coupling
   INIWAV =      1    electr: 0-lowe 1-rand  2-diag
   LASPH  =      F    aspherical Exc in radial PAW
   METAGGA=      F    non-selfconsistent MetaGGA calc.

 Electronic Relaxation 1
   ENCUT  =  520.0 eV  38.22 Ry    6.18 a.u.  12.84 12.84 43.59*2*pi/ulx,y,z
   ENINI  =  520.0     initial cutoff
   ENAUG  =  544.6 eV  augmentation charge cutoff
   NELM   =    400;   NELMIN=  2; NELMDL=  0     # of ELM steps
   EDIFF  = 0.1E-03   stopping-criterion for ELM
   LREAL  =      T    real-space projection
   NLSPLINE    = F    spline interpolate recip. space projectors
   LCOMPAT=      F    compatible to vasp.4.4
   GGA_COMPAT  = T    GGA compatible to vasp.4.4-vasp.4.6
   LMAXPAW     = -100 max onsite density
   LMAXMIX     =    2 max onsite mixed and CHGCAR
   VOSKOWN=      0    Vosko Wilk Nusair interpolation
   ROPT   =   -0.00025  -0.00025  -0.00025  -0.00025
 Ionic relaxation
   EDIFFG = 0.1E-02   stopping-criterion for IOM
   NSW    =     99    number of steps for IOM
   NBLOCK =      1;   KBLOCK =     99    inner block; outer block
   IBRION =      2    ionic relax: 0-MD 1-quasi-New 2-CG
   NFREE  =      1    steps in history (QN), initial steepest desc. (CG)
   ISIF   =      3    stress and relaxation
   IWAVPR =     11    prediction:  0-non 1-charg 2-wave 3-comb
   ISYM   =      2    0-nonsym 1-usesym 2-fastsym
   LCORR  =      T    Harris-Foulkes like correction to forces

   POTIM  = 0.5000    time-step for ionic-motion
   TEIN   =    0.0    initial temperature
   TEBEG  =    0.0;   TEEND  =   0.0 temperature during run
   SMASS  =  -3.00    Nose mass-parameter (am)
   estimated Nose-frequenzy (Omega)   =  0.10E-29 period in steps =****** mass=  -0.109E-26a.u.
   SCALEE = 1.0000    scale energy and forces
   NPACO  =    256;   APACO  = 16.0  distance and # of slots for P.C.
   PSTRESS=    0.0 pullay stress

  Mass of Ions in am
   POMASS =  58.69 30.97 72.61127.60
  Ionic Valenz
   ZVAL   =  10.00  5.00  4.00  6.00
  Atomic Wigner-Seitz radii
  virtual crystal weights
   VCA    =   1.00  1.00  1.00  1.00
   NELECT =      65.0000    total number of electrons
   NUPDOWN=      -1.0000    fix difference up-down

 DOS related values:
   EMIN   =  10.00;   EMAX   =-10.00  energy-range for DOS
   EFERMI =   0.00
   ISMEAR =    -5;   SIGMA  =   0.05  broadening in eV -4-tet -1-fermi 0-gaus

 Electronic relaxation 2 (details)
   IALGO  =     38    algorithm
   LDIAG  =      T    sub-space diagonalisation (order eigenvalues)
   LSUBROT=      F    optimize rotation matrix (better conditioning)
   TURBO    =      0    0=normal 1=particle mesh
   IRESTART =      0    0=no restart 2=restart with 2 vectors
   NREBOOT  =      0    no. of reboots
   NMIN     =      0    reboot dimension
   EREF     =   0.00    reference energy to select bands
   IMIX   =      4    mixing-type and parameters
     AMIX     =   0.40;   BMIX     =  1.00
     AMIX_MAG =   1.60;   BMIX_MAG =  1.00
     AMIN     =   0.01
     WC   =   100.;   INIMIX=   1;  MIXPRE=   1;  MAXMIX= -45

 Intra band minimization:
   WEIMIN = 0.0010     energy-eigenvalue tresh-hold
[...]
    5        1.408   1.891   0.033   3.331
    6        1.400   1.906   0.032   3.338
    7        1.405   1.890   0.033   3.327
    8        1.416   1.858   0.034   3.308
    9        1.405   1.849   0.036   3.289
   10        1.413   1.848   0.035   3.296
tot         11.414  14.296  16.951  42.661

 magnetization (x)

[...]

  FORCE on cell =-STRESS in cart. coord.  units (eV):
  Direction    XX          YY          ZZ          XY          YZ          ZX
  Alpha Z    19.82142    19.82142    19.82142
  Ewald   10336.73094 10336.72865-12334.57977    -0.00203    -0.00054    -0.00098
  Hartree 11107.55795 11107.55901-10446.23325    -0.00039     0.00009     0.00014
  E(xc)    -282.98096  -282.98109  -283.03854     0.00014     0.00005    -0.00001
  Local  -22313.72846-22313.72810 21874.87767     0.00222     0.00035     0.00066
  n-local   659.22636   659.46169   676.15630    -0.20515    -0.67252    -0.83633
  augment   -63.81591   -63.81580   -73.00538     0.00004     0.00002     0.00004
  Kinetic   533.77965   524.39924   558.94150    -5.32826    -1.42990    -1.68408
  Fock        0.00000     0.00000     0.00000     0.00000     0.00000     0.00000
  Total      -7.98199    -7.98199    -7.06006    -0.00000     0.00000     0.00000
  in kB     -13.19994   -13.19993   -11.67533    -0.00000     0.00000     0.00000

 VOLUME and BASIS-vectors are now :
  energy-cutoff  :      520.00
  volume of cell :      968.84
      direct lattice vectors                 reciprocal lattice vectors
     6.907777000 -0.000000000  0.000000000     0.144764372 -0.083579742  0.000000000
     3.453888000  5.982310000  0.000000000     0.000000000  0.167159509 -0.000000000
     0.000000000  0.000000000 23.444588000    -0.000000000  0.000000000  0.042653767

[...]

 FORCES acting on ions
    electron-ion (+dipol)            ewald-force                    non-local-force                 convergence-correction
   0.229E-03 0.130E-03 -.743E+01   0.658E-03 0.396E-03 0.773E+01   -.139E-16 0.000E+00 -.313E+00   0.262E-04 0.158E-04 0.363E-01
   -.237E-03 -.114E-03 -.980E+01   -.658E-03 -.396E-03 0.101E+02   -.139E-16 0.000E+00 -.340E+00   -.269E-04 -.148E-04 0.371E-01
   -.297E-04 -.444E-04 0.234E+03   -.176E-03 -.974E-04 -.233E+03   0.000E+00 0.000E+00 -.153E+01   -.399E-05 -.211E-05 0.582E-01
   0.216E-04 0.223E-04 -.199E+03   0.141E-03 0.779E-04 0.199E+03   0.347E-17 0.000E+00 0.105E-01   0.263E-05 0.144E-05 -.150E-01
   -.253E+02 0.163E+00 -.431E+03   0.219E+02 -.154E+00 0.435E+03   0.305E+01 -.105E-01 -.423E+01   -.211E-01 -.556E-02 -.339E-01
   0.128E+02 0.219E+02 -.431E+03   -.111E+02 -.189E+02 0.435E+03   -.153E+01 -.263E+01 -.423E+01   0.571E-02 0.210E-01 -.339E-01
   0.125E+02 -.220E+02 -.431E+03   -.108E+02 0.191E+02 0.435E+03   -.151E+01 0.265E+01 -.423E+01   0.154E-01 -.155E-01 -.339E-01
   0.183E+02 -.143E+00 0.426E+03   -.153E+02 0.146E+00 -.429E+03   -.317E+01 0.621E-02 0.407E+01   0.231E-01 -.517E-02 0.480E-01
   -.929E+01 -.158E+02 0.426E+03   0.778E+01 0.132E+02 -.429E+03   0.159E+01 0.275E+01 0.407E+01   -.160E-01 -.174E-01 0.480E-01
   -.904E+01 0.160E+02 0.426E+03   0.752E+01 -.133E+02 -.429E+03   0.158E+01 -.275E+01 0.407E+01   -.709E-02 0.226E-01 0.480E-01
   -.140E-04 -.249E-04 0.251E+01   -.444E-14 0.711E-14 -.568E-13   -.444E-15 0.000E+00 -.267E+01   -.196E-05 0.265E-06 0.159E+00

 POSITION                                       TOTAL-FORCE (eV/Angst)
      3.45388      1.99410     11.72054        -0.000000     -0.000000      0.018309
      6.90778      3.98821     11.72405        -0.000000     -0.000000      0.012286
      0.00000      0.00000     10.50824        -0.000000     -0.000000     -0.066308
      0.00000      0.00000     12.93635        -0.000000     -0.000000     -0.279586
      4.32819      0.00251     13.45138        -0.393374     -0.006055     -0.538230
      1.29198      2.23274     13.45138         0.191443      0.343699     -0.538230
      4.74152      3.74706     13.45138         0.201930     -0.337644     -0.538230
      6.03348      5.97980      9.99321        -0.119307      0.004136      0.643330
      9.06969      3.74957      9.99321         0.063235      0.101255      0.643330
      5.62015      2.23525      9.99321         0.056072     -0.105391      0.643330
    total drift:                               -0.000016     -0.000025     -0.005283

  FREE ENERGIE OF THE ION-ELECTRON SYSTEM (eV)
  free  energy   TOTEN  =       -32.31532943 eV

  energy  without entropy=      -32.31532943  energy(sigma->0) =      -32.31532943

[...]

 d Force = 0.1003620E-02[ 0.178E-02, 0.228E-03]  d Energy = 0.2711731E+00-0.270E+00
 d Force = 0.7629428E+00[ 0.794E+00, 0.732E+00]  d Ewald  =-0.3925055E+03 0.393E+03

 Steepest descent step on ions:
 trial-energy change:   -0.271173  1 .order   -0.251279   -0.855427    0.352870
  (g-gl).g = 0.855E+00      g.g   = 0.855E+00  gl.gl    = 0.000E+00
 g(Force)  = 0.236E-03   g(Stress)= 0.855E+00 ortho     = 0.000E+00
 gamma     =   0.00000
 trial     =   1.00000
 opt step  =   0.72754  (harmonic =   0.70796) maximal distance =0.00064262
 next E    =   -32.634171   (d E  =  -0.31884)

[...]

 d Force =-0.4690971E-03[-0.431E-03,-0.507E-03]  d Energy = 0.4490910E-01-0.454E-01
 d Force =-0.2235062E+00[-0.221E+00,-0.226E+00]  d Ewald  = 0.1104734E+03-0.111E+03

[...]

 d Force = 0.1187712E-01[ 0.121E-01, 0.116E-01]  d Energy = 0.4393913E-01-0.321E-01
 d Force = 0.5637044E+01[ 0.566E+01, 0.562E+01]  d Ewald  = 0.2299887E+03-0.224E+03

 Conjugate gradient step on ions:
 trial-energy change:   -0.043939  1 .order   -0.050107   -0.050137   -0.050077
  (g-gl).g = 0.439E-01      g.g   = 0.526E-01  gl.gl    = 0.855E+00
 g(Force)  = 0.124E-01   g(Stress)= 0.402E-01 ortho     = 0.867E-02
 gamma     =   0.05133
 trial     =   0.94551
 opt step  =   3.78203  (harmonic = 792.68537) maximal distance =0.00000000
 next E    =   -53.648169   (d E  = -21.01676)

[...]

 d Force = 0.1061353E-01[ 0.110E-01, 0.103E-01]  d Energy =-0.1217215E-02 0.118E-01
 d Force = 0.3968350E+01[ 0.398E+01, 0.396E+01]  d Ewald  = 0.1522487E+03-0.148E+03

[...]

 d Force = 0.2790139E-01[ 0.740E-02, 0.484E-01]  d Energy = 0.2077577E-01 0.713E-02
 d Force = 0.1776517E+02[ 0.179E+02, 0.176E+02]  d Ewald  = 0.1713158E+03-0.154E+03

 Conjugate gradient step on ions:
 trial-energy change:   -0.020776  1 .order   -0.022005   -0.048878    0.004868
  (g-gl).g = 0.432E-01      g.g   = 0.425E-01  gl.gl    = 0.526E-01
 g(Force)  = 0.234E-01   g(Stress)= 0.191E-01 ortho     =-0.585E-02
 gamma     =   0.82224
 trial     =   1.29787
 opt step  =   1.16383  (harmonic =   1.18033) maximal distance =0.00000000
 next E    =   -32.767570   (d E  =  -0.02103)

[...]

 d Force =-0.9745794E-03[-0.118E-02,-0.767E-03]  d Energy = 0.2357088E-03-0.121E-02
 d Force =-0.1856701E+01[-0.185E+01,-0.186E+01]  d Ewald  =-0.1755493E+02 0.157E+02

[...]

 d Force = 0.1040982E-02[ 0.140E-03, 0.194E-02]  d Energy = 0.4908693E-02-0.387E-02
 d Force = 0.3042902E+01[ 0.306E+01, 0.302E+01]  d Ewald  =-0.1106655E+03 0.114E+03

 Conjugate gradient step on ions:
 trial-energy change:   -0.004909  1 .order   -0.004537   -0.009320    0.000246
  (g-gl).g = 0.917E-03      g.g   = 0.731E-02  gl.gl    = 0.425E-01
 g(Force)  = 0.133E-02   g(Stress)= 0.598E-02 ortho     = 0.893E-03
 gamma     =   0.02160
 trial     =   1.27106
 opt step  =   1.23842  (harmonic =   1.23842) maximal distance =0.00112980
 next E    =   -32.772093   (d E  =  -0.00454)

[...]

 d Force =-0.4186482E-05[-0.479E-05,-0.359E-05]  d Energy = 0.3018448E-04-0.344E-04
 d Force =-0.7847423E-01[-0.785E-01,-0.785E-01]  d Ewald  = 0.2861554E+01-0.294E+01

[...]

 eigenvalue-minimisations  :   944
 total energy-change (2. order) : 0.6051808E-03  (-0.1847978E-03)
 number of electron      65.0000001 magnetization       0.0004244
 augmentation part        4.0932159 magnetization      -0.0015461

 Broyden mixing:
  rms(total) = 0.49701E-02    rms(broyden)= 0.49487E-02
  rms(prec ) = 0.55531E-02
  weight for this iteration     100.00

 eigenvalues of (default mixing * dielectric matrix)
  average eigenvalue GAMMA=   0.2151
  0.3093  0.1208

[...]

--------------------------------------- Iteration     11(   4)  ---------------------------------------

[...]

 eigenvalue-minimisations  :   720
 total energy-change (2. order) :-0.1918539E-04  (-0.1207664E-04)
 number of electron      65.0000001 magnetization       0.0004244
 augmentation part        4.0932159 magnetization      -0.0015461

 Free energy of the ion-electron system (eV)
  alpha Z        PSCENC =        22.27717552
  Ewald energy   TEWEN  =      7518.40593381
  -Hartree energ DENC   =    -10965.64272619
  -exchange      EXHF   =         0.00000000
  -V(xc)+E(xc)   XCENC  =      -117.95965712
  PAW double counting   =      2573.72408654    -2445.10626195
  entropy T*S    EENTRO =         0.00000000
  eigenvalues    EBANDS =      -411.50732777
  atomic energy  EATOM  =      3793.03632354
  Solvation  Ediel_sol  =         0.00000000
  free energy    TOTEN  =       -32.77245362 eV

  energy without entropy =      -32.77245362  energy(sigma->0) =      -32.77245362

 average (electrostatic) potential at core
  the test charge radii are     0.9791  0.9587  1.1631  1.1897
  (the norm of the test charge is              1.0000)
       1 -48.8807       2 -48.8817       3 -91.4186       4 -38.8879       5 -96.3841
       6 -96.3841       7 -96.3841       8 -96.5892       9 -96.5892      10 -96.5891

 E-fermi :  -1.5178     XC(G=0):  -3.6916     alpha+bet : -3.2919

[...]

 spin component 2

[...]

 k-point     5 :      -0.4000    0.2000    0.0000
  band No.  band energies     occupation
      1     -14.7865      1.00000
      2     -13.7680      1.00000
      3     -13.4669      1.00000
      4     -13.3370      1.00000
      5     -12.9369      1.00000
      6     -12.7958      1.00000
      7     -10.9374      1.00000
      8      -9.2508      1.00000
      9      -6.9538      1.00000
     10      -6.5304      1.00000
     11      -6.2525      1.00000
     12      -5.7094      1.00000
     13      -5.6533      1.00000
     14      -5.1693      1.00000
     15      -5.0704      1.00000
     16      -4.8977      1.00000
     17      -4.7949      1.00000
     18      -4.6343      1.00000
     19      -4.5536      1.00000
     20      -4.3601      1.00000
     21      -4.2668      1.00000
     22      -3.8755      1.00000
     23      -3.6185      1.00000
     24      -3.4793      1.00000
     25      -3.4434      1.00000
     26      -3.3284      1.00000
     27      -3.1922      1.00000
     28      -3.0700      1.00000
     29      -2.9888      1.00000
     30      -2.9781      1.00000
     31      -2.7487      1.00000
     32      -1.8258      1.00000
     33      -1.6372      1.01241
     34      -1.4963      0.00000
     35      -1.0775      0.00000
     36      -0.9243      0.00000
     37      -0.3548      0.00000
     38       0.1745      0.00000
     39       0.6135      0.00000
     40       1.2661      0.00000
     41       1.5024      0.00000
     42       1.5610      0.00000
     43       2.6187      0.00000
     44       2.9388      0.00000
     45       2.9545      0.00000
     46       3.0956      0.00000
     47       3.1299      0.00000
     48       3.6636      0.00000

[...]

 soft charge-density along one line, spin component           2
         0         1         2         3         4         5         6         7         8         9
 total charge-density along one line

------------------------ aborting loop because EDIFF is reached ----------------------------------------

[...]

  FORCE on cell =-STRESS in cart. coord.  units (eV):
  Direction    XX          YY          ZZ          XY          YZ          ZX
  Alpha Z    22.27718    22.27718    22.27718
  Ewald    9583.12909  9583.12644-11647.85362    -0.00228    -0.00060    -0.00110
  Hartree 10319.90623 10319.90738 -9674.02725    -0.00039     0.00009     0.00015
  E(xc)    -284.98559  -284.98557  -284.85394     0.00002     0.00002     0.00001
  Local  -20778.99217-20778.99164 20409.86896     0.00240     0.00039     0.00073
  n-local   667.70929   667.44754   679.35806    -0.35865     0.64169     0.76572
  augment   -64.64423   -64.64413   -71.63642     0.00009     0.00004     0.00004
  Kinetic   540.12701   531.57020   567.18904    -4.99658    -0.59262    -0.57511
  Fock        0.00000     0.00000     0.00000     0.00000     0.00000     0.00000
  Total       0.11710     0.11710     0.32201     0.00000     0.00000     0.00000
  in kB       0.21764     0.21764     0.59848     0.00000     0.00000     0.00000

 VOLUME and BASIS-vectors are now :
  energy-cutoff  :      520.00
  volume of cell :      862.03
      direct lattice vectors                 reciprocal lattice vectors
     6.809940688  0.000000645 -0.000000000     0.146844165 -0.084780493  0.000000000
     3.404969309  5.897581608 -0.000000000    -0.000000016  0.169561037 -0.000000000
     0.000000000  0.000000000 21.463827430     0.000000000  0.000000000  0.046590013

  length of vectors
     6.809940688  6.809940148 21.463827430     0.169561024  0.169561037  0.046590013

 FORCES acting on ions
    electron-ion (+dipol)            ewald-force                    non-local-force                 convergence-correction
   0.875E-04 0.447E-04 -.112E+02   0.724E-03 0.436E-03 0.115E+02   -.695E-17 -.142E-16 -.273E+00   0.103E-06 0.122E-06 0.207E-02
   -.108E-03 -.240E-04 -.138E+02   -.730E-03 -.439E-03 0.141E+02   -.695E-17 -.329E-18 -.320E+00   -.107E-06 0.168E-06 0.214E-02
   -.444E-04 -.362E-04 0.262E+03   -.197E-03 -.109E-03 -.262E+03   0.139E-16 -.551E-16 0.393E+00   0.171E-07 -.240E-08 -.675E-02
   0.666E-04 -.349E-04 -.200E+03   0.144E-03 0.794E-04 0.200E+03   0.709E-20 0.258E-18 0.251E+00   0.104E-07 0.272E-08 0.562E-02
   -.313E+02 0.159E+00 -.435E+03   0.281E+02 -.168E+00 0.439E+03   0.270E+01 -.748E-02 -.406E+01   -.187E-02 0.107E-01 0.108E-01
   0.158E+02 0.271E+02 -.435E+03   -.142E+02 -.243E+02 0.439E+03   -.136E+01 -.233E+01 -.406E+01   0.102E-01 -.372E-02 0.108E-01
   0.155E+02 -.272E+02 -.435E+03   -.139E+02 0.244E+02 0.439E+03   -.134E+01 0.234E+01 -.406E+01   -.830E-02 -.695E-02 0.108E-01
   0.215E+02 -.175E+00 0.423E+03   -.191E+02 0.159E+00 -.427E+03   -.202E+01 0.903E-02 0.366E+01   0.193E-02 0.108E-01 -.967E-02
   -.109E+02 -.186E+02 0.423E+03   0.968E+01 0.164E+02 -.427E+03   0.102E+01 0.174E+01 0.366E+01   0.838E-02 -.706E-02 -.967E-02
   -.106E+02 0.187E+02 0.423E+03   0.940E+01 -.166E+02 -.427E+03   0.100E+01 -.175E+01 0.366E+01   -.103E-01 -.372E-02 -.967E-02
   0.493E-04 -.174E-03 0.115E+01   0.533E-14 -.711E-14 -.568E-13   -.222E-15 -.666E-15 -.114E+01   0.391E-07 0.307E-06 0.661E-02

 POSITION                                       TOTAL-FORCE (eV/Angst)
      3.40497      1.96586     10.72332        -0.000000     -0.000000      0.009921
      6.80994      3.93172     10.72677        -0.000000     -0.000000      0.013979
     -0.00000      0.00000      9.44060        -0.000000     -0.000000     -0.008317
      0.00000      0.00000     11.84340        -0.000000     -0.000000     -0.160063
      4.26688      0.00248     12.31491        -0.523153     -0.005317      0.086084
      1.27368      2.20112     12.31491         0.256972      0.455722      0.086084
      4.67436      3.69399     12.31491         0.266181     -0.450405      0.086084
      5.94803      5.89510      9.14891         0.435309      0.004057     -0.037924
      8.94123      3.69646      9.14891        -0.214141     -0.379017     -0.037924
      5.54055      2.20359      9.14891        -0.221168      0.374960     -0.037924
    total drift:                                0.000049     -0.000174      0.015230

  FREE ENERGIE OF THE ION-ELECTRON SYSTEM (eV)
  free  energy   TOTEN  =       -32.77245362 eV

  energy  without entropy=      -32.77245362  energy(sigma->0) =      -32.77245362

 d Force = 0.3689445E-05[ 0.285E-05, 0.453E-05]  d Energy =-0.3784805E-04 0.415E-04
 d Force = 0.7431135E-01[ 0.743E-01, 0.743E-01]  d Ewald  =-0.2709369E+01 0.278E+01

 reached required accuracy - stopping structural energy minimisation

 total charge

[...]

 magnetization (x)

# of ion       s       p       d       tot
    1        0.000  -0.001   0.215   0.215
    2       -0.000   0.001  -0.215  -0.215
    3        0.000   0.000   0.000   0.000
    4       -0.000  -0.000   0.000  -0.000
    5       -0.000   0.005   0.000   0.005
    6       -0.000   0.002   0.000   0.002
    7        0.000  -0.006  -0.000  -0.006
    8        0.001   0.010  -0.000   0.011
    9        0.000  -0.001   0.000  -0.000
   10       -0.001  -0.010   0.000  -0.011
tot          0.000  -0.000   0.000   0.000

 BZINTS: Fermi energy: -1.517756; 65.000000 electrons
         Band energy:-411.507328;  BLOECHL correction: -0.024546