 vasp.5.4.4.18Apr17-6-g9f103f2a35 (build May  1 2020 15:48:39) complex
 executed on             LinuxGNU date 2020.07.08  21:22:45

 INCAR:
 POTCAR:   PAW_PBE Fe 06Sep2000
 POTCAR:   PAW_PBE Ge 05Jan2001
 POTCAR:    PAW_PBE P 17Jan2003
 POTCAR:    PAW_PBE S 17Jan2003

 POTCAR:   PAW_PBE Fe 06Sep2000
   VRHFIN =Fe:  d7 s1

   TITEL  = PAW_PBE Fe 06Sep2000
   POMASS =   55.847; ZVAL   =    8.000    mass and valenz
   ENMAX  =  267.883; ENMIN  =  200.912 eV
   QCUT   =   -4.437; QGAM   =    8.874    optimization parameters

   Description
     l     E      TYP  RCUT    TYP  RCUT
     2   .000     23  2.300
     2   .000     23  2.300
     0   .000     23  2.300
     0   .000     23  2.300
     1  -.200     23  2.300
     1   .000     23  2.300
     3   .000      7   .000

 POTCAR:   PAW_PBE Ge 05Jan2001
   VRHFIN =Ge: s2p2

   TITEL  = PAW_PBE Ge 05Jan2001
   POMASS =   72.610; ZVAL   =    4.000    mass and valenz
   ENMAX  =  173.807; ENMIN  =  130.355 eV
   QCUT   =   -3.574; QGAM   =    7.148    optimization parameters

[...]

 POTCAR:    PAW_PBE P 17Jan2003
   VRHFIN =P : s2p3

[...]

 POTCAR:    PAW_PBE S 17Jan2003
   VRHFIN =S : s2p4

   TITEL  = PAW_PBE S 17Jan2003
   POMASS =   32.066; ZVAL   =    6.000    mass and valenz
   ENMAX  =  280.000; ENMIN  =  194.016 eV
   QCUT   =   -4.360; QGAM   =    8.721    optimization parameters

   Description
     l     E      TYP  RCUT    TYP  RCUT
     0   .000     23  1.900
     0   .000     23  1.900
     1   .000     23  1.900
     1   .000     23  1.900
     2   .000     23  1.900

 Optimization of the real space projectors (new method)

 maximal supplied QI-value         = 16.25
 optimisation between [QCUT,QGAM] = [ 11.54, 23.24] = [ 37.28,151.24] Ry
 Optimized for a Real-space Cutoff    1.53 Angstroem

   l    n(q)    QCUT    max X(q) W(low)/X(q) W(high)/X(q)  e(spline)
   2     10    11.539     4.378    0.86E-05    0.15E-04    0.46E-07
   2     10    11.539    23.237    0.11E-03    0.14E-03    0.22E-06
   0     11    11.539    17.641    0.19E-04    0.14E-05    0.18E-07
   0     11    11.539    50.908    0.43E-04    0.16E-04    0.30E-06
   1     10    11.539     6.148    0.11E-04    0.38E-05    0.26E-07
   1     10    11.539     8.345    0.44E-04    0.25E-04    0.11E-06
 Optimization of the real space projectors (new method)

[...]

   l    n(q)    QCUT    max X(q) W(low)/X(q) W(high)/X(q)  e(spline)
   0      8    11.508     6.651    0.19E-04    0.31E-05    0.49E-08
   0      8    11.508    90.285    0.95E-04    0.17E-03    0.51E-07
   1      8    11.508     4.328    0.14E-04    0.32E-04    0.22E-07
   1      8    11.508    54.583    0.16E-03    0.71E-04    0.89E-07
 Optimization of the real space projectors (new method)

 maximal supplied QI-value         = 19.84
 optimisation between [QCUT,QGAM] = [ 11.51, 23.22] = [ 37.09,150.92] Ry
 Optimized for a Real-space Cutoff    1.21 Angstroem

   l    n(q)    QCUT    max X(q) W(low)/X(q) W(high)/X(q)  e(spline)
   0      8    11.508     5.487    0.18E-04    0.22E-05    0.47E-08
   0      8    11.508    85.627    0.96E-04    0.18E-03    0.54E-07
   1      8    11.508     3.530    0.17E-04    0.28E-04    0.21E-07
   1      8    11.508    42.714    0.18E-03    0.63E-04    0.92E-07

 PAW_PBE Fe 06Sep2000                   :
 PAW_PBE Ge 05Jan2001                   :
  PAW_PBE P 17Jan2003                   :
  PAW_PBE S 17Jan2003                   :

 POSCAR: Fe2 Ge P S6
  positions in direct lattice
  velocities in cartesian coordinates
 exchange correlation table for  LEXCH =       42
   RHO(1)=    0.500       N(1)  =     2000
   RHO(2)=  100.500       N(2)  =     4000

 ion  position               nearest neighbor table
   1  0.333  0.333  0.500-   6 2.78   5 2.78   7 2.78   8 2.78  10 2.78   9 2.78
   2  0.667  0.667  0.500-   9 2.78   8 2.78  10 2.78   5 2.78   7 2.78   6 2.78
   3  0.000  0.000  0.448-   4 2.43   8 2.63  10 2.63   9 2.63
   4  0.000  0.000  0.552-   3 2.43   5 2.63   7 2.63   6 2.63
   5  0.626  0.000  0.574-   4 2.63   1 2.78   2 2.78
   6  0.000  0.373  0.574-   4 2.63   1 2.78   2 2.78
   7  0.373  0.626  0.574-   4 2.63   1 2.78   2 2.78
   8  0.374  1.000  0.426-   3 2.63   2 2.78   1 2.78
   9  1.000  0.627  0.426-   3 2.63   2 2.78   1 2.78
  10  0.627  0.374  0.426-   3 2.63   2 2.78   1 2.78

  LATTYP: Found a hexagonal cell.
 ALAT       =     6.9077769333
 C/A-ratio  =     3.3939410937

  Lattice vectors:

 A1 = (   3.4538890000,  -5.9823100000,   0.0000000000)
 A2 = (  -6.9077770000,   0.0000000000,   0.0000000000)
 A3 = (   0.0000000000,   0.0000000000, -23.4445880000)

Analysis of symmetry for initial positions (statically):
 Subroutine PRICEL returns:
 Original cell was already a primitive cell.

 Routine SETGRP: Setting up the symmetry group for a
 hexagonal supercell.

 Subroutine GETGRP returns: Found  3 space group operations
 (whereof  3 operations were pure point group operations)
 out of a pool of 24 trial point group operations.

The static configuration has the point symmetry C_3 .

Analysis of symmetry for dynamics (positions and initial velocities):
 Subroutine PRICEL returns:
 Original cell was already a primitive cell.

[...]

The dynamic configuration has the point symmetry C_3 .

Analysis of constrained symmetry for selective dynamics:
 Subroutine PRICEL returns:
 Original cell was already a primitive cell.

[...]

The constrained configuration has the point symmetry C_3 .

Analysis of structural, dynamic, and magnetic symmetry:
 Subroutine PRICEL returns:
 Original cell was already a primitive cell.

 Routine SETGRP: Setting up the symmetry group for a
 hexagonal supercell.

 Subroutine GETGRP returns: Found  3 space group operations
 (whereof  3 operations were pure point group operations)
 out of a pool of 24 trial point group operations.

The magnetic configuration has the point symmetry C_3 .

 Subroutine INISYM returns: Found  3 space group operations
 (whereof  3 operations are pure point group operations),
 and found     1 'primitive' translations

 KPOINTS: Kpoints from vasprun.xml

Automatic generation of k-mesh.
Space group operators:
 irot       det(A)        alpha          n_x          n_y          n_z        tau_x        tau_y        tau_z
    1     1.000000     0.000000     1.000000     0.000000     0.000000     0.000000     0.000000     0.000000
    2     1.000000   120.000000     0.000000     0.000000     1.000000     0.000000     0.000000     0.000000
    3     1.000000   120.000000     0.000000     0.000000    -1.000000     0.000000     0.000000     0.000000

 Subroutine IBZKPT returns following result:

 Found      5 irreducible k-points:

 Following reciprocal coordinates:
            Coordinates               Weight
  0.000000  0.000000  0.000000      1.000000
  0.200000  0.000000  0.000000      6.000000
  0.400000  0.000000  0.000000      6.000000
  0.400000  0.200000  0.000000      6.000000
 -0.400000  0.200000  0.000000      6.000000

 Following cartesian coordinates:
            Coordinates               Weight
  0.000000  0.000000  0.000000      1.000000
  0.028953 -0.016716  0.000000      6.000000
  0.057906 -0.033432  0.000000      6.000000
  0.057906  0.000000  0.000000      6.000000
 -0.057906  0.066864  0.000000      6.000000

 TETIRR: Found     15 inequivalent tetrahedra from      150

 SYSTEM =  unknown system
 POSCAR =  Fe2 Ge P S6

 Startparameter for this run:
   NWRITE =      2    write-flag & timer
   PREC   = accura    normal or accurate (medium, high low for compatibility)
   ISTART =      0    job   : 0-new  1-cont  2-samecut
   ICHARG =      2    charge: 1-file 2-atom 10-const
   ISPIN  =      2    spin polarized calculation?
   LNONCOLLINEAR =      F non collinear calculations
   LSORBIT =      F    spin-orbit coupling
   INIWAV =      1    electr: 0-lowe 1-rand  2-diag
   LASPH  =      F    aspherical Exc in radial PAW
   METAGGA=      F    non-selfconsistent MetaGGA calc.

 Electronic Relaxation 1
   ENCUT  =  520.0 eV  38.22 Ry    6.18 a.u.  12.84 12.84 43.59*2*pi/ulx,y,z
   ENINI  =  520.0     initial cutoff
   ENAUG  =  511.4 eV  augmentation charge cutoff
   NELM   =    400;   NELMIN=  2; NELMDL=  0     # of ELM steps
   EDIFF  = 0.1E-03   stopping-criterion for ELM
   LREAL  =      T    real-space projection
   NLSPLINE    = F    spline interpolate recip. space projectors
   LCOMPAT=      F    compatible to vasp.4.4
   GGA_COMPAT  = T    GGA compatible to vasp.4.4-vasp.4.6
   LMAXPAW     = -100 max onsite density
   LMAXMIX     =    2 max onsite mixed and CHGCAR
   VOSKOWN=      0    Vosko Wilk Nusair interpolation
   ROPT   =   -0.00025  -0.00025  -0.00025  -0.00025
 Ionic relaxation
   EDIFFG = 0.1E-02   stopping-criterion for IOM
   NSW    =     99    number of steps for IOM
   NBLOCK =      1;   KBLOCK =     99    inner block; outer block
   IBRION =      2    ionic relax: 0-MD 1-quasi-New 2-CG
   NFREE  =      1    steps in history (QN), initial steepest desc. (CG)
   ISIF   =      3    stress and relaxation
   IWAVPR =     11    prediction:  0-non 1-charg 2-wave 3-comb
   ISYM   =      2    0-nonsym 1-usesym 2-fastsym
   LCORR  =      T    Harris-Foulkes like correction to forces

   POTIM  = 0.5000    time-step for ionic-motion
   TEIN   =    0.0    initial temperature
   TEBEG  =    0.0;   TEEND  =   0.0 temperature during run
   SMASS  =  -3.00    Nose mass-parameter (am)
   estimated Nose-frequenzy (Omega)   =  0.10E-29 period in steps =****** mass=  -0.109E-26a.u.
   SCALEE = 1.0000    scale energy and forces
   NPACO  =    256;   APACO  = 16.0  distance and # of slots for P.C.
   PSTRESS=    0.0 pullay stress

  Mass of Ions in am
   POMASS =  55.85 72.61 30.97 32.07
  Ionic Valenz
   ZVAL   =   8.00  4.00  5.00  6.00
  Atomic Wigner-Seitz radii
  virtual crystal weights
   VCA    =   1.00  1.00  1.00  1.00
   NELECT =      61.0000    total number of electrons
   NUPDOWN=      -1.0000    fix difference up-down

 DOS related values:
   EMIN   =  10.00;   EMAX   =-10.00  energy-range for DOS
   EFERMI =   0.00
   ISMEAR =    -5;   SIGMA  =   0.05  broadening in eV -4-tet -1-fermi 0-gaus

 Electronic relaxation 2 (details)
   IALGO  =     38    algorithm
   LDIAG  =      T    sub-space diagonalisation (order eigenvalues)
   LSUBROT=      F    optimize rotation matrix (better conditioning)
   TURBO    =      0    0=normal 1=particle mesh
   IRESTART =      0    0=no restart 2=restart with 2 vectors
   NREBOOT  =      0    no. of reboots
   NMIN     =      0    reboot dimension
   EREF     =   0.00    reference energy to select bands
   IMIX   =      4    mixing-type and parameters
     AMIX     =   0.40;   BMIX     =  1.00
     AMIX_MAG =   1.60;   BMIX_MAG =  1.00
     AMIN     =   0.01
     WC   =   100.;   INIMIX=   1;  MIXPRE=   1;  MAXMIX= -45

 Intra band minimization:
   WEIMIN = 0.0010     energy-eigenvalue tresh-hold
   EBREAK =  0.52E-06  absolut break condition
   DEPER  =   0.30     relativ break condition

   TIME   =   0.40     timestep for ELM

  volume/ion in A,a.u.               =      96.88       653.80
  Fermi-wavevector in a.u.,A,eV,Ry     =   0.651281  1.230742  5.771135  0.424166
  Thomas-Fermi vector in A             =   1.720830

 Write flags
[...]
     38      -2.2995      0.00000
     39      -2.2994      0.00000
     40      -0.3341      0.00000
     41      -0.2987      0.00000
     42      -0.0500      0.00000
     43      -0.0500      0.00000
     44       0.0862      0.00000
     45       1.2577      0.00000
     46       1.5615      0.00000
     47       1.9307      0.00000
     48       2.0225      0.00000

[...]

 soft charge-density along one line, spin component           1
         0         1         2         3         4         5         6         7         8         9
 total charge-density along one line

[...]

------------------------ aborting loop because EDIFF is reached ----------------------------------------

 total charge

# of ion       s       p       d       tot
    1        0.277   0.218   5.869   6.364
    2        0.277   0.218   5.852   6.348
    3        1.186   0.848   0.060   2.093
    4        1.127   1.141   0.000   2.268
    5        1.389   2.180   0.000   3.569
    6        1.384   2.139   0.000   3.523
    7        1.388   2.169   0.000   3.557
    8        1.381   2.203   0.000   3.584
    9        1.378   2.179   0.000   3.557
   10        1.381   2.192   0.000   3.573
tot         11.168  15.488  11.782  38.437

 magnetization (x)

[...]

  FORCE on cell =-STRESS in cart. coord.  units (eV):
  Direction    XX          YY          ZZ          XY          YZ          ZX
  Alpha Z    24.64987    24.64987    24.64987
  Ewald    8976.32009  8976.31782-10692.84076    -0.00150    -0.00046    -0.00085
  Hartree  9607.31168  9607.31227 -9181.01476    -0.00022     0.00006     0.00008
  E(xc)    -234.50491  -234.50363  -234.11061    -0.00070     0.00000     0.00001
  Local  -19474.77584-19474.77514 18944.27921     0.00147     0.00028     0.00053
  n-local   447.28424   449.70196   461.19210     0.99943     0.43306     0.32393
  augment   -33.23079   -33.23077   -36.61724    -0.00020     0.00002     0.00005
  Kinetic   658.51325   658.72581   699.53155    -0.86833    -1.15204    -0.94561
  Fock        0.00000     0.00000     0.00000     0.00000     0.00000     0.00000
  Total     -27.11711   -27.11711   -14.93064     0.00001    -0.00000     0.00000
  in kB     -44.84398   -44.84398   -24.69103     0.00001    -0.00000     0.00000

 VOLUME and BASIS-vectors are now :
  energy-cutoff  :      520.00
  volume of cell :      968.84
      direct lattice vectors                 reciprocal lattice vectors
     6.907777000 -0.000000000  0.000000000     0.144764372 -0.083579742  0.000000000
     3.453888000  5.982310000  0.000000000     0.000000000  0.167159509 -0.000000000
     0.000000000  0.000000000 23.444588000    -0.000000000  0.000000000  0.042653767

[...]

 FORCES acting on ions
    electron-ion (+dipol)            ewald-force                    non-local-force                 convergence-correction
   0.179E-03 0.990E-04 0.790E+01   0.473E-03 0.283E-03 -.804E+01   0.694E-17 0.000E+00 0.211E+00   -.999E-07 -.133E-06 0.204E-02
   -.176E-03 -.871E-04 0.605E+01   -.473E-03 -.283E-03 -.623E+01   0.139E-16 0.000E+00 0.243E+00   -.903E-06 -.269E-06 -.161E-01
   -.532E-04 0.325E-04 0.185E+03   -.141E-03 -.779E-04 -.184E+03   -.347E-17 0.000E+00 -.119E+01   0.607E-07 0.866E-08 0.635E-01
   0.298E-04 0.147E-04 -.215E+03   0.176E-03 0.974E-04 0.215E+03   -.104E-16 0.000E+00 0.129E+01   -.783E-07 -.265E-07 -.817E-01
   -.811E+01 0.231E+00 -.384E+03   0.589E+01 -.145E+00 0.388E+03   0.353E+01 -.134E-01 -.476E+01   -.446E-01 -.743E-01 -.151E+00
   0.425E+01 0.690E+01 -.384E+03   -.307E+01 -.503E+01 0.388E+03   -.178E+01 -.305E+01 -.476E+01   -.420E-01 0.758E-01 -.151E+00
   0.385E+01 -.714E+01 -.384E+03   -.282E+01 0.517E+01 0.388E+03   -.175E+01 0.306E+01 -.476E+01   0.866E-01 -.151E-02 -.151E+00
   0.151E+02 -.774E-01 0.389E+03   -.125E+02 0.152E+00 -.393E+03   -.381E+01 0.117E-01 0.492E+01   0.361E-01 -.808E-01 0.193E+00
   -.763E+01 -.131E+02 0.389E+03   0.638E+01 0.107E+02 -.393E+03   0.192E+01 0.329E+01 0.492E+01   -.881E-01 0.914E-02 0.193E+00
   -.750E+01 0.131E+02 0.389E+03   0.612E+01 -.109E+02 -.393E+03   0.190E+01 -.331E+01 0.492E+01   0.520E-01 0.717E-01 0.193E+00
   -.154E-04 0.741E-04 -.111E+01   0.799E-14 -.355E-14 -.568E-13   0.444E-15 -.444E-15 0.102E+01   -.130E-05 0.211E-06 0.943E-01

 POSITION                                       TOTAL-FORCE (eV/Angst)
      3.45388      1.99410     11.72054        -0.000000     -0.000000      0.070079
      6.90778      3.98821     11.72405        -0.000000     -0.000000      0.051609
      0.00000      0.00000     10.50824        -0.000000     -0.000000     -0.514619
      0.00000      0.00000     12.93635        -0.000000     -0.000000      0.957338
      4.32819      0.00251     13.45138         1.265241     -0.000422     -1.604693
      1.29198      2.23274     13.45138        -0.632986     -1.095519     -1.604693
      4.74152      3.74706     13.45138        -0.632255      1.095942     -1.604693
      6.03348      5.97980      9.99321        -1.142330      0.004371      1.416557
      9.06969      3.74957      9.99321         0.574951      0.987101      1.416557
      5.62015      2.23525      9.99321         0.567379     -0.991473      1.416557
    total drift:                               -0.000017      0.000074     -0.000454

  FREE ENERGIE OF THE ION-ELECTRON SYSTEM (eV)
  free  energy   TOTEN  =       -42.31059794 eV

  energy  without entropy=      -42.31059794  energy(sigma->0) =      -42.31059794

[...]

 d Force = 0.6787756E+00[ 0.335E+00, 0.102E+01]  d Energy = 0.6235667E+01-0.556E+01
 d Force =-0.1716645E+03[-0.197E+03,-0.146E+03]  d Ewald  =-0.2120285E+04 0.195E+04

 Steepest descent step on ions:
 trial-energy change:   -6.235667  1 .order   -5.682067   -9.298594   -2.065540
  (g-gl).g = 0.930E+01      g.g   = 0.930E+01  gl.gl    = 0.000E+00
 g(Force)  = 0.113E+01   g(Stress)= 0.817E+01 ortho     = 0.000E+00
 gamma     =   0.00000
 trial     =   1.00000
 opt step  =   1.18494  (harmonic =   1.28557) maximal distance =0.08097675
 next E    =   -48.740763   (d E  =  -6.43017)

[...]

 d Force = 0.2862240E-01[-0.992E-02, 0.672E-01]  d Energy = 0.2406699E+00-0.212E+00
 d Force =-0.3985455E+02[-0.410E+02,-0.387E+02]  d Ewald  =-0.4997472E+03 0.460E+03

[...]

 d Force =-0.4326603E-03[-0.375E-02, 0.289E-02]  d Energy = 0.7882112E-02-0.831E-02
 d Force = 0.1102916E+02[ 0.109E+02, 0.111E+02]  d Ewald  = 0.1370168E+03-0.126E+03

[...]

 d Force = 0.8262789E-03[ 0.327E-03, 0.133E-02]  d Energy = 0.1859155E-01-0.178E-01
 d Force =-0.3835103E+01[-0.385E+01,-0.382E+01]  d Ewald  =-0.4779353E+02 0.440E+02

[...]

 d Force = 0.2658106E+00[ 0.173E+00, 0.359E+00]  d Energy = 0.4826981E+00-0.217E+00
 d Force =-0.8155146E+02[-0.822E+02,-0.809E+02]  d Ewald  = 0.1349089E+03-0.216E+03

 Conjugate gradient step on ions:
 trial-energy change:   -0.482698  1 .order   -0.314223   -0.407566   -0.220880
  (g-gl).g = 0.479E+00      g.g   = 0.400E+00  gl.gl    = 0.930E+01
 g(Force)  = 0.349E+00   g(Stress)= 0.504E-01 ortho     =-0.790E-01
 gamma     =   0.05146
 trial     =   1.03061
 opt step  =   1.19780  (harmonic =   2.24999) maximal distance =0.07581692
 next E    =   -49.314743   (d E  =  -0.50133)

[...]

 d Force = 0.3468558E-01[ 0.240E-01, 0.454E-01]  d Energy = 0.4071493E-01-0.603E-02
 d Force =-0.2710663E+02[-0.272E+02,-0.270E+02]  d Ewald  = 0.4402724E+02-0.711E+02

[...]

 eigenvalue-minimisations  :  1088
 total energy-change (2. order) :-0.2142693E-02  (-0.1501583E-03)
 number of electron      61.0116611 magnetization       1.0010194
 augmentation part        2.2461488 magnetization       0.7881890

[...]

 Broyden mixing:
  rms(total) = 0.16629E-01    rms(broyden)= 0.16629E-01
  rms(prec ) = 0.18965E-01
  weight for this iteration     100.00

 eigenvalues of (default mixing * dielectric matrix)
  average eigenvalue GAMMA=   1.6469
 15.8865  5.9439  5.6501  5.6501  2.7203  2.2553  0.9048  0.9048  1.4503  1.4503
  0.9648  0.9648  1.1458  1.1458  1.0551  0.0887  0.8394  0.8394  0.8630  0.8630
  0.4168  0.4168  0.7154  0.7154  0.6208  0.6208  0.5895  0.5895  0.3040  0.3972
  0.4271  0.4271  0.3959  0.3959  0.3189  0.3519

[...]

--------------------------------------- Iteration      9(  38)  ---------------------------------------

[...]

 eigenvalue-minimisations  :  1072
 total energy-change (2. order) : 0.1794814E-05  (-0.8474789E-05)
 number of electron      60.9711739 magnetization       1.0014628
 augmentation part        2.2227616 magnetization       0.7718908

 Free energy of the ion-electron system (eV)
  alpha Z        PSCENC =        38.95677811
  Ewald energy   TEWEN  =      9500.96942467
  -Hartree energ DENC   =    -12361.79907964
  -exchange      EXHF   =         0.00000000
  -V(xc)+E(xc)   XCENC  =        76.34373043
  PAW double counting   =      1818.40220596    -1789.31071984
  entropy T*S    EENTRO =         0.00000000
  eigenvalues    EBANDS =      -476.32889114
  atomic energy  EATOM  =      3143.46690034
  Solvation  Ediel_sol  =         0.00000000
  free energy    TOTEN  =       -49.29965112 eV

  energy without entropy =      -49.29965112  energy(sigma->0) =      -49.29965112

 average (electrostatic) potential at core
  the test charge radii are     1.0103  1.1631  0.9587  0.9698
  (the norm of the test charge is              1.0000)
       1 -51.2114       2 -51.2392       3 -39.6262       4 -92.7233       5 -94.4059
       6 -94.4059       7 -94.4058       8 -94.0926       9 -94.0926      10 -94.0925

 E-fermi :  -2.2213     XC(G=0):  -3.4250     alpha+bet : -3.2076

[...]

 spin component 2

[...]

 k-point     5 :      -0.4000    0.2000    0.0000
  band No.  band energies     occupation
      1     -17.7954      1.00000
      2     -16.4487      1.00000
      3     -16.0873      1.00000
      4     -15.7506      1.00000
      5     -15.4793      1.00000
      6     -15.2634      1.00000
      7     -12.0453      1.00000
      8     -10.4697      1.00000
      9      -8.6890      1.00000
     10      -8.2352      1.00000
     11      -7.7223      1.00000
     12      -7.1656      1.00000
     13      -7.0118      1.00000
     14      -6.5067      1.00000
     15      -6.3527      1.00000
     16      -6.2767      1.00000
     17      -6.0225      1.00000
     18      -5.6756      1.00000
     19      -5.6148      1.00000
     20      -5.2711      1.00000
     21      -5.2305      1.00000
     22      -4.3700      1.00000
     23      -4.3442      1.00000
     24      -4.1376      1.00000
     25      -4.0314      1.00000
     26      -3.2879      1.00000
     27      -2.7945      1.00000
     28      -2.6825      1.00000
     29      -2.4562      1.00000
     30      -2.2213      0.75833
     31      -2.1847      0.00000
     32      -1.5258      0.00000
     33      -0.9794      0.00000
     34      -0.8244      0.00000
     35      -0.5311      0.00000
     36      -0.3915      0.00000
     37       0.1307      0.00000
     38       0.7805      0.00000
     39       1.2305      0.00000
     40       1.8142      0.00000
     41       1.8642      0.00000
     42       1.9607      0.00000
     43       3.4236      0.00000
     44       3.5807      0.00000
     45       3.5908      0.00000
     46       3.8322      0.00000
     47       4.0823      0.00000
     48       4.6688      0.00000

[...]

 soft charge-density along one line, spin component           2
         0         1         2         3         4         5         6         7         8         9
 total charge-density along one line

------------------------ aborting loop because EDIFF is reached ----------------------------------------

[...]

  FORCE on cell =-STRESS in cart. coord.  units (eV):
  Direction    XX          YY          ZZ          XY          YZ          ZX
  Alpha Z    38.95678    38.95678    38.95678
  Ewald   11553.38590 11553.38299-13605.80210    -0.00197    -0.00058    -0.00103
  Hartree 12024.30500 12024.30567-11699.44755    -0.00026     0.00005     0.00008
  E(xc)    -241.32335  -241.32335  -240.94898     0.00001     0.00000     0.00001
  Local  -24496.40153-24496.40080 24340.81874     0.00172     0.00033     0.00061
  n-local   452.29009   451.69220   460.77366    -0.27540     0.34358     0.46906
  augment   -35.19961   -35.19951   -42.29313     0.00015     0.00004     0.00004
  Kinetic   704.74349   703.19482   748.39456    -1.48887     1.62566     1.56937
  Fock        0.00000     0.00000     0.00000     0.00000     0.00000     0.00000
  Total      -0.31722    -0.31722     0.45197     0.00000     0.00000     0.00000
  in kB      -0.82906    -0.82906     1.18125     0.00000     0.00000     0.00000

 VOLUME and BASIS-vectors are now :
  energy-cutoff  :      520.00
  volume of cell :      613.03
      direct lattice vectors                 reciprocal lattice vectors
     5.850123281  0.000000005  0.000000000     0.170936569 -0.098690269 -0.000000000
     2.925061369  5.066355183 -0.000000000    -0.000000000  0.197380556  0.000000000
     0.000000000 -0.000000000 20.683341459    -0.000000000  0.000000000  0.048348087

  length of vectors
     5.850123281  5.850122978 20.683341459     0.197380545  0.197380556  0.048348087

 FORCES acting on ions
    electron-ion (+dipol)            ewald-force                    non-local-force                 convergence-correction
   -.155E-03 -.847E-04 0.223E+00   0.702E-03 0.415E-03 -.117E+01   -.332E-17 -.542E-19 0.855E+00   0.290E-06 0.126E-06 0.699E-02
   0.145E-03 0.106E-03 -.114E+01   -.681E-03 -.403E-03 0.157E+00   0.709E-17 -.549E-19 0.866E+00   -.468E-07 -.281E-07 0.565E-02
   -.186E-04 -.407E-04 0.274E+03   -.202E-03 -.113E-03 -.272E+03   -.233E-17 0.106E-16 -.334E+01   0.107E-07 0.536E-08 0.125E+00
   0.486E-04 0.108E-04 -.342E+03   0.289E-03 0.162E-03 0.337E+03   0.147E-16 0.136E-16 0.486E+01   0.124E-07 0.610E-08 -.168E+00
   -.570E+01 0.154E+01 -.529E+03   0.624E+00 -.155E+01 0.534E+03   0.495E+01 -.738E-01 -.418E+01   -.769E-01 0.189E-01 -.323E+00
   0.418E+01 0.417E+01 -.529E+03   -.165E+01 0.234E+00 0.534E+03   -.254E+01 -.425E+01 -.418E+01   0.548E-01 0.572E-01 -.323E+00
   0.151E+01 -.571E+01 -.529E+03   0.103E+01 0.132E+01 0.534E+03   -.241E+01 0.433E+01 -.418E+01   0.221E-01 -.761E-01 -.323E+00
   0.305E+02 0.178E+01 0.550E+03   -.263E+02 -.180E+01 -.555E+03   -.437E+01 -.696E-01 0.440E+01   0.683E-01 0.206E-01 0.336E+00
   -.137E+02 -.273E+02 0.550E+03   0.116E+02 0.237E+02 -.555E+03   0.212E+01 0.382E+01 0.440E+01   -.163E-01 -.694E-01 0.336E+00
   -.168E+02 0.255E+02 0.550E+03   0.147E+02 -.219E+02 -.555E+03   0.225E+01 -.375E+01 0.440E+01   -.520E-01 0.488E-01 0.336E+00
   0.108E-03 0.354E-04 -.392E+01   0.178E-13 -.178E-13 0.000E+00   0.888E-15 0.133E-14 0.391E+01   0.377E-06 0.155E-06 0.100E-01

 POSITION                                       TOTAL-FORCE (eV/Angst)
      2.92506      1.68878     10.33077         0.000000      0.000000     -0.084855
      5.85013      3.37757     10.33294         0.000000      0.000000     -0.113241
      0.00000     -0.00000      9.27060         0.000000      0.000000     -1.089191
      0.00000     -0.00000     11.51139         0.000000      0.000000      0.126457
      3.74551      0.00828     11.72772        -0.197104     -0.064716      0.299983
      1.05948      1.81852     11.72772         0.042506      0.203055      0.299983
      3.97021      3.23957     11.72772         0.154598     -0.138339      0.299983
      2.26886      0.00583      8.93880        -0.154110     -0.074632      0.086961
      1.79568      3.09854      8.93880         0.012422      0.170779      0.086961
      4.71064      1.96198      8.93880         0.141688     -0.096147      0.086961
    total drift:                                0.000108      0.000036     -0.001117

  FREE ENERGIE OF THE ION-ELECTRON SYSTEM (eV)
  free  energy   TOTEN  =       -49.29965112 eV

  energy  without entropy=      -49.29965112  energy(sigma->0) =      -49.29965112

 d Force = 0.7190753E-02[-0.335E-01, 0.479E-01]  d Energy =-0.6843473E-01 0.756E-01
 d Force =-0.5422088E+02[-0.544E+02,-0.540E+02]  d Ewald  = 0.8877401E+02-0.143E+03

 reached required accuracy - stopping structural energy minimisation

 total charge

[...]

 magnetization (x)

# of ion       s       p       d       tot
    1        0.004   0.006   0.497   0.506
    2        0.004   0.006   0.540   0.550
    3       -0.002   0.007   0.000   0.005
    4       -0.003   0.002   0.000  -0.001
    5       -0.000  -0.005   0.000  -0.005
    6       -0.001   0.002   0.000   0.001
    7       -0.001  -0.004   0.000  -0.004
    8       -0.001  -0.010   0.000  -0.011
    9       -0.001  -0.006   0.000  -0.007
   10       -0.001  -0.008   0.000  -0.009
tot         -0.001  -0.010   1.037   1.026

 BZINTS: Fermi energy: -2.221322; 60.971177 electrons
         Band energy:-476.328891;  BLOECHL correction: -0.001844