 vasp.5.4.4.18Apr17-6-g9f103f2a35 (build May  1 2020 15:48:39) complex
 executed on             LinuxGNU date 2020.07.03  22:05:09

 INCAR:
 POTCAR:   PAW_PBE Fe 06Sep2000
 POTCAR:   PAW_PBE Ge 05Jan2001
 POTCAR:   PAW_PBE Te 08Apr2002

 POTCAR:   PAW_PBE Fe 06Sep2000
   VRHFIN =Fe:  d7 s1

   TITEL  = PAW_PBE Fe 06Sep2000
   POMASS =   55.847; ZVAL   =    8.000    mass and valenz
   ENMAX  =  267.883; ENMIN  =  200.912 eV
   QCUT   =   -4.437; QGAM   =    8.874    optimization parameters

   Description
     l     E      TYP  RCUT    TYP  RCUT
     2   .000     23  2.300
     2   .000     23  2.300
     0   .000     23  2.300
     0   .000     23  2.300
     1  -.200     23  2.300
     1   .000     23  2.300
     3   .000      7   .000

 POTCAR:   PAW_PBE Ge 05Jan2001
   VRHFIN =Ge: s2p2

   TITEL  = PAW_PBE Ge 05Jan2001
   POMASS =   72.610; ZVAL   =    4.000    mass and valenz
   ENMAX  =  173.807; ENMIN  =  130.355 eV
   QCUT   =   -3.574; QGAM   =    7.148    optimization parameters

[...]

 POTCAR:   PAW_PBE Te 08Apr2002
   VRHFIN =Te: s2p4

   TITEL  = PAW_PBE Te 08Apr2002
   POMASS =  127.600; ZVAL   =    6.000    mass and valenz
   ENMAX  =  174.982; ENMIN  =  131.236 eV
   QCUT   =   -3.586; QGAM   =    7.172    optimization parameters

   Description
     l     E      TYP  RCUT    TYP  RCUT
     0   .000     23  2.300
     0   .000     23  2.300
     1   .000     23  2.300
     1   .000     23  2.300
     2   .000     23  2.300
     3  -.100     23  2.300

 Optimization of the real space projectors (new method)

 maximal supplied QI-value         = 16.25
 optimisation between [QCUT,QGAM] = [ 11.54, 23.24] = [ 37.28,151.24] Ry
 Optimized for a Real-space Cutoff    1.53 Angstroem

   l    n(q)    QCUT    max X(q) W(low)/X(q) W(high)/X(q)  e(spline)
   2     10    11.539     4.378    0.86E-05    0.15E-04    0.46E-07
   2     10    11.539    23.237    0.11E-03    0.14E-03    0.22E-06
   0     11    11.539    17.641    0.19E-04    0.14E-05    0.18E-07
   0     11    11.539    50.908    0.43E-04    0.16E-04    0.30E-06
   1     10    11.539     6.148    0.11E-04    0.38E-05    0.26E-07
   1     10    11.539     8.345    0.44E-04    0.25E-04    0.11E-06
 Optimization of the real space projectors (new method)

[...]

   l    n(q)    QCUT    max X(q) W(low)/X(q) W(high)/X(q)  e(spline)
   0      9    11.539     8.651    0.22E-04    0.16E-04    0.10E-07
   0      9    11.539    33.192    0.11E-03    0.16E-03    0.65E-07
   1      8    11.539     5.899    0.37E-04    0.28E-04    0.43E-07
   1      8    11.539    27.289    0.22E-03    0.28E-04    0.14E-06
   2      8    11.539     4.673    0.11E-03    0.18E-03    0.58E-07
 Optimization of the real space projectors (new method)

 maximal supplied QI-value         = 16.25
 optimisation between [QCUT,QGAM] = [ 11.54, 23.24] = [ 37.28,151.24] Ry
 Optimized for a Real-space Cutoff    1.36 Angstroem

   l    n(q)    QCUT    max X(q) W(low)/X(q) W(high)/X(q)  e(spline)
   0      9    11.539     7.090    0.13E-04    0.25E-05    0.51E-08
   0      9    11.539   101.654    0.53E-04    0.69E-04    0.12E-06
   1      9    11.539     5.276    0.20E-04    0.98E-05    0.24E-07
   1      9    11.539    81.891    0.24E-03    0.13E-04    0.15E-06
   2      9    11.539     5.599    0.30E-04    0.97E-04    0.54E-07

 PAW_PBE Fe 06Sep2000                   :
 PAW_PBE Ge 05Jan2001                   :
 PAW_PBE Te 08Apr2002                   :

 POSCAR: Fe2 Ge2 Te6
  positions in direct lattice
 exchange correlation table for  LEXCH =       42
   RHO(1)=    0.500       N(1)  =     2000
   RHO(2)=  100.500       N(2)  =     4000

 ion  position               nearest neighbor table
   1  0.333  0.333  0.500-   6 2.78   5 2.78   7 2.78   8 2.78  10 2.78   9 2.78
   2  0.667  0.667  0.500-   9 2.78   8 2.78  10 2.78   5 2.78   7 2.78   6 2.78
   3  0.000  0.000  0.448-   4 2.43   8 2.63  10 2.63   9 2.63
   4  0.000  0.000  0.552-   3 2.43   5 2.63   7 2.63   6 2.63
   5  0.626  0.000  0.574-   4 2.63   1 2.78   2 2.78
   6  0.000  0.373  0.574-   4 2.63   1 2.78   2 2.78
   7  0.373  0.626  0.574-   4 2.63   1 2.78   2 2.78
   8  0.374  1.000  0.426-   3 2.63   2 2.78   1 2.78
   9  1.000  0.627  0.426-   3 2.63   2 2.78   1 2.78
  10  0.627  0.374  0.426-   3 2.63   2 2.78   1 2.78

  LATTYP: Found a hexagonal cell.
 ALAT       =     6.9077769333
 C/A-ratio  =     3.3939410937

  Lattice vectors:

 A1 = (   3.4538890000,  -5.9823100000,   0.0000000000)
 A2 = (  -6.9077770000,   0.0000000000,   0.0000000000)
 A3 = (   0.0000000000,   0.0000000000, -23.4445880000)

Analysis of symmetry for initial positions (statically):
 Subroutine PRICEL returns:
 Original cell was already a primitive cell.

 Routine SETGRP: Setting up the symmetry group for a
 hexagonal supercell.

 Subroutine GETGRP returns: Found  6 space group operations
 (whereof  6 operations were pure point group operations)
 out of a pool of 24 trial point group operations.

The static configuration has the point symmetry S_6 .

Analysis of symmetry for dynamics (positions and initial velocities):
 Subroutine PRICEL returns:
 Original cell was already a primitive cell.

[...]

The dynamic configuration has the point symmetry S_6 .

Analysis of constrained symmetry for selective dynamics:
 Subroutine PRICEL returns:
 Original cell was already a primitive cell.

[...]

The constrained configuration has the point symmetry S_6 .

Analysis of structural, dynamic, and magnetic symmetry:
 Subroutine PRICEL returns:
 Original cell was already a primitive cell.

 Routine SETGRP: Setting up the symmetry group for a
 hexagonal supercell.

 Subroutine GETGRP returns: Found  6 space group operations
 (whereof  6 operations were pure point group operations)
 out of a pool of 24 trial point group operations.

The magnetic configuration has the point symmetry S_6 .

 Subroutine INISYM returns: Found  6 space group operations
 (whereof  6 operations are pure point group operations),
 and found     1 'primitive' translations

 KPOINTS: Kpoints from vasprun.xml

Automatic generation of k-mesh.
Space group operators:
 irot       det(A)        alpha          n_x          n_y          n_z        tau_x        tau_y        tau_z
    1     1.000000     0.000000     1.000000     0.000000     0.000000     0.000000     0.000000     0.000000
    2    -1.000000     0.000000     1.000000     0.000000     0.000000     0.000000     0.000000     0.000000
    3     1.000000   120.000000     0.000000     0.000000     1.000000     0.000000     0.000000     0.000000
    4    -1.000000   120.000000     0.000000     0.000000     1.000000     0.000000     0.000000     0.000000
    5     1.000000   120.000000     0.000000     0.000000    -1.000000     0.000000     0.000000     0.000000
    6    -1.000000   120.000000     0.000000     0.000000    -1.000000     0.000000     0.000000     0.000000

 Subroutine IBZKPT returns following result:

 Found      5 irreducible k-points:

 Following reciprocal coordinates:
            Coordinates               Weight
  0.000000  0.000000  0.000000      1.000000
  0.200000  0.000000  0.000000      6.000000
  0.400000  0.000000  0.000000      6.000000
  0.400000  0.200000  0.000000      6.000000
 -0.400000  0.200000  0.000000      6.000000

 Following cartesian coordinates:
            Coordinates               Weight
  0.000000  0.000000  0.000000      1.000000
  0.028953 -0.016716  0.000000      6.000000
  0.057906 -0.033432  0.000000      6.000000
  0.057906  0.000000  0.000000      6.000000
 -0.057906  0.066864  0.000000      6.000000

 TETIRR: Found     15 inequivalent tetrahedra from      150

 SYSTEM =  unknown system
 POSCAR =  Fe2 Ge2 Te6

 Startparameter for this run:
   NWRITE =      2    write-flag & timer
   PREC   = accura    normal or accurate (medium, high low for compatibility)
   ISTART =      0    job   : 0-new  1-cont  2-samecut
   ICHARG =      2    charge: 1-file 2-atom 10-const
   ISPIN  =      2    spin polarized calculation?
   LNONCOLLINEAR =      F non collinear calculations
   LSORBIT =      F    spin-orbit coupling
   INIWAV =      1    electr: 0-lowe 1-rand  2-diag
   LASPH  =      F    aspherical Exc in radial PAW
   METAGGA=      F    non-selfconsistent MetaGGA calc.

 Electronic Relaxation 1
   ENCUT  =  520.0 eV  38.22 Ry    6.18 a.u.  12.84 12.84 43.59*2*pi/ulx,y,z
   ENINI  =  520.0     initial cutoff
   ENAUG  =  511.4 eV  augmentation charge cutoff
   NELM   =    400;   NELMIN=  2; NELMDL=  0     # of ELM steps
   EDIFF  = 0.1E-03   stopping-criterion for ELM
   LREAL  =      T    real-space projection
   NLSPLINE    = F    spline interpolate recip. space projectors
   LCOMPAT=      F    compatible to vasp.4.4
   GGA_COMPAT  = T    GGA compatible to vasp.4.4-vasp.4.6
   LMAXPAW     = -100 max onsite density
   LMAXMIX     =    2 max onsite mixed and CHGCAR
   VOSKOWN=      0    Vosko Wilk Nusair interpolation
   ROPT   =   -0.00025  -0.00025  -0.00025
 Ionic relaxation
   EDIFFG = 0.1E-02   stopping-criterion for IOM
   NSW    =     99    number of steps for IOM
   NBLOCK =      1;   KBLOCK =     99    inner block; outer block
   IBRION =      2    ionic relax: 0-MD 1-quasi-New 2-CG
   NFREE  =      1    steps in history (QN), initial steepest desc. (CG)
   ISIF   =      3    stress and relaxation
   IWAVPR =     11    prediction:  0-non 1-charg 2-wave 3-comb
   ISYM   =      2    0-nonsym 1-usesym 2-fastsym
   LCORR  =      T    Harris-Foulkes like correction to forces

   POTIM  = 0.5000    time-step for ionic-motion
   TEIN   =    0.0    initial temperature
   TEBEG  =    0.0;   TEEND  =   0.0 temperature during run
   SMASS  =  -3.00    Nose mass-parameter (am)
   estimated Nose-frequenzy (Omega)   =  0.10E-29 period in steps =****** mass=  -0.109E-26a.u.
   SCALEE = 1.0000    scale energy and forces
   NPACO  =    256;   APACO  = 16.0  distance and # of slots for P.C.
   PSTRESS=    0.0 pullay stress

  Mass of Ions in am
   POMASS =  55.85 72.61127.60
  Ionic Valenz
   ZVAL   =   8.00  4.00  6.00
  Atomic Wigner-Seitz radii
  virtual crystal weights
   VCA    =   1.00  1.00  1.00
   NELECT =      60.0000    total number of electrons
   NUPDOWN=      -1.0000    fix difference up-down

 DOS related values:
   EMIN   =  10.00;   EMAX   =-10.00  energy-range for DOS
   EFERMI =   0.00
   ISMEAR =    -5;   SIGMA  =   0.05  broadening in eV -4-tet -1-fermi 0-gaus

 Electronic relaxation 2 (details)
   IALGO  =     38    algorithm
   LDIAG  =      T    sub-space diagonalisation (order eigenvalues)
   LSUBROT=      F    optimize rotation matrix (better conditioning)
   TURBO    =      0    0=normal 1=particle mesh
   IRESTART =      0    0=no restart 2=restart with 2 vectors
   NREBOOT  =      0    no. of reboots
   NMIN     =      0    reboot dimension
   EREF     =   0.00    reference energy to select bands
   IMIX   =      4    mixing-type and parameters
     AMIX     =   0.40;   BMIX     =  1.00
     AMIX_MAG =   1.60;   BMIX_MAG =  1.00
     AMIN     =   0.01
     WC   =   100.;   INIMIX=   1;  MIXPRE=   1;  MAXMIX= -45

 Intra band minimization:
   WEIMIN = 0.0010     energy-eigenvalue tresh-hold
   EBREAK =  0.52E-06  absolut break condition
[...]
     26      -3.4830      1.00000
     27      -3.4774      1.00000
     28      -3.4774      1.00000
     29      -3.2788      1.00000
     30      -2.3095      1.00000
     31      -2.3095      1.00000
     32      -1.8585      0.00000
     33      -1.8584      0.00000
     34      -1.0993      0.00000
     35      -1.0993      0.00000
     36      -0.7614      0.00000
     37      -0.5345      0.00000
     38       1.0565      0.00000
     39       1.0565      0.00000
     40       1.2201      0.00000
     41       1.5845      0.00000
     42       2.0186      0.00000
     43       2.2109      0.00000
     44       2.2524      0.00000
     45       2.2526      0.00000
     46       2.6396      0.00000
     47       3.0687      0.00000
     48       3.0693      0.00000

[...]

 soft charge-density along one line, spin component           1
         0         1         2         3         4         5         6         7         8         9
 total charge-density along one line

[...]

------------------------ aborting loop because EDIFF is reached ----------------------------------------

 total charge

# of ion       s       p       d       tot
    1        0.323   0.327   6.201   6.851
    2        0.323   0.327   6.201   6.851
    3        1.175   1.143   0.072   2.390
    4        1.175   1.143   0.072   2.390
    5        1.401   1.909   0.034   3.345
    6        1.395   1.937   0.034   3.366
    7        1.398   1.910   0.035   3.343
    8        1.401   1.909   0.034   3.345
    9        1.395   1.937   0.034   3.366
   10        1.398   1.910   0.035   3.343
tot         11.386  14.452  12.753  38.591

 magnetization (x)

[...]

  FORCE on cell =-STRESS in cart. coord.  units (eV):
  Direction    XX          YY          ZZ          XY          YZ          ZX
  Alpha Z    18.22355    18.22355    18.22355
  Ewald    8666.95156  8666.94951-10328.88300    -0.00153    -0.00045    -0.00082
  Hartree  9146.77910  9146.77978 -8812.16916    -0.00019     0.00007     0.00011
  E(xc)    -249.47402  -249.46503  -248.54098    -0.00990     0.00145    -0.00022
  Local  -18655.83021-18655.82966 18275.35664     0.00147     0.00029     0.00055
  n-local   639.08970   639.12972   653.34481     0.03421     0.90393     0.67803
  augment   -77.38625   -77.38594   -88.04309    -0.00027    -0.00006     0.00007
  Kinetic   508.84945   502.76751   522.73616    -3.42580    -1.05114    -0.91910
  Fock        0.00000     0.00000     0.00000     0.00000     0.00000     0.00000
  Total      -5.81384    -5.81384    -7.97506    -0.00000     0.00000    -0.00000
  in kB      -9.61444    -9.61443   -13.18848    -0.00000     0.00000    -0.00000

 VOLUME and BASIS-vectors are now :
  energy-cutoff  :      520.00
  volume of cell :      968.84
      direct lattice vectors                 reciprocal lattice vectors
     6.907777000 -0.000000000  0.000000000     0.144764372 -0.083579742  0.000000000
     3.453888000  5.982310000  0.000000000     0.000000000  0.167159509 -0.000000000
     0.000000000  0.000000000 23.444588000    -0.000000000  0.000000000  0.042653767

[...]

 FORCES acting on ions
    electron-ion (+dipol)            ewald-force                    non-local-force                 convergence-correction
   0.144E-03 0.753E-04 0.822E+00   0.461E-03 0.278E-03 -.899E+00   0.139E-16 0.139E-16 0.983E-02   0.391E-05 -.792E-06 0.701E-01
   -.144E-03 -.753E-04 -.822E+00   -.461E-03 -.278E-03 0.899E+00   0.694E-17 0.139E-16 -.983E-02   -.391E-05 0.792E-06 -.701E-01
   -.313E-04 -.147E-04 0.173E+03   -.141E-03 -.779E-04 -.172E+03   -.173E-17 0.347E-17 -.157E+01   0.648E-04 0.300E-04 0.225E+00
   0.313E-04 0.147E-04 -.173E+03   0.141E-03 0.779E-04 0.172E+03   -.867E-17 0.347E-17 0.157E+01   -.648E-04 -.300E-04 -.225E+00
   -.172E+02 0.520E-01 -.379E+03   0.139E+02 -.154E+00 0.384E+03   0.311E+01 0.949E-02 -.471E+01   -.680E-01 0.103E+00 -.622E+00
   0.866E+01 0.149E+02 -.379E+03   -.706E+01 -.119E+02 0.384E+03   -.154E+01 -.269E+01 -.471E+01   0.123E+00 0.733E-02 -.622E+00
   0.857E+01 -.150E+02 -.379E+03   -.679E+01 0.121E+02 0.384E+03   -.156E+01 0.269E+01 -.471E+01   -.554E-01 -.110E+00 -.621E+00
   0.172E+02 -.520E-01 0.379E+03   -.139E+02 0.154E+00 -.384E+03   -.311E+01 -.949E-02 0.471E+01   0.680E-01 -.103E+00 0.622E+00
   -.866E+01 -.149E+02 0.379E+03   0.706E+01 0.119E+02 -.384E+03   0.154E+01 0.269E+01 0.471E+01   -.123E+00 -.733E-02 0.622E+00
   -.857E+01 0.150E+02 0.379E+03   0.679E+01 -.121E+02 -.384E+03   0.156E+01 -.269E+01 0.471E+01   0.554E-01 0.110E+00 0.621E+00
   -.189E-09 -.742E-11 0.446E-09   0.888E-15 0.178E-14 -.171E-12   0.222E-15 0.444E-15 0.888E-15   0.224E-13 -.121E-13 0.271E-11

 POSITION                                       TOTAL-FORCE (eV/Angst)
      3.45388      1.99410     11.72054         0.000000     -0.000000      0.002532
      6.90778      3.98821     11.72405         0.000000      0.000000     -0.002532
      0.00000      0.00000     10.50824         0.000000      0.000000     -0.328014
      0.00000      0.00000     12.93635         0.000000      0.000000      0.328014
      4.32819      0.00251     13.45138        -0.341272      0.011606     -0.580005
      1.29198      2.23274     13.45138         0.180687      0.289747     -0.580005
      4.74152      3.74706     13.45138         0.160585     -0.301353     -0.580005
      6.03348      5.97980      9.99321         0.341272     -0.011606      0.580005
      9.06969      3.74957      9.99321        -0.180687     -0.289747      0.580005
      5.62015      2.23525      9.99321        -0.160585      0.301353      0.580005
    total drift:                               -0.000000     -0.000000      0.000000

  FREE ENERGIE OF THE ION-ELECTRON SYSTEM (eV)
  free  energy   TOTEN  =       -36.73216139 eV

  energy  without entropy=      -36.73216139  energy(sigma->0) =      -36.73216139

[...]

 d Force =-0.3732429E-06[-0.134E-05, 0.595E-06]  d Energy = 0.2773800E+00-0.277E+00
 d Force =-0.2156060E-03[-0.220E-03,-0.211E-03]  d Ewald  =-0.8809898E+02 0.881E+02

 Steepest descent step on ions:
 trial-energy change:   -0.277380  1 .order   -0.222302   -0.632959    0.188354
  (g-gl).g = 0.633E+00      g.g   = 0.633E+00  gl.gl    = 0.000E+00
 g(Force)  = 0.618E-06   g(Stress)= 0.633E+00 ortho     = 0.000E+00
 gamma     =   0.00000
 trial     =   1.00000
 opt step  =   0.82798  (harmonic =   0.77067) maximal distance =0.00010112
 next E    =   -37.025462   (d E  =  -0.29330)

[...]

 d Force = 0.2017255E-06[ 0.162E-06, 0.242E-06]  d Energy = 0.2215588E-01-0.222E-01
 d Force = 0.3948812E-04[ 0.394E-04, 0.396E-04]  d Ewald  = 0.1504446E+02-0.150E+02

[...]

 Conjugate gradient step on ions:
 trial-energy change:   -0.051715  1 .order   -0.050563   -0.075094   -0.026033
  (g-gl).g = 0.757E-01      g.g   = 0.786E-01  gl.gl    = 0.633E+00
 g(Force)  = 0.933E-06   g(Stress)= 0.786E-01 ortho     = 0.292E-02
 gamma     =   0.11956
 trial     =   0.95113
 opt step  =   1.37066  (harmonic =   1.45581) maximal distance =0.00018559
 next E    =   -37.091148   (d E  =  -0.05756)

[...]

 d Force = 0.1080936E-05[ 0.125E-05, 0.909E-06]  d Energy = 0.1977860E-02-0.198E-02
 d Force = 0.2805170E-03[ 0.284E-03, 0.277E-03]  d Ewald  = 0.1176500E+02-0.118E+02

 Conjugate gradient step on ions:
 trial-energy change:   -0.001978  1 .order   -0.000382   -0.000850    0.000087
  (g-gl).g =-0.987E-02      g.g   = 0.213E-02  gl.gl    = 0.786E-01
 g(Force)  = 0.987E-06   g(Stress)= 0.213E-02 ortho     = 0.104E-01
 gamma     =  -0.12560
 trial     =   1.03504
 opt step  =   1.02645  (harmonic =   0.93935) maximal distance =0.00014088
 next E    =   -37.091711   (d E  =  -0.00198)

[...]

 eigenvalue-minimisations  :   752
 total energy-change (2. order) :-0.1049640E-03  (-0.6498320E-05)
 number of electron      60.0000002 magnetization       1.9999101
 augmentation part       -0.0035420 magnetization       1.9183449

 Broyden mixing:
  rms(total) = 0.29114E-02    rms(broyden)= 0.29112E-02
  rms(prec ) = 0.40957E-02
  weight for this iteration     100.00

 eigenvalues of (default mixing * dielectric matrix)
  average eigenvalue GAMMA=   0.2837
  0.2837

[...]

--------------------------------------- Iteration      8(   3)  ---------------------------------------

[...]

 eigenvalue-minimisations  :   656
 total energy-change (2. order) : 0.6320934E-05  (-0.4189602E-05)
 number of electron      60.0000002 magnetization       1.9999101
 augmentation part       -0.0035420 magnetization       1.9183449

 Free energy of the ion-electron system (eV)
  alpha Z        PSCENC =        19.70263188
  Ewald energy   TEWEN  =      6649.96185347
  -Hartree energ DENC   =     -9154.71001511
  -exchange      EXHF   =         0.00000000
  -V(xc)+E(xc)   XCENC  =      -183.30817443
  PAW double counting   =      1766.24999551    -1511.50313771
  entropy T*S    EENTRO =         0.00000000
  eigenvalues    EBANDS =      -375.84001140
  atomic energy  EATOM  =      2752.35490196
  Solvation  Ediel_sol  =         0.00000000
  free energy    TOTEN  =       -37.09195583 eV

  energy without entropy =      -37.09195583  energy(sigma->0) =      -37.09195583

 average (electrostatic) potential at core
  the test charge radii are     1.0103  1.1631  1.1897
  (the norm of the test charge is              1.0000)
       1 -50.7681       2 -50.7681       3 -38.7410       4 -38.7410       5 -96.3405
       6 -96.3404       7 -96.3404       8 -96.3405       9 -96.3404      10 -96.3404

 E-fermi :  -1.7727     XC(G=0):  -3.3764     alpha+bet : -3.2090

[...]

 spin component 2

[...]

 k-point     5 :      -0.4000    0.2000    0.0000
  band No.  band energies     occupation
      1     -14.2069      1.00000
      2     -13.5661      1.00000
      3     -13.2228      1.00000
      4     -13.1634      1.00000
      5     -12.8809      1.00000
      6     -12.7282      1.00000
      7     -10.3576      1.00000
      8      -8.5969      1.00000
      9      -6.4837      1.00000
     10      -5.9799      1.00000
     11      -5.9680      1.00000
     12      -5.4931      1.00000
     13      -5.2314      1.00000
     14      -4.9268      1.00000
     15      -4.6036      1.00000
     16      -4.4108      1.00000
     17      -4.2792      1.00000
     18      -4.1451      1.00000
     19      -4.0393      1.00000
     20      -3.8089      1.00000
     21      -3.7931      1.00000
     22      -3.2723      1.00000
     23      -3.0633      1.00000
     24      -3.0339      1.00000
     25      -2.8731      1.00000
     26      -2.4146      1.00000
     27      -2.0401      1.00000
     28      -1.9552      1.00000
     29      -1.8012      1.00000
     30      -1.5228      0.00000
     31      -1.4978      0.00000
     32      -0.8754      0.00000
     33      -0.6859      0.00000
     34      -0.6002      0.00000
     35      -0.3272      0.00000
     36      -0.2341      0.00000
     37       0.3060      0.00000
     38       0.8643      0.00000
     39       1.2509      0.00000
     40       1.8216      0.00000
     41       1.9688      0.00000
     42       2.2447      0.00000
     43       2.9450      0.00000
     44       3.1015      0.00000
     45       3.1045      0.00000
     46       3.2782      0.00000
     47       3.3364      0.00000
     48       4.0156      0.00000

[...]

 soft charge-density along one line, spin component           2
         0         1         2         3         4         5         6         7         8         9
 total charge-density along one line

------------------------ aborting loop because EDIFF is reached ----------------------------------------

[...]

  FORCE on cell =-STRESS in cart. coord.  units (eV):
  Direction    XX          YY          ZZ          XY          YZ          ZX
  Alpha Z    19.70263    19.70263    19.70263
  Ewald    8348.86338  8348.86116-10047.76566    -0.00163    -0.00049    -0.00090
  Hartree  8823.13475  8823.13547 -8495.34074    -0.00019     0.00007     0.00012
  E(xc)    -250.51205  -250.51202  -249.19889     0.00001     0.00002     0.00002
  Local  -18019.47623-18019.47558 17678.03416     0.00154     0.00032     0.00060
  n-local   641.88846   641.45407   656.63039    -0.10824     1.09387     1.31005
  augment   -76.62519   -76.62510   -89.48640     0.00008     0.00002     0.00003
  Kinetic   515.02653   511.34040   527.07496    -2.67300     1.00101     1.31291
  Fock        0.00000     0.00000     0.00000     0.00000     0.00000     0.00000
  Total      -0.05835    -0.05835    -0.34954     0.00000     0.00000     0.00000
  in kB      -0.10432    -0.10432    -0.62496     0.00000     0.00000     0.00000

 VOLUME and BASIS-vectors are now :
  energy-cutoff  :      520.00
  volume of cell :      896.10
      direct lattice vectors                 reciprocal lattice vectors
     6.826971560  0.000000050  0.000000000     0.146477834 -0.084569008 -0.000000000
     3.413485255  5.912330475  0.000000000    -0.000000001  0.169138043  0.000000000
     0.000000000 -0.000000000 22.200959034    -0.000000000 -0.000000000  0.045043099

  length of vectors
     6.826971560  6.826971014 22.200959034     0.169138029  0.169138043  0.045043099

 FORCES acting on ions
    electron-ion (+dipol)            ewald-force                    non-local-force                 convergence-correction
   0.482E-04 0.209E-04 0.989E+00   0.497E-03 0.299E-03 -.999E+00   -.649E-18 -.434E-18 0.587E-02   -.663E-07 -.107E-06 -.130E-03
   -.482E-04 -.209E-04 -.989E+00   -.497E-03 -.299E-03 0.999E+00   0.152E-17 0.434E-18 -.587E-02   0.663E-07 0.107E-06 0.130E-03
   -.346E-04 -.148E-04 0.179E+03   -.144E-03 -.794E-04 -.178E+03   0.299E-17 0.356E-17 -.263E+01   -.181E-08 -.467E-08 0.245E-01
   0.346E-04 0.148E-04 -.179E+03   0.144E-03 0.794E-04 0.178E+03   -.212E-17 -.356E-17 0.263E+01   0.181E-08 0.467E-08 -.245E-01
   -.203E+02 0.152E+00 -.385E+03   0.163E+02 -.146E+00 0.389E+03   0.340E+01 -.147E-01 -.507E+01   -.246E-02 0.830E-05 -.556E-01
   0.103E+02 0.175E+02 -.385E+03   -.828E+01 -.141E+02 0.389E+03   -.171E+01 -.294E+01 -.507E+01   0.124E-02 0.213E-02 -.556E-01
   0.100E+02 -.177E+02 -.385E+03   -.803E+01 0.142E+02 0.389E+03   -.169E+01 0.295E+01 -.507E+01   0.122E-02 -.214E-02 -.556E-01
   0.203E+02 -.152E+00 0.385E+03   -.163E+02 0.146E+00 -.389E+03   -.340E+01 0.147E-01 0.507E+01   0.246E-02 -.830E-05 0.556E-01
   -.103E+02 -.175E+02 0.385E+03   0.828E+01 0.141E+02 -.389E+03   0.171E+01 0.294E+01 0.507E+01   -.124E-02 -.213E-02 0.556E-01
   -.100E+02 0.177E+02 0.385E+03   0.803E+01 -.142E+02 -.389E+03   0.169E+01 -.295E+01 0.507E+01   -.122E-02 0.214E-02 0.556E-01
   0.734E-10 0.782E-10 -.241E-09   -.533E-14 -.711E-14 0.568E-13   -.444E-15 0.000E+00 0.888E-15   0.127E-12 0.141E-12 -.277E-11

 POSITION                                       TOTAL-FORCE (eV/Angst)
      3.41348      1.97077     11.09858         0.000000     -0.000000     -0.004497
      6.82697      3.94156     11.10238        -0.000000     -0.000000      0.004497
      0.00000     -0.00000      9.95083        -0.000000     -0.000000     -1.399949
      0.00000     -0.00000     12.25013         0.000000     -0.000000      1.399949
      4.27756      0.00248     12.73784        -0.634839     -0.008118     -0.332920
      1.27686      2.20662     12.73784         0.310389      0.553846     -0.332920
      4.68605      3.70323     12.73784         0.324450     -0.545728     -0.332920
      5.96290      5.90985      9.46311         0.634839      0.008118      0.332920
      8.96359      3.70571      9.46311        -0.310389     -0.553846      0.332920
      5.55441      2.20910      9.46311        -0.324450      0.545728      0.332920
    total drift:                                0.000000      0.000000     -0.000000

  FREE ENERGIE OF THE ION-ELECTRON SYSTEM (eV)
  free  energy   TOTEN  =       -37.09195583 eV

  energy  without entropy=      -37.09195583  energy(sigma->0) =      -37.09195583

 d Force =-0.1048889E-07[-0.106E-07,-0.104E-07]  d Energy = 0.2448415E-03-0.245E-03
 d Force =-0.2355028E-05[-0.235E-05,-0.236E-05]  d Ewald  =-0.9743478E-01 0.974E-01

 reached required accuracy - stopping structural energy minimisation

 total charge

[...]

 magnetization (x)

# of ion       s       p       d       tot
    1        0.013   0.013   1.230   1.257
    2        0.013   0.013   1.230   1.257
    3       -0.004  -0.002  -0.001  -0.007
    4       -0.004  -0.002  -0.001  -0.007
    5       -0.002  -0.063  -0.001  -0.065
    6       -0.002  -0.042  -0.001  -0.045
    7       -0.002  -0.058  -0.001  -0.061
    8       -0.002  -0.063  -0.001  -0.065
    9       -0.002  -0.042  -0.001  -0.045
   10       -0.002  -0.058  -0.001  -0.061
tot          0.008  -0.304   2.452   2.157

 BZINTS: Fermi energy: -1.772686; 60.000000 electrons
         Band energy:-375.840011;  BLOECHL correction:  0.000000