 vasp.5.4.4.18Apr17-6-g9f103f2a35 (build May  1 2020 15:48:39) complex
 executed on             LinuxGNU date 2020.06.29  05:03:34

 INCAR:
 POTCAR:   PAW_PBE Co 06Sep2000
 POTCAR:   PAW_PBE Si 05Jan2001
 POTCAR:    PAW_PBE S 17Jan2003

 POTCAR:   PAW_PBE Co 06Sep2000
   VRHFIN =Co: d8 s1

   TITEL  = PAW_PBE Co 06Sep2000
   POMASS =   58.933; ZVAL   =    9.000    mass and valenz
   ENMAX  =  267.969; ENMIN  =  200.977 eV
   QCUT   =   -4.438; QGAM   =    8.876    optimization parameters

   Description
     l     E      TYP  RCUT    TYP  RCUT
     2   .000     23  2.300
     2   .000     23  2.300
     0   .000     23  2.300
     0   .000     23  2.300
     1  -.200     23  2.300
     1   .000     23  2.300
     3   .000      7   .000

 POTCAR:   PAW_PBE Si 05Jan2001
   VRHFIN =Si: s2p2

   TITEL  = PAW_PBE Si 05Jan2001
   POMASS =   28.085; ZVAL   =    4.000    mass and valenz
   ENMAX  =  245.345; ENMIN  =  184.009 eV
   QCUT   =   -4.246; QGAM   =    8.493    optimization parameters

[...]

 POTCAR:    PAW_PBE S 17Jan2003
   VRHFIN =S : s2p4

   TITEL  = PAW_PBE S 17Jan2003
   POMASS =   32.066; ZVAL   =    6.000    mass and valenz
   ENMAX  =  280.000; ENMIN  =  194.016 eV
   QCUT   =   -4.360; QGAM   =    8.721    optimization parameters

   Description
     l     E      TYP  RCUT    TYP  RCUT
     0   .000     23  1.900
     0   .000     23  1.900
     1   .000     23  1.900
     1   .000     23  1.900
     2   .000     23  1.900

 Optimization of the real space projectors (new method)

 maximal supplied QI-value         = 16.25
 optimisation between [QCUT,QGAM] = [ 11.54, 23.24] = [ 37.28,151.24] Ry
 Optimized for a Real-space Cutoff    1.53 Angstroem

   l    n(q)    QCUT    max X(q) W(low)/X(q) W(high)/X(q)  e(spline)
   2     10    11.539     4.599    0.83E-05    0.15E-04    0.45E-07
   2     10    11.539    18.158    0.10E-03    0.14E-03    0.24E-06
   0     11    11.539    15.740    0.19E-04    0.12E-05    0.17E-07
   0     11    11.539    47.662    0.48E-04    0.15E-04    0.31E-06
   1     10    11.539     5.777    0.11E-04    0.46E-05    0.25E-07
   1     10    11.539     8.007    0.46E-04    0.29E-04    0.11E-06
 Optimization of the real space projectors (new method)

[...]

   l    n(q)    QCUT    max X(q) W(low)/X(q) W(high)/X(q)  e(spline)
   0      8    11.508     8.708    0.18E-04    0.44E-05    0.47E-08
   0      8    11.508   106.241    0.70E-04    0.15E-03    0.51E-07
   1      8    11.508     5.901    0.63E-05    0.23E-04    0.21E-07
   1      8    11.508    73.241    0.15E-03    0.36E-04    0.79E-07
 Optimization of the real space projectors (new method)

 maximal supplied QI-value         = 19.84
 optimisation between [QCUT,QGAM] = [ 11.51, 23.22] = [ 37.09,150.92] Ry
 Optimized for a Real-space Cutoff    1.21 Angstroem

   l    n(q)    QCUT    max X(q) W(low)/X(q) W(high)/X(q)  e(spline)
   0      8    11.508     5.487    0.18E-04    0.22E-05    0.47E-08
   0      8    11.508    85.627    0.96E-04    0.18E-03    0.54E-07
   1      8    11.508     3.530    0.17E-04    0.28E-04    0.21E-07
   1      8    11.508    42.714    0.18E-03    0.63E-04    0.92E-07

 PAW_PBE Co 06Sep2000                   :
 PAW_PBE Si 05Jan2001                   :
  PAW_PBE S 17Jan2003                   :

 POSCAR: Co2 Si2 S6
  positions in direct lattice
  velocities in cartesian coordinates
 exchange correlation table for  LEXCH =       42
   RHO(1)=    0.500       N(1)  =     2000
   RHO(2)=  100.500       N(2)  =     4000

 ion  position               nearest neighbor table
   1  0.333  0.333  0.500-   6 2.78   5 2.78   7 2.78   8 2.78  10 2.78   9 2.78
   2  0.667  0.667  0.500-   9 2.78   8 2.78  10 2.78   5 2.78   7 2.78   6 2.78
   3  0.000  0.000  0.448-   4 2.43   8 2.63  10 2.63   9 2.63
   4  0.000  0.000  0.552-   3 2.43   5 2.63   7 2.63   6 2.63
   5  0.626  0.000  0.574-   4 2.63   1 2.78   2 2.78
   6  0.000  0.373  0.574-   4 2.63   1 2.78   2 2.78
   7  0.373  0.626  0.574-   4 2.63   1 2.78   2 2.78
   8  0.374  1.000  0.426-   3 2.63   2 2.78   1 2.78
   9  1.000  0.627  0.426-   3 2.63   2 2.78   1 2.78
  10  0.627  0.374  0.426-   3 2.63   2 2.78   1 2.78

  LATTYP: Found a hexagonal cell.
 ALAT       =     6.9077769333
 C/A-ratio  =     3.3939410937

  Lattice vectors:

 A1 = (   3.4538890000,  -5.9823100000,   0.0000000000)
 A2 = (  -6.9077770000,   0.0000000000,   0.0000000000)
 A3 = (   0.0000000000,   0.0000000000, -23.4445880000)

Analysis of symmetry for initial positions (statically):
 Subroutine PRICEL returns:
 Original cell was already a primitive cell.

 Routine SETGRP: Setting up the symmetry group for a
 hexagonal supercell.

 Subroutine GETGRP returns: Found  6 space group operations
 (whereof  6 operations were pure point group operations)
 out of a pool of 24 trial point group operations.

The static configuration has the point symmetry S_6 .

Analysis of symmetry for dynamics (positions and initial velocities):
 Subroutine PRICEL returns:
 Original cell was already a primitive cell.

[...]

The dynamic configuration has the point symmetry S_6 .

Analysis of constrained symmetry for selective dynamics:
 Subroutine PRICEL returns:
 Original cell was already a primitive cell.

[...]

The constrained configuration has the point symmetry S_6 .

Analysis of structural, dynamic, and magnetic symmetry:
 Subroutine PRICEL returns:
 Original cell was already a primitive cell.

 Routine SETGRP: Setting up the symmetry group for a
 hexagonal supercell.

 Subroutine GETGRP returns: Found  6 space group operations
 (whereof  6 operations were pure point group operations)
 out of a pool of 24 trial point group operations.

The magnetic configuration has the point symmetry S_6 .

 Subroutine INISYM returns: Found  6 space group operations
 (whereof  6 operations are pure point group operations),
 and found     1 'primitive' translations

 KPOINTS: Kpoints from vasprun.xml

Automatic generation of k-mesh.
Space group operators:
 irot       det(A)        alpha          n_x          n_y          n_z        tau_x        tau_y        tau_z
    1     1.000000     0.000000     1.000000     0.000000     0.000000     0.000000     0.000000     0.000000
    2    -1.000000     0.000000     1.000000     0.000000     0.000000     0.000000     0.000000     0.000000
    3     1.000000   120.000000     0.000000     0.000000     1.000000     0.000000     0.000000     0.000000
    4    -1.000000   120.000000     0.000000     0.000000     1.000000     0.000000     0.000000     0.000000
    5     1.000000   120.000000     0.000000     0.000000    -1.000000     0.000000     0.000000     0.000000
    6    -1.000000   120.000000     0.000000     0.000000    -1.000000     0.000000     0.000000     0.000000

 Subroutine IBZKPT returns following result:

 Found      5 irreducible k-points:

 Following reciprocal coordinates:
            Coordinates               Weight
  0.000000  0.000000  0.000000      1.000000
  0.200000  0.000000  0.000000      6.000000
  0.400000  0.000000  0.000000      6.000000
  0.400000  0.200000  0.000000      6.000000
 -0.400000  0.200000  0.000000      6.000000

 Following cartesian coordinates:
            Coordinates               Weight
  0.000000  0.000000  0.000000      1.000000
  0.028953 -0.016716  0.000000      6.000000
  0.057906 -0.033432  0.000000      6.000000
  0.057906  0.000000  0.000000      6.000000
 -0.057906  0.066864  0.000000      6.000000

 TETIRR: Found     15 inequivalent tetrahedra from      150

 SYSTEM =  unknown system
 POSCAR =  Co2 Si2 S6

 Startparameter for this run:
   NWRITE =      2    write-flag & timer
   PREC   = accura    normal or accurate (medium, high low for compatibility)
   ISTART =      0    job   : 0-new  1-cont  2-samecut
   ICHARG =      2    charge: 1-file 2-atom 10-const
   ISPIN  =      2    spin polarized calculation?
   LNONCOLLINEAR =      F non collinear calculations
   LSORBIT =      F    spin-orbit coupling
   INIWAV =      1    electr: 0-lowe 1-rand  2-diag
   LASPH  =      F    aspherical Exc in radial PAW
   METAGGA=      F    non-selfconsistent MetaGGA calc.

 Electronic Relaxation 1
   ENCUT  =  520.0 eV  38.22 Ry    6.18 a.u.  12.84 12.84 43.59*2*pi/ulx,y,z
   ENINI  =  520.0     initial cutoff
   ENAUG  =  477.8 eV  augmentation charge cutoff
   NELM   =    400;   NELMIN=  2; NELMDL=  0     # of ELM steps
   EDIFF  = 0.1E-03   stopping-criterion for ELM
   LREAL  =      T    real-space projection
   NLSPLINE    = F    spline interpolate recip. space projectors
   LCOMPAT=      F    compatible to vasp.4.4
   GGA_COMPAT  = T    GGA compatible to vasp.4.4-vasp.4.6
   LMAXPAW     = -100 max onsite density
   LMAXMIX     =    2 max onsite mixed and CHGCAR
   VOSKOWN=      0    Vosko Wilk Nusair interpolation
   ROPT   =   -0.00025  -0.00025  -0.00025
 Ionic relaxation
   EDIFFG = 0.1E-02   stopping-criterion for IOM
   NSW    =     99    number of steps for IOM
   NBLOCK =      1;   KBLOCK =     99    inner block; outer block
   IBRION =      2    ionic relax: 0-MD 1-quasi-New 2-CG
   NFREE  =      1    steps in history (QN), initial steepest desc. (CG)
   ISIF   =      3    stress and relaxation
   IWAVPR =     11    prediction:  0-non 1-charg 2-wave 3-comb
   ISYM   =      2    0-nonsym 1-usesym 2-fastsym
   LCORR  =      T    Harris-Foulkes like correction to forces

   POTIM  = 0.5000    time-step for ionic-motion
   TEIN   =    0.0    initial temperature
   TEBEG  =    0.0;   TEEND  =   0.0 temperature during run
   SMASS  =  -3.00    Nose mass-parameter (am)
   estimated Nose-frequenzy (Omega)   =  0.10E-29 period in steps =****** mass=  -0.109E-26a.u.
   SCALEE = 1.0000    scale energy and forces
   NPACO  =    256;   APACO  = 16.0  distance and # of slots for P.C.
   PSTRESS=    0.0 pullay stress

  Mass of Ions in am
   POMASS =  58.93 28.09 32.07
  Ionic Valenz
   ZVAL   =   9.00  4.00  6.00
  Atomic Wigner-Seitz radii
  virtual crystal weights
   VCA    =   1.00  1.00  1.00
   NELECT =      62.0000    total number of electrons
   NUPDOWN=      -1.0000    fix difference up-down

 DOS related values:
   EMIN   =  10.00;   EMAX   =-10.00  energy-range for DOS
   EFERMI =   0.00
   ISMEAR =    -5;   SIGMA  =   0.05  broadening in eV -4-tet -1-fermi 0-gaus

 Electronic relaxation 2 (details)
   IALGO  =     38    algorithm
   LDIAG  =      T    sub-space diagonalisation (order eigenvalues)
   LSUBROT=      F    optimize rotation matrix (better conditioning)
   TURBO    =      0    0=normal 1=particle mesh
   IRESTART =      0    0=no restart 2=restart with 2 vectors
   NREBOOT  =      0    no. of reboots
   NMIN     =      0    reboot dimension
   EREF     =   0.00    reference energy to select bands
   IMIX   =      4    mixing-type and parameters
     AMIX     =   0.40;   BMIX     =  1.00
     AMIX_MAG =   1.60;   BMIX_MAG =  1.00
     AMIN     =   0.01
     WC   =   100.;   INIMIX=   1;  MIXPRE=   1;  MAXMIX= -45

 Intra band minimization:
   WEIMIN = 0.0010     energy-eigenvalue tresh-hold
   EBREAK =  0.52E-06  absolut break condition
   DEPER  =   0.30     relativ break condition

   TIME   =   0.40     timestep for ELM

  volume/ion in A,a.u.               =      96.88       653.80
[...]
     48       2.1229      0.00000

[...]

 soft charge-density along one line, spin component           1
         0         1         2         3         4         5         6         7         8         9
 total charge-density along one line

[...]

------------------------ aborting loop because EDIFF is reached ----------------------------------------

 total charge

# of ion       s       p       d       tot
    1        0.260   0.191   6.980   7.431
    2        0.260   0.191   6.980   7.431
    3        0.812   0.619   0.000   1.431
    4        0.812   0.619   0.000   1.431
    5        1.385   2.158   0.000   3.542
    6        1.382   2.201   0.000   3.583
    7        1.384   2.170   0.000   3.553
    8        1.385   2.158   0.000   3.542
    9        1.382   2.201   0.000   3.583
   10        1.384   2.170   0.000   3.553
tot         10.444  14.678  13.961  39.083

 magnetization (x)

[...]

  FORCE on cell =-STRESS in cart. coord.  units (eV):
  Direction    XX          YY          ZZ          XY          YZ          ZX
  Alpha Z    23.47395    23.47395    23.47395
  Ewald    9323.94493  9323.94287-11117.97373    -0.00179    -0.00048    -0.00089
  Hartree 10052.12837 10052.12917 -9507.24060    -0.00038     0.00006     0.00009
  E(xc)    -240.77130  -240.76571  -239.23899    -0.00479    -0.00104     0.00061
  Local  -20260.46726-20260.46697 19719.92301     0.00194     0.00030     0.00057
  n-local   432.59778   432.44825   447.00845    -0.09444     0.64727     0.04115
  augment   -18.45089   -18.45158   -26.96969     0.00112    -0.00232     0.00126
  Kinetic   647.74194   646.29875   676.82688    -0.92293    -1.84048    -1.38720
  Fock        0.00000     0.00000     0.00000     0.00000     0.00000     0.00000
  Total     -40.59688   -40.59687   -24.19073    -0.00004     0.00000     0.00000
  in kB     -67.13568   -67.13567   -40.00458    -0.00006     0.00000     0.00000

 VOLUME and BASIS-vectors are now :
  energy-cutoff  :      520.00
  volume of cell :      968.84
      direct lattice vectors                 reciprocal lattice vectors
     6.907777000 -0.000000000  0.000000000     0.144764372 -0.083579742  0.000000000
     3.453888000  5.982310000  0.000000000     0.000000000  0.167159509 -0.000000000
     0.000000000  0.000000000 23.444588000    -0.000000000  0.000000000  0.042653767

[...]

 FORCES acting on ions
    electron-ion (+dipol)            ewald-force                    non-local-force                 convergence-correction
   0.138E-03 0.625E-04 0.105E+01   0.549E-03 0.331E-03 -.104E+01   0.000E+00 -.694E-17 -.138E-01   0.638E-04 0.374E-04 0.667E-02
   -.138E-03 -.625E-04 -.105E+01   -.549E-03 -.331E-03 0.104E+01   -.694E-17 -.694E-17 0.138E-01   -.638E-04 -.374E-04 -.667E-02
   -.329E-04 0.101E-04 0.184E+03   -.141E-03 -.779E-04 -.179E+03   0.208E-16 0.139E-16 -.528E+01   0.866E-05 -.145E-04 0.156E+00
   0.329E-04 -.101E-04 -.184E+03   0.141E-03 0.779E-04 0.179E+03   -.520E-16 -.139E-16 0.528E+01   -.866E-05 0.145E-04 -.156E+00
   -.210E+02 0.155E+00 -.401E+03   0.186E+02 -.155E+00 0.405E+03   0.442E+01 -.109E-01 -.491E+01   -.582E+00 0.533E-02 -.789E+00
   0.106E+02 0.181E+02 -.401E+03   -.941E+01 -.160E+02 0.405E+03   -.222E+01 -.383E+01 -.491E+01   0.296E+00 0.502E+00 -.789E+00
   0.103E+02 -.182E+02 -.401E+03   -.915E+01 0.162E+02 0.405E+03   -.220E+01 0.384E+01 -.491E+01   0.286E+00 -.507E+00 -.789E+00
   0.210E+02 -.155E+00 0.401E+03   -.186E+02 0.155E+00 -.405E+03   -.442E+01 0.109E-01 0.491E+01   0.582E+00 -.533E-02 0.789E+00
   -.106E+02 -.181E+02 0.401E+03   0.941E+01 0.160E+02 -.405E+03   0.222E+01 0.383E+01 0.491E+01   -.296E+00 -.502E+00 0.789E+00
   -.103E+02 0.182E+02 0.401E+03   0.915E+01 -.162E+02 -.405E+03   0.220E+01 -.384E+01 0.491E+01   -.286E+00 0.507E+00 0.789E+00
   0.885E-10 0.105E-09 0.103E-09   0.711E-14 0.711E-14 0.171E-12   0.000E+00 0.444E-15 0.000E+00   -.837E-12 -.535E-12 0.791E-11

 POSITION                                       TOTAL-FORCE (eV/Angst)
      3.45388      1.99410     11.72054         0.000000      0.000000      0.006461
      6.90778      3.98821     11.72405         0.000000      0.000000     -0.006461
      0.00000      0.00000     10.50824         0.000000      0.000000     -0.286449
      0.00000      0.00000     12.93635         0.000000      0.000000      0.286449
      4.32819      0.00251     13.45138         1.430719     -0.004348     -1.600450
      1.29198      2.23274     13.45138        -0.719125     -1.236865     -1.600450
      4.74152      3.74706     13.45138        -0.711594      1.241213     -1.600450
      6.03348      5.97980      9.99321        -1.430719      0.004348      1.600450
      9.06969      3.74957      9.99321         0.719125      1.236865      1.600450
      5.62015      2.23525      9.99321         0.711594     -1.241213      1.600450
    total drift:                                0.000000      0.000000      0.000000

  FREE ENERGIE OF THE ION-ELECTRON SYSTEM (eV)
  free  energy   TOTEN  =       -39.02666461 eV

  energy  without entropy=      -39.02666461  energy(sigma->0) =      -39.02666461

[...]

 d Force = 0.2229970E+00[-0.692E+00, 0.114E+01]  d Energy = 0.9525371E+01-0.930E+01
 d Force =-0.2008599E+03[-0.247E+03,-0.155E+03]  d Ewald  =-0.3436848E+04 0.324E+04

 Steepest descent step on ions:
 trial-energy change:   -9.525371  1 .order   -6.377340  -20.066777    7.312096
  (g-gl).g = 0.201E+02      g.g   = 0.201E+02  gl.gl    = 0.000E+00
 g(Force)  = 0.134E+01   g(Stress)= 0.187E+02 ortho     = 0.000E+00
 gamma     =   0.00000
 trial     =   1.00000
 opt step  =   0.83019  (harmonic =   0.73293) maximal distance =0.06409867
 next E    =   -49.157467   (d E  = -10.13080)

[...]

 d Force = 0.6977995E-01[-0.891E-02, 0.148E+00]  d Energy = 0.5920415E+00-0.522E+00
 d Force = 0.4633894E+02[ 0.443E+02, 0.484E+02]  d Ewald  = 0.7490035E+03-0.703E+03

[...]

 d Force = 0.3219390E-03[-0.226E-03, 0.870E-03]  d Energy = 0.1310392E-01-0.128E-01
 d Force =-0.4060034E+01[-0.408E+01,-0.404E+01]  d Ewald  =-0.6636334E+02 0.623E+02

[...]

 d Force =-0.5250528E-03[-0.872E-03,-0.178E-03]  d Energy = 0.1973597E-02-0.250E-02
 d Force =-0.3202602E+01[-0.321E+01,-0.319E+01]  d Ewald  =-0.5244469E+02 0.492E+02

[...]

 d Force = 0.9214362E-01[ 0.471E-01, 0.137E+00]  d Energy = 0.1204006E+00-0.283E-01
 d Force =-0.6835739E+02[-0.686E+02,-0.682E+02]  d Ewald  = 0.2223416E+03-0.291E+03

 Conjugate gradient step on ions:
 trial-energy change:   -0.120401  1 .order   -0.118534   -0.193149   -0.043920
  (g-gl).g = 0.390E+00      g.g   = 0.202E+00  gl.gl    = 0.201E+02
 g(Force)  = 0.143E+00   g(Stress)= 0.593E-01 ortho     =-0.188E+00
 gamma     =   0.01944
 trial     =   0.97169
 opt step  =   1.23281  (harmonic =   1.25767) maximal distance =0.03366381
 next E    =   -49.285493   (d E  =  -0.12634)

[...]

 d Force = 0.9367018E-02[ 0.604E-02, 0.127E-01]  d Energy = 0.5958333E-02 0.341E-02
 d Force =-0.1864889E+02[-0.187E+02,-0.186E+02]  d Ewald  = 0.5949881E+02-0.781E+02

[...]

 d Force = 0.1663983E-01[-0.495E-01, 0.827E-01]  d Energy = 0.1364632E-01 0.299E-02
 d Force =-0.1342243E+02[-0.131E+02,-0.137E+02]  d Ewald  = 0.3998596E+02-0.534E+02

 Conjugate gradient step on ions:
 trial-energy change:   -0.013646  1 .order   -0.016724   -0.084254    0.050806
  (g-gl).g = 0.748E-01      g.g   = 0.816E-01  gl.gl    = 0.202E+00
 g(Force)  = 0.722E-01   g(Stress)= 0.942E-02 ortho     = 0.178E-02
 gamma     =   0.36946
 trial     =   1.02392
 opt step  =   0.60490  (harmonic =   0.63875) maximal distance =0.02536592
 next E    =   -49.309767   (d E  =  -0.02425)

[...]

 eigenvalue-minimisations  :  1216
 total energy-change (2. order) :-0.1295383E-01  (-0.7845799E-02)
 number of electron      62.0000006 magnetization      -0.0000000
 augmentation part        5.0466589 magnetization       0.0000068

[...]

 Broyden mixing:
  rms(total) = 0.76767E-02    rms(broyden)= 0.76766E-02
  rms(prec ) = 0.83091E-02
  weight for this iteration     100.00

 eigenvalues of (default mixing * dielectric matrix)
  average eigenvalue GAMMA=   1.0299
  0.2654  1.4121  1.4121

[...]

--------------------------------------- Iteration      9(   5)  ---------------------------------------

[...]

 eigenvalue-minimisations  :  1056
 total energy-change (2. order) : 0.3425986E-04  (-0.2233817E-04)
 number of electron      62.0000006 magnetization      -0.0000000
 augmentation part        4.8992816 magnetization      -0.0000039

 Free energy of the ion-electron system (eV)
  alpha Z        PSCENC =        38.20931197
  Ewald energy   TEWEN  =     10031.14372933
  -Hartree energ DENC   =    -13200.51136082
  -exchange      EXHF   =         0.00000000
  -V(xc)+E(xc)   XCENC  =        86.80663555
  PAW double counting   =      2098.30134658    -2144.86116134
  entropy T*S    EENTRO =         0.00000000
  eigenvalues    EBANDS =      -465.85468255
  atomic energy  EATOM  =      3507.45630297
  Solvation  Ediel_sol  =         0.00000000
  free energy    TOTEN  =       -49.30987832 eV

  energy without entropy =      -49.30987832  energy(sigma->0) =      -49.30987832

 average (electrostatic) potential at core
  the test charge radii are     1.0452  0.9892  0.9698
  (the norm of the test charge is              1.0000)
       1 -48.7589       2 -48.7589       3 -92.2257       4 -92.2257       5 -94.0500
       6 -94.0499       7 -94.0499       8 -94.0500       9 -94.0499      10 -94.0499

 E-fermi :  -2.6846     XC(G=0):  -3.6468     alpha+bet : -3.3395

[...]

 spin component 2

[...]

 k-point     5 :      -0.4000    0.2000    0.0000
  band No.  band energies     occupation
      1     -16.4381      1.00000
      2     -16.1841      1.00000
      3     -15.6790      1.00000
      4     -15.5937      1.00000
      5     -15.3663      1.00000
      6     -15.1584      1.00000
      7     -10.5096      1.00000
      8      -9.2813      1.00000
      9      -8.1171      1.00000
     10      -7.5768      1.00000
     11      -7.5367      1.00000
     12      -7.0193      1.00000
     13      -6.7428      1.00000
     14      -6.5093      1.00000
     15      -6.2355      1.00000
     16      -5.8862      1.00000
     17      -5.7531      1.00000
     18      -5.7239      1.00000
     19      -5.5063      1.00000
     20      -5.1939      1.00000
     21      -5.1368      1.00000
     22      -4.3384      1.00000
     23      -4.2633      1.00000
     24      -4.0386      1.00000
     25      -3.9462      1.00000
     26      -3.4202      1.00000
     27      -3.3336      1.00000
     28      -3.1680      1.00000
     29      -3.1372      1.00000
     30      -2.9993      1.00000
     31      -2.8857      1.00000
     32      -1.6511      0.00000
     33      -1.5631      0.00000
     34      -1.2620      0.00000
     35      -0.9719      0.00000
     36       0.2202      0.00000
     37       0.8362      0.00000
     38       1.3865      0.00000
     39       1.6492      0.00000
     40       2.1963      0.00000
     41       2.3587      0.00000
     42       2.6897      0.00000
     43       3.4255      0.00000
     44       3.5284      0.00000
     45       3.5663      0.00000
     46       3.7091      0.00000
     47       4.1410      0.00000
     48       4.5905      0.00000

[...]

 soft charge-density along one line, spin component           2
         0         1         2         3         4         5         6         7         8         9
 total charge-density along one line

------------------------ aborting loop because EDIFF is reached ----------------------------------------

[...]

  FORCE on cell =-STRESS in cart. coord.  units (eV):
  Direction    XX          YY          ZZ          XY          YZ          ZX
  Alpha Z    38.20931    38.20931    38.20931
  Ewald   12185.23937 12185.23683-14339.33495    -0.00222    -0.00059    -0.00105
  Hartree 12768.61697 12768.61785-12337.43411    -0.00043     0.00005     0.00008
  E(xc)    -249.66388  -249.66387  -249.27506     0.00001     0.00000     0.00001
  Local  -25861.71546-25861.71522 25734.42270     0.00218     0.00035     0.00063
  n-local   449.38980   449.57869   452.82022     0.04061     0.96848     0.84844
  augment   -18.76423   -18.76408   -23.41113     0.00005     0.00005     0.00005
  Kinetic   690.92927   686.13521   723.97608    -3.17656     1.39017     1.49536
  Fock        0.00000     0.00000     0.00000     0.00000     0.00000     0.00000
  Total      -0.06207    -0.06207    -0.02694     0.00000     0.00000     0.00000
  in kB      -0.16708    -0.16708    -0.07251     0.00000     0.00000     0.00000

 VOLUME and BASIS-vectors are now :
  energy-cutoff  :      520.00
  volume of cell :      595.21
      direct lattice vectors                 reciprocal lattice vectors
     5.768470015  0.000001211 -0.000000000     0.173356214 -0.100087203 -0.000000000
     2.884233710  4.995641997 -0.000000000    -0.000000042  0.200174496  0.000000000
     0.000000000 -0.000000000 20.654509147     0.000000000  0.000000000  0.048415578

  length of vectors
     5.768470015  5.768469733 20.654509147     0.200174487  0.200174496  0.048415578

 FORCES acting on ions
    electron-ion (+dipol)            ewald-force                    non-local-force                 convergence-correction
   -.166E-03 -.113E-03 0.813E+00   0.792E-03 0.470E-03 -.824E+00   -.208E-16 -.640E-21 0.155E-01   0.211E-06 0.109E-06 -.231E-03
   0.166E-03 0.113E-03 -.813E+00   -.792E-03 -.470E-03 0.824E+00   0.139E-16 0.640E-21 -.155E-01   -.211E-06 -.109E-06 0.231E-03
   -.317E-04 -.214E-04 0.282E+03   -.219E-03 -.123E-03 -.273E+03   0.167E-16 0.420E-16 -.923E+01   -.174E-06 -.109E-06 0.177E-02
   0.317E-04 0.214E-04 -.282E+03   0.219E-03 0.123E-03 0.273E+03   -.981E-17 -.420E-16 0.923E+01   0.174E-06 0.109E-06 -.177E-02
   -.297E+02 0.473E-01 -.579E+03   0.259E+02 -.430E-01 0.584E+03   0.373E+01 -.936E-02 -.481E+01   -.424E-02 0.216E-04 -.821E-02
   0.149E+02 0.257E+02 -.579E+03   -.130E+02 -.224E+02 0.584E+03   -.187E+01 -.323E+01 -.481E+01   0.214E-02 0.366E-02 -.821E-02
   0.148E+02 -.257E+02 -.579E+03   -.129E+02 0.225E+02 0.584E+03   -.186E+01 0.324E+01 -.481E+01   0.210E-02 -.368E-02 -.821E-02
   0.297E+02 -.473E-01 0.579E+03   -.259E+02 0.430E-01 -.584E+03   -.373E+01 0.936E-02 0.481E+01   0.424E-02 -.216E-04 0.821E-02
   -.149E+02 -.257E+02 0.579E+03   0.130E+02 0.224E+02 -.584E+03   0.187E+01 0.323E+01 0.481E+01   -.214E-02 -.366E-02 0.821E-02
   -.148E+02 0.257E+02 0.579E+03   0.129E+02 -.225E+02 -.584E+03   0.186E+01 -.324E+01 0.481E+01   -.210E-02 0.368E-02 0.821E-02
   -.216E-09 -.124E-09 -.323E-09   -.355E-14 0.142E-13 -.114E-12   0.000E+00 -.444E-15 -.266E-14   -.183E-13 0.642E-12 0.308E-10

 POSITION                                       TOTAL-FORCE (eV/Angst)
      2.88423      1.66521     10.32622         0.000000     -0.000000      0.004190
      5.76847      3.33043     10.32829         0.000000     -0.000000     -0.004190
      0.00000     -0.00000      9.21901         0.000000     -0.000000      0.005937
      0.00000     -0.00000     11.43550         0.000000     -0.000000     -0.005937
      3.61953      0.00095     11.76389        -0.008746     -0.004303      0.001045
      1.07529      1.86057     11.76389         0.000647      0.009726      0.001045
      3.95789      3.13413     11.76389         0.008100     -0.005423      0.001045
      5.03317      4.99469      8.89061         0.008746      0.004303     -0.001045
      7.57741      3.13507      8.89061        -0.000647     -0.009726     -0.001045
      4.69481      1.86151      8.89061        -0.008100      0.005423     -0.001045
    total drift:                               -0.000000     -0.000000     -0.000000

  FREE ENERGIE OF THE ION-ELECTRON SYSTEM (eV)
  free  energy   TOTEN  =       -49.30987832 eV

  energy  without entropy=      -49.30987832  energy(sigma->0) =      -49.30987832

 d Force = 0.1007564E-01[-0.783E-04, 0.202E-01]  d Energy = 0.1071807E-01-0.642E-03
 d Force = 0.5414191E+01[ 0.547E+01, 0.536E+01]  d Ewald  =-0.1640168E+02 0.218E+02

 reached required accuracy - stopping structural energy minimisation

 total charge

[...]

 magnetization (x)

# of ion       s       p       d       tot
    1        0.000   0.000   0.000   0.000
    2        0.000   0.000   0.000   0.000
    3       -0.000  -0.000   0.000  -0.000
    4       -0.000  -0.000   0.000  -0.000
    5        0.000  -0.000   0.000  -0.000
    6        0.000  -0.000   0.000  -0.000
    7        0.000  -0.000   0.000  -0.000
    8        0.000  -0.000   0.000  -0.000
    9        0.000  -0.000   0.000  -0.000
   10        0.000  -0.000   0.000  -0.000
tot          0.000  -0.000   0.000   0.000

 BZINTS: Fermi energy: -2.684568; 62.000000 electrons
         Band energy:-465.854683;  BLOECHL correction:  0.000000