 vasp.5.4.4.18Apr17-6-g9f103f2a35 (build May  1 2020 15:48:39) complex
 executed on             LinuxGNU date 2020.07.02  15:13:57

 INCAR:
 POTCAR:   PAW_PBE Cr 06Sep2000
 POTCAR:   PAW_PBE Ge 05Jan2001
 POTCAR:    PAW_PBE P 17Jan2003
 POTCAR:    PAW_PBE S 17Jan2003

 POTCAR:   PAW_PBE Cr 06Sep2000
   VRHFIN =Cr : d5 s1

   TITEL  = PAW_PBE Cr 06Sep2000
   POMASS =   51.996; ZVAL   =    6.000    mass and valenz
   ENMAX  =  227.082; ENMIN  =  170.311 eV
   QCUT   =   -4.085; QGAM   =    8.171    optimization parameters

   Description
     l     E      TYP  RCUT    TYP  RCUT
     2   .000     23  2.500
     2   .000     23  2.500
     0   .000     23  2.500
     0   .000     23  2.500
     1  -.400     23  2.500
     1  2.000     23  2.500
     3   .000      7   .000

 POTCAR:   PAW_PBE Ge 05Jan2001
   VRHFIN =Ge: s2p2

   TITEL  = PAW_PBE Ge 05Jan2001
   POMASS =   72.610; ZVAL   =    4.000    mass and valenz
   ENMAX  =  173.807; ENMIN  =  130.355 eV
   QCUT   =   -3.574; QGAM   =    7.148    optimization parameters

[...]

 POTCAR:    PAW_PBE P 17Jan2003
   VRHFIN =P : s2p3

[...]

 POTCAR:    PAW_PBE S 17Jan2003
   VRHFIN =S : s2p4

   TITEL  = PAW_PBE S 17Jan2003
   POMASS =   32.066; ZVAL   =    6.000    mass and valenz
   ENMAX  =  280.000; ENMIN  =  194.016 eV
   QCUT   =   -4.360; QGAM   =    8.721    optimization parameters

   Description
     l     E      TYP  RCUT    TYP  RCUT
     0   .000     23  1.900
     0   .000     23  1.900
     1   .000     23  1.900
     1   .000     23  1.900
     2   .000     23  1.900

 Optimization of the real space projectors (new method)

 maximal supplied QI-value         = 15.12
 optimisation between [QCUT,QGAM] = [ 11.64, 23.28] = [ 37.95,151.78] Ry
 Optimized for a Real-space Cutoff    1.49 Angstroem

   l    n(q)    QCUT    max X(q) W(low)/X(q) W(high)/X(q)  e(spline)
   2      9    11.641     4.777    0.25E-04    0.21E-05    0.63E-07
   2      9    11.641    31.132    0.13E-03    0.22E-03    0.64E-06
   0     10    11.641    20.416    0.11E-04    0.74E-05    0.19E-07
   0     10    11.641    45.408    0.10E-03    0.85E-04    0.30E-06
   1     10    11.641     7.848    0.22E-04    0.23E-04    0.56E-07
   1     10    11.641     9.895    0.85E-04    0.54E-04    0.16E-06
 Optimization of the real space projectors (new method)

[...]

   l    n(q)    QCUT    max X(q) W(low)/X(q) W(high)/X(q)  e(spline)
   0      8    11.508     6.651    0.19E-04    0.31E-05    0.49E-08
   0      8    11.508    90.285    0.95E-04    0.17E-03    0.51E-07
   1      8    11.508     4.328    0.14E-04    0.32E-04    0.22E-07
   1      8    11.508    54.583    0.16E-03    0.71E-04    0.89E-07
 Optimization of the real space projectors (new method)

 maximal supplied QI-value         = 19.84
 optimisation between [QCUT,QGAM] = [ 11.51, 23.22] = [ 37.09,150.92] Ry
 Optimized for a Real-space Cutoff    1.21 Angstroem

   l    n(q)    QCUT    max X(q) W(low)/X(q) W(high)/X(q)  e(spline)
   0      8    11.508     5.487    0.18E-04    0.22E-05    0.47E-08
   0      8    11.508    85.627    0.96E-04    0.18E-03    0.54E-07
   1      8    11.508     3.530    0.17E-04    0.28E-04    0.21E-07
   1      8    11.508    42.714    0.18E-03    0.63E-04    0.92E-07

 PAW_PBE Cr 06Sep2000                   :
 PAW_PBE Ge 05Jan2001                   :
  PAW_PBE P 17Jan2003                   :
  PAW_PBE S 17Jan2003                   :

 POSCAR: Cr2 Ge P S6
  positions in direct lattice
  velocities in cartesian coordinates
 exchange correlation table for  LEXCH =       42
   RHO(1)=    0.500       N(1)  =     2000
   RHO(2)=  100.500       N(2)  =     4000

 ion  position               nearest neighbor table
   1  0.333  0.333  0.500-   6 2.78   5 2.78   7 2.78   8 2.78  10 2.78   9 2.78
   2  0.667  0.667  0.500-   9 2.78   8 2.78  10 2.78   5 2.78   7 2.78   6 2.78
   3  0.000  0.000  0.448-   4 2.43   8 2.63  10 2.63   9 2.63
   4  0.000  0.000  0.552-   3 2.43   5 2.63   7 2.63   6 2.63
   5  0.626  0.000  0.574-   4 2.63   1 2.78   2 2.78
   6  0.000  0.373  0.574-   4 2.63   1 2.78   2 2.78
   7  0.373  0.626  0.574-   4 2.63   1 2.78   2 2.78
   8  0.374  1.000  0.426-   3 2.63   2 2.78   1 2.78
   9  1.000  0.627  0.426-   3 2.63   2 2.78   1 2.78
  10  0.627  0.374  0.426-   3 2.63   2 2.78   1 2.78

  LATTYP: Found a hexagonal cell.
 ALAT       =     6.9077769333
 C/A-ratio  =     3.3939410937

  Lattice vectors:

 A1 = (   3.4538890000,  -5.9823100000,   0.0000000000)
 A2 = (  -6.9077770000,   0.0000000000,   0.0000000000)
 A3 = (   0.0000000000,   0.0000000000, -23.4445880000)

Analysis of symmetry for initial positions (statically):
 Subroutine PRICEL returns:
 Original cell was already a primitive cell.

 Routine SETGRP: Setting up the symmetry group for a
 hexagonal supercell.

 Subroutine GETGRP returns: Found  3 space group operations
 (whereof  3 operations were pure point group operations)
 out of a pool of 24 trial point group operations.

The static configuration has the point symmetry C_3 .

Analysis of symmetry for dynamics (positions and initial velocities):
 Subroutine PRICEL returns:
 Original cell was already a primitive cell.

[...]

The dynamic configuration has the point symmetry C_3 .

Analysis of constrained symmetry for selective dynamics:
 Subroutine PRICEL returns:
 Original cell was already a primitive cell.

[...]

The constrained configuration has the point symmetry C_3 .

Analysis of structural, dynamic, and magnetic symmetry:
 Subroutine PRICEL returns:
 Original cell was already a primitive cell.

 Routine SETGRP: Setting up the symmetry group for a
 hexagonal supercell.

 Subroutine GETGRP returns: Found  3 space group operations
 (whereof  3 operations were pure point group operations)
 out of a pool of 24 trial point group operations.

The magnetic configuration has the point symmetry C_3 .

 Subroutine INISYM returns: Found  3 space group operations
 (whereof  3 operations are pure point group operations),
 and found     1 'primitive' translations

 KPOINTS: Kpoints from vasprun.xml

Automatic generation of k-mesh.
Space group operators:
 irot       det(A)        alpha          n_x          n_y          n_z        tau_x        tau_y        tau_z
    1     1.000000     0.000000     1.000000     0.000000     0.000000     0.000000     0.000000     0.000000
    2     1.000000   120.000000     0.000000     0.000000     1.000000     0.000000     0.000000     0.000000
    3     1.000000   120.000000     0.000000     0.000000    -1.000000     0.000000     0.000000     0.000000

 Subroutine IBZKPT returns following result:

 Found      5 irreducible k-points:

 Following reciprocal coordinates:
            Coordinates               Weight
  0.000000  0.000000  0.000000      1.000000
  0.200000  0.000000  0.000000      6.000000
  0.400000  0.000000  0.000000      6.000000
  0.400000  0.200000  0.000000      6.000000
 -0.400000  0.200000  0.000000      6.000000

 Following cartesian coordinates:
            Coordinates               Weight
  0.000000  0.000000  0.000000      1.000000
  0.028953 -0.016716  0.000000      6.000000
  0.057906 -0.033432  0.000000      6.000000
  0.057906  0.000000  0.000000      6.000000
 -0.057906  0.066864  0.000000      6.000000

 TETIRR: Found     15 inequivalent tetrahedra from      150

 SYSTEM =  unknown system
 POSCAR =  Cr2 Ge P S6

 Startparameter for this run:
   NWRITE =      2    write-flag & timer
   PREC   = accura    normal or accurate (medium, high low for compatibility)
   ISTART =      0    job   : 0-new  1-cont  2-samecut
   ICHARG =      2    charge: 1-file 2-atom 10-const
   ISPIN  =      2    spin polarized calculation?
   LNONCOLLINEAR =      F non collinear calculations
   LSORBIT =      F    spin-orbit coupling
   INIWAV =      1    electr: 0-lowe 1-rand  2-diag
   LASPH  =      F    aspherical Exc in radial PAW
   METAGGA=      F    non-selfconsistent MetaGGA calc.

 Electronic Relaxation 1
   ENCUT  =  520.0 eV  38.22 Ry    6.18 a.u.  12.84 12.84 43.59*2*pi/ulx,y,z
   ENINI  =  520.0     initial cutoff
   ENAUG  =  402.1 eV  augmentation charge cutoff
   NELM   =    400;   NELMIN=  2; NELMDL=  0     # of ELM steps
   EDIFF  = 0.1E-03   stopping-criterion for ELM
   LREAL  =      T    real-space projection
   NLSPLINE    = F    spline interpolate recip. space projectors
   LCOMPAT=      F    compatible to vasp.4.4
   GGA_COMPAT  = T    GGA compatible to vasp.4.4-vasp.4.6
   LMAXPAW     = -100 max onsite density
   LMAXMIX     =    2 max onsite mixed and CHGCAR
   VOSKOWN=      0    Vosko Wilk Nusair interpolation
   ROPT   =   -0.00025  -0.00025  -0.00025  -0.00025
 Ionic relaxation
   EDIFFG = 0.1E-02   stopping-criterion for IOM
   NSW    =     99    number of steps for IOM
   NBLOCK =      1;   KBLOCK =     99    inner block; outer block
   IBRION =      2    ionic relax: 0-MD 1-quasi-New 2-CG
   NFREE  =      1    steps in history (QN), initial steepest desc. (CG)
   ISIF   =      3    stress and relaxation
   IWAVPR =     11    prediction:  0-non 1-charg 2-wave 3-comb
   ISYM   =      2    0-nonsym 1-usesym 2-fastsym
   LCORR  =      T    Harris-Foulkes like correction to forces

   POTIM  = 0.5000    time-step for ionic-motion
   TEIN   =    0.0    initial temperature
   TEBEG  =    0.0;   TEEND  =   0.0 temperature during run
   SMASS  =  -3.00    Nose mass-parameter (am)
   estimated Nose-frequenzy (Omega)   =  0.10E-29 period in steps =****** mass=  -0.109E-26a.u.
   SCALEE = 1.0000    scale energy and forces
   NPACO  =    256;   APACO  = 16.0  distance and # of slots for P.C.
   PSTRESS=    0.0 pullay stress

  Mass of Ions in am
   POMASS =  52.00 72.61 30.97 32.07
  Ionic Valenz
   ZVAL   =   6.00  4.00  5.00  6.00
  Atomic Wigner-Seitz radii
  virtual crystal weights
   VCA    =   1.00  1.00  1.00  1.00
   NELECT =      57.0000    total number of electrons
   NUPDOWN=      -1.0000    fix difference up-down

 DOS related values:
   EMIN   =  10.00;   EMAX   =-10.00  energy-range for DOS
   EFERMI =   0.00
   ISMEAR =    -5;   SIGMA  =   0.05  broadening in eV -4-tet -1-fermi 0-gaus

 Electronic relaxation 2 (details)
   IALGO  =     38    algorithm
   LDIAG  =      T    sub-space diagonalisation (order eigenvalues)
   LSUBROT=      F    optimize rotation matrix (better conditioning)
   TURBO    =      0    0=normal 1=particle mesh
   IRESTART =      0    0=no restart 2=restart with 2 vectors
   NREBOOT  =      0    no. of reboots
   NMIN     =      0    reboot dimension
   EREF     =   0.00    reference energy to select bands
   IMIX   =      4    mixing-type and parameters
     AMIX     =   0.40;   BMIX     =  1.00
     AMIX_MAG =   1.60;   BMIX_MAG =  1.00
     AMIN     =   0.01
     WC   =   100.;   INIMIX=   1;  MIXPRE=   1;  MAXMIX= -45

 Intra band minimization:
   WEIMIN = 0.0010     energy-eigenvalue tresh-hold
   EBREAK =  0.63E-06  absolut break condition
   DEPER  =   0.30     relativ break condition

   TIME   =   0.40     timestep for ELM

  volume/ion in A,a.u.               =      96.88       653.80
  Fermi-wavevector in a.u.,A,eV,Ry     =   0.636722  1.203230  5.516004  0.405415
  Thomas-Fermi vector in A             =   1.701488

 Write flags
[...]
  Total     -26.36992   -26.36992   -17.21108     0.00000    -0.00000     0.00000
  in kB     -43.60835   -43.60834   -28.46223     0.00000    -0.00000     0.00000

 VOLUME and BASIS-vectors are now :
  energy-cutoff  :      520.00
  volume of cell :      968.84
      direct lattice vectors                 reciprocal lattice vectors
     6.907777000 -0.000000000  0.000000000     0.144764372 -0.083579742  0.000000000
     3.453888000  5.982310000  0.000000000     0.000000000  0.167159509 -0.000000000
     0.000000000  0.000000000 23.444588000    -0.000000000  0.000000000  0.042653767

[...]

 FORCES acting on ions
    electron-ion (+dipol)            ewald-force                    non-local-force                 convergence-correction
   -.670E-04 -.562E-04 0.620E+01   0.314E-03 0.187E-03 -.600E+01   0.000E+00 0.000E+00 -.183E-01   0.217E-05 0.125E-05 -.157E-01
   0.798E-04 0.426E-04 0.488E+01   -.314E-03 -.187E-03 -.471E+01   0.000E+00 0.000E+00 -.501E-02   -.220E-05 -.126E-05 -.160E-01
   -.170E-04 -.182E-04 0.172E+03   -.141E-03 -.779E-04 -.170E+03   -.173E-17 0.347E-17 -.186E+01   -.625E-06 -.333E-06 -.535E-02
   0.320E-04 0.155E-04 -.195E+03   0.176E-03 0.973E-04 0.197E+03   0.867E-18 0.867E-18 -.942E+00   0.925E-06 0.513E-06 -.213E-01
   0.126E+01 0.154E+00 -.342E+03   -.353E+01 -.143E+00 0.346E+03   0.298E+01 -.125E-01 -.591E+01   -.267E-02 -.473E-02 -.265E-01
   -.498E+00 -.117E+01 -.342E+03   0.164E+01 0.313E+01 0.346E+03   -.150E+01 -.258E+01 -.591E+01   -.277E-02 0.468E-02 -.265E-01
   -.768E+00 0.101E+01 -.342E+03   0.189E+01 -.298E+01 0.346E+03   -.148E+01 0.259E+01 -.591E+01   0.543E-02 0.545E-04 -.265E-01
   0.593E+01 -.154E+00 0.348E+03   -.308E+01 0.150E+00 -.352E+03   -.376E+01 0.136E-01 0.563E+01   0.114E-02 -.481E-02 -.512E-02
   -.310E+01 -.506E+01 0.348E+03   0.167E+01 0.259E+01 -.352E+03   0.189E+01 0.325E+01 0.563E+01   -.473E-02 0.142E-02 -.512E-02
   -.283E+01 0.521E+01 0.348E+03   0.141E+01 -.274E+01 -.352E+03   0.187E+01 -.326E+01 0.563E+01   0.360E-02 0.339E-02 -.512E-02
   0.534E-04 -.777E-07 0.383E+01   0.142E-13 0.533E-14 0.568E-13   -.444E-15 0.888E-15 -.368E+01   0.611E-07 0.428E-08 -.153E+00

 POSITION                                       TOTAL-FORCE (eV/Angst)
      3.45388      1.99410     11.72054        -0.000000     -0.000000      0.168604
      6.90778      3.98821     11.72405        -0.000000     -0.000000      0.149787
      0.00000      0.00000     10.50824        -0.000000     -0.000000     -0.172768
      0.00000      0.00000     12.93635        -0.000000     -0.000000      0.890140
      4.32819      0.00251     13.45138         0.712649     -0.004935     -1.942525
      1.29198      2.23274     13.45138        -0.360598     -0.614705     -1.942525
      4.74152      3.74706     13.45138        -0.352051      0.619640     -1.942525
      6.03348      5.97980      9.99321        -0.910369      0.003884      1.597271
      9.06969      3.74957      9.99321         0.458548      0.786460      1.597271
      5.62015      2.23525      9.99321         0.451821     -0.790344      1.597271
    total drift:                                0.000053     -0.000000     -0.001192

  FREE ENERGIE OF THE ION-ELECTRON SYSTEM (eV)
  free  energy   TOTEN  =       -47.84930312 eV

  energy  without entropy=      -47.84930312  energy(sigma->0) =      -47.84930312

[...]

 d Force = 0.5890881E+00[ 0.135E+00, 0.104E+01]  d Energy = 0.6158629E+01-0.557E+01
 d Force =-0.1810309E+03[-0.206E+03,-0.156E+03]  d Ewald  =-0.1645735E+04 0.146E+04

 Steepest descent step on ions:
 trial-energy change:   -6.158629  1 .order   -4.910328   -9.285414   -0.535243
  (g-gl).g = 0.929E+01      g.g   = 0.929E+01  gl.gl    = 0.000E+00
 g(Force)  = 0.115E+01   g(Stress)= 0.814E+01 ortho     = 0.000E+00
 gamma     =   0.00000
 trial     =   1.00000
 opt step  =   1.03247  (harmonic =   1.06117) maximal distance =0.07955877
 next E    =   -54.016665   (d E  =  -6.16736)

[...]

 d Force = 0.6308626E-01[ 0.859E-02, 0.118E+00]  d Energy = 0.7188732E-01-0.880E-02
 d Force = 0.1024139E+02[ 0.105E+02, 0.997E+01]  d Ewald  =-0.1018563E+03 0.112E+03

 Conjugate gradient step on ions:
 trial-energy change:   -0.071887  1 .order   -0.064973   -0.125856   -0.004091
  (g-gl).g = 0.131E+00      g.g   = 0.125E+00  gl.gl    = 0.929E+01
 g(Force)  = 0.115E+00   g(Stress)= 0.977E-02 ortho     =-0.578E-02
 gamma     =   0.01410
 trial     =   1.00649
 opt step  =   1.03156  (harmonic =   1.04031) maximal distance =0.05996718
 next E    =   -54.081859   (d E  =  -0.07194)

[...]

 d Force = 0.5919944E-02[ 0.353E-02, 0.831E-02]  d Energy = 0.8223115E-02-0.230E-02
 d Force =-0.1091564E+01[-0.110E+01,-0.108E+01]  d Ewald  = 0.6666079E+02-0.678E+02

 Conjugate gradient step on ions:
 trial-energy change:   -0.008223  1 .order   -0.007634   -0.011713   -0.003555
  (g-gl).g = 0.872E-02      g.g   = 0.115E-01  gl.gl    = 0.125E+00
 g(Force)  = 0.777E-02   g(Stress)= 0.374E-02 ortho     = 0.109E-02
 gamma     =   0.06968
 trial     =   1.01151
 opt step  =   1.29495  (harmonic =   1.45228) maximal distance =0.01230157
 next E    =   -54.090668   (d E  =  -0.00873)

[...]

 d Force = 0.3274622E-03[ 0.257E-03, 0.398E-03]  d Energy =-0.9331931E-04 0.421E-03
 d Force =-0.1084819E+01[-0.109E+01,-0.108E+01]  d Ewald  = 0.3930933E+01-0.502E+01

[...]

 d Force = 0.1893119E-02[ 0.170E-02, 0.208E-02]  d Energy = 0.2322698E-02-0.430E-03
 d Force = 0.6719031E+01[ 0.671E+01, 0.673E+01]  d Ewald  = 0.1561523E+02-0.890E+01

[...]

 d Force = 0.8699927E-03[-0.336E-02, 0.510E-02]  d Energy = 0.1887121E-02-0.102E-02
 d Force = 0.2000707E+02[ 0.199E+02, 0.201E+02]  d Ewald  = 0.4666627E+02-0.267E+02

[...]

 d Force = 0.7592435E-03[ 0.173E-03, 0.135E-02]  d Energy = 0.3818609E-03 0.377E-03
 d Force =-0.8025717E+01[-0.804E+01,-0.801E+01]  d Ewald  =-0.1869480E+02 0.107E+02

[...]

 Conjugate gradient step on ions:
 trial-energy change:   -0.002698  1 .order   -0.001211   -0.002333   -0.000088
  (g-gl).g = 0.155E-02      g.g   = 0.228E-02  gl.gl    = 0.176E-02
 g(Force)  = 0.133E-02   g(Stress)= 0.947E-03 ortho     =-0.398E-03
 gamma     =   0.88092
 trial     =   1.21001
 opt step  =   1.21949  (harmonic =   1.25749) maximal distance =0.00788739
 next E    =   -54.100046   (d E  =  -0.00270)

[...]

 Conjugate gradient step on ions:
 trial-energy change:   -0.001842  1 .order   -0.001847   -0.001997   -0.001698
  (g-gl).g = 0.235E-02      g.g   = 0.300E-02  gl.gl    = 0.228E-02
 g(Force)  = 0.123E-02   g(Stress)= 0.176E-02 ortho     = 0.711E-05
 gamma     =   1.03294
 trial     =   0.66460
 opt step  =   2.65840  (harmonic =   4.44348) maximal distance =0.02121486
 next E    =   -54.106723   (d E  =  -0.00667)

[...]

 d Force = 0.1429304E-02[ 0.174E-03, 0.268E-02]  d Energy =-0.1007675E-02 0.244E-02
 d Force = 0.9570736E+01[ 0.967E+01, 0.947E+01]  d Ewald  =-0.8831369E+02 0.979E+02

[...]

 d Force =-0.4560237E-03[-0.812E-03,-0.101E-03]  d Energy = 0.2012901E-02-0.247E-02
 d Force =-0.5485368E+01[-0.545E+01,-0.552E+01]  d Ewald  = 0.5063951E+02-0.561E+02

[...]

 d Force = 0.4554451E-03[ 0.326E-03, 0.585E-03]  d Energy = 0.9744703E-03-0.519E-03
 d Force =-0.1171569E+01[-0.117E+01,-0.117E+01]  d Ewald  = 0.2376501E+02-0.249E+02

 Steepest descent step on ions:
 trial-energy change:   -0.000974  1 .order   -0.001201   -0.001236   -0.001167
  (g-gl).g = 0.216E-02      g.g   = 0.148E-02  gl.gl    = 0.300E-02
 g(Force)  = 0.700E-03   g(Stress)= 0.779E-03 ortho     =-0.522E-03
 gamma     =   0.00000
 trial     =   0.83531
 opt step  =   3.34125  (harmonic =  15.12587) maximal distance =0.00966993
 next E    =   -54.114082   (d E  =  -0.01119)

[...]

 d Force =-0.3598684E-03[-0.170E-02, 0.979E-03]  d Energy =-0.4478376E-02 0.412E-02
 d Force =-0.3506200E+01[-0.350E+01,-0.351E+01]  d Ewald  = 0.7077689E+02-0.743E+02

[...]

 eigenvalue-minimisations  :   936
 total energy-change (2. order) :-0.5330763E-02  (-0.2517992E-01)
 number of electron      57.0000002 magnetization       5.3358498
 augmentation part       -0.9399438 magnetization       3.8138010

[...]

 Broyden mixing:
  rms(total) = 0.66315E-02    rms(broyden)= 0.66315E-02
  rms(prec ) = 0.75184E-02
  weight for this iteration     100.00

 eigenvalues of (default mixing * dielectric matrix)
  average eigenvalue GAMMA=   0.9940
  1.8153  0.7787  0.3879

[...]

--------------------------------------- Iteration     20(   5)  ---------------------------------------

[...]

 eigenvalue-minimisations  :   840
 total energy-change (2. order) : 0.5543029E-04  (-0.6360010E-04)
 number of electron      57.0000002 magnetization       5.3354019
 augmentation part       -0.9241116 magnetization       3.8165242

 Free energy of the ion-electron system (eV)
  alpha Z        PSCENC =        30.51506577
  Ewald energy   TEWEN  =      7931.65979364
  -Hartree energ DENC   =    -10171.07217004
  -exchange      EXHF   =         0.00000000
  -V(xc)+E(xc)   XCENC  =        32.08968370
  PAW double counting   =      1258.27739153    -1173.25346419
  entropy T*S    EENTRO =         0.00000000
  eigenvalues    EBANDS =      -468.09791214
  atomic energy  EATOM  =      2505.77835381
  Solvation  Ediel_sol  =         0.00000000
  free energy    TOTEN  =       -54.10325792 eV

  energy without entropy =      -54.10325792  energy(sigma->0) =      -54.10325792

 average (electrostatic) potential at core
  the test charge radii are     1.1394  1.1631  0.9587  0.9698
  (the norm of the test charge is              1.0000)
       1 -51.2248       2 -51.2061       3 -39.9011       4 -92.8076       5 -94.3991
       6 -94.3991       7 -94.3990       8 -94.1169       9 -94.1169      10 -94.1169

 E-fermi :  -1.8863     XC(G=0):  -3.3914     alpha+bet : -3.0562

[...]

 spin component 2

[...]

 k-point     5 :      -0.4000    0.2000    0.0000
  band No.  band energies     occupation
      1     -17.5315      1.00000
      2     -16.2097      1.00000
      3     -16.0048      1.00000
      4     -15.8905      1.00000
      5     -15.5223      1.00000
      6     -15.3476      1.00000
      7     -12.1698      1.00000
      8     -10.4693      1.00000
      9      -8.4316      1.00000
     10      -8.0015      1.00000
     11      -7.6685      1.00000
     12      -7.2123      1.00000
     13      -6.9229      1.00000
     14      -6.4165      1.00000
     15      -6.1043      1.00000
     16      -6.0746      1.00000
     17      -5.9163      1.00000
     18      -5.5439      1.00000
     19      -5.5055      1.00000
     20      -5.2913      1.00000
     21      -5.1162      1.00000
     22      -4.5803      1.00000
     23      -4.4015      1.00000
     24      -4.3444      1.00000
     25      -4.0689      1.00000
     26      -2.7747      1.00000
     27      -1.6649      0.00000
     28      -1.5529      0.00000
     29      -1.4044      0.00000
     30      -0.7939      0.00000
     31      -0.6754      0.00000
     32      -0.6106      0.00000
     33      -0.4027      0.00000
     34      -0.3332      0.00000
     35       0.1783      0.00000
     36       0.2054      0.00000
     37       0.5500      0.00000
     38       0.6718      0.00000
     39       1.0559      0.00000
     40       1.7710      0.00000

[...]

 soft charge-density along one line, spin component           2
         0         1         2         3         4         5         6         7         8         9
 total charge-density along one line

------------------------ aborting loop because EDIFF is reached ----------------------------------------

[...]

  FORCE on cell =-STRESS in cart. coord.  units (eV):
  Direction    XX          YY          ZZ          XY          YZ          ZX
  Alpha Z    30.51507    30.51507    30.51507
  Ewald    9649.56380  9649.56106-11367.46718    -0.00120    -0.00045    -0.00081
  Hartree  9993.54071  9993.54103 -9815.78015    -0.00004     0.00003     0.00006
  E(xc)    -215.12296  -215.12295  -214.88196     0.00000     0.00000     0.00001
  Local  -20547.26746-20547.26649 20232.34479     0.00080     0.00023     0.00043
  n-local   490.98722   492.88807   500.12739     0.90430     0.71481     0.70099
  augment   -53.34175   -53.34170   -58.05439     0.00018     0.00002     0.00002
  Kinetic   653.40182   646.32792   693.33052    -4.18744    -0.32482    -0.67615
  Fock        0.00000     0.00000     0.00000     0.00000     0.00000     0.00000
  Total      -0.31077    -0.31077     0.13410     0.00000     0.00000     0.00000
  in kB      -0.74775    -0.74775     0.32266     0.00000     0.00000     0.00000

 VOLUME and BASIS-vectors are now :
  energy-cutoff  :      520.00
  volume of cell :      665.88
      direct lattice vectors                 reciprocal lattice vectors
     5.989003501 -0.000000071  0.000000000     0.166972685 -0.096401721 -0.000000000
     2.994501511  5.186628920 -0.000000000     0.000000002  0.192803458  0.000000000
     0.000000000 -0.000000000 21.436656447    -0.000000000  0.000000000  0.046649066

  length of vectors
     5.989003501  5.989003160 21.436656447     0.192803447  0.192803458  0.046649066

 FORCES acting on ions
    electron-ion (+dipol)            ewald-force                    non-local-force                 convergence-correction
   -.158E-03 -.115E-03 0.364E+01   0.425E-03 0.250E-03 -.426E+01   -.138E-16 -.385E-18 0.632E+00   -.157E-06 -.108E-06 -.126E-02
   0.182E-03 0.835E-04 0.281E+01   -.410E-03 -.241E-03 -.343E+01   0.703E-17 0.135E-16 0.606E+00   -.167E-06 -.133E-06 0.114E-02
   -.370E-04 -.685E-05 0.231E+03   -.199E-03 -.111E-03 -.229E+03   0.662E-17 -.560E-17 -.221E+01   -.266E-06 -.132E-06 -.468E-02
   0.388E-04 0.325E-04 -.282E+03   0.273E-03 0.153E-03 0.279E+03   -.551E-16 0.191E-16 0.276E+01   -.184E-06 -.728E-07 -.437E-02
   0.139E+02 0.516E-02 -.455E+03   -.184E+02 0.788E-01 0.459E+03   0.444E+01 -.478E-02 -.379E+01   0.127E-01 -.780E-01 0.193E-01
   -.697E+01 -.121E+02 -.455E+03   0.925E+01 0.159E+02 0.459E+03   -.222E+01 -.384E+01 -.379E+01   -.739E-01 0.280E-01 0.193E-01
   -.698E+01 0.121E+02 -.455E+03   0.912E+01 -.159E+02 0.459E+03   -.222E+01 0.385E+01 -.379E+01   0.612E-01 0.500E-01 0.193E-01
   0.691E+01 0.144E+00 0.469E+03   -.294E+01 -.694E-01 -.473E+03   -.396E+01 0.763E-02 0.375E+01   -.234E-01 -.805E-01 -.194E-01
   -.333E+01 -.605E+01 0.469E+03   0.141E+01 0.258E+01 -.473E+03   0.199E+01 0.343E+01 0.375E+01   -.580E-01 0.606E-01 -.194E-01
   -.358E+01 0.591E+01 0.469E+03   0.153E+01 -.251E+01 -.473E+03   0.197E+01 -.343E+01 0.375E+01   0.815E-01 0.200E-01 -.194E-01
   0.897E-04 0.473E-04 -.168E+01   0.226E-13 -.444E-15 0.114E-12   -.444E-15 -.444E-15 0.167E+01   -.946E-06 -.493E-06 -.969E-02

 POSITION                                       TOTAL-FORCE (eV/Angst)
      2.99450      1.72887     10.71672        -0.000000     -0.000000      0.009254
      5.98901      3.45775     10.71994        -0.000000      0.000000     -0.013606
      0.00000     -0.00000      9.60825        -0.000000      0.000000     -0.142321
      0.00000     -0.00000     11.90767        -0.000000     -0.000000      0.057516
      3.84729      0.00044     12.22467         0.031230      0.002093     -0.012878
      1.07124      1.85457     12.22467        -0.013802     -0.028093     -0.012878
      4.06499      3.33163     12.22467        -0.017428      0.026000     -0.012878
      5.22870      5.18617      9.20218        -0.015125      0.000883      0.042598
      7.86600      3.25198      9.20218         0.008327      0.012657      0.042598
      4.87230      1.93511      9.20218         0.006798     -0.013540      0.042598
    total drift:                                0.000089      0.000047     -0.020758

  FREE ENERGIE OF THE ION-ELECTRON SYSTEM (eV)
  free  energy   TOTEN  =       -54.10325792 eV

  energy  without entropy=      -54.10325792  energy(sigma->0) =      -54.10325792

 d Force = 0.6142359E-03[ 0.233E-04, 0.121E-02]  d Energy = 0.3866837E-02-0.325E-02
 d Force = 0.2506009E+01[ 0.251E+01, 0.250E+01]  d Ewald  =-0.5046432E+02 0.530E+02

 reached required accuracy - stopping structural energy minimisation

 total charge

[...]

 magnetization (x)

# of ion       s       p       d       tot
    1        0.030   0.035   2.685   2.750
    2        0.030   0.035   2.683   2.749
    3        0.001   0.028  -0.000   0.028
    4       -0.026  -0.003   0.000  -0.029
    5       -0.003  -0.062   0.000  -0.065
    6       -0.002  -0.056   0.000  -0.058
    7       -0.004  -0.064   0.000  -0.069
    8        0.000  -0.060   0.000  -0.060
    9       -0.002  -0.043   0.000  -0.045
   10       -0.001  -0.055   0.000  -0.056
tot          0.023  -0.245   5.367   5.146

 BZINTS: Fermi energy: -1.886302; 57.000000 electrons
         Band energy:-468.097912;  BLOECHL correction: -0.027613