 vasp.5.4.4.18Apr17-6-g9f103f2a35 (build May  1 2020 15:48:39) complex
 executed on             LinuxGNU date 2020.06.29  22:14:39

 INCAR:
 POTCAR:   PAW_PBE Co 06Sep2000
 POTCAR:    PAW_PBE P 17Jan2003
 POTCAR:    PAW_PBE S 17Jan2003

 POTCAR:   PAW_PBE Co 06Sep2000
   VRHFIN =Co: d8 s1

   TITEL  = PAW_PBE Co 06Sep2000
   POMASS =   58.933; ZVAL   =    9.000    mass and valenz
   ENMAX  =  267.969; ENMIN  =  200.977 eV
   QCUT   =   -4.438; QGAM   =    8.876    optimization parameters

   Description
     l     E      TYP  RCUT    TYP  RCUT
     2   .000     23  2.300
     2   .000     23  2.300
     0   .000     23  2.300
     0   .000     23  2.300
     1  -.200     23  2.300
     1   .000     23  2.300
     3   .000      7   .000

 POTCAR:    PAW_PBE P 17Jan2003
   VRHFIN =P : s2p3

   TITEL  = PAW_PBE P 17Jan2003
   POMASS =   30.974; ZVAL   =    5.000    mass and valenz
   ENMAX  =  270.000; ENMIN  =  191.280 eV
   QCUT   =   -4.330; QGAM   =    8.659    optimization parameters

[...]

 POTCAR:    PAW_PBE S 17Jan2003
   VRHFIN =S : s2p4

   TITEL  = PAW_PBE S 17Jan2003
   POMASS =   32.066; ZVAL   =    6.000    mass and valenz
   ENMAX  =  280.000; ENMIN  =  194.016 eV
   QCUT   =   -4.360; QGAM   =    8.721    optimization parameters

   Description
     l     E      TYP  RCUT    TYP  RCUT
     0   .000     23  1.900
     0   .000     23  1.900
     1   .000     23  1.900
     1   .000     23  1.900
     2   .000     23  1.900

 Optimization of the real space projectors (new method)

 maximal supplied QI-value         = 16.25
 optimisation between [QCUT,QGAM] = [ 11.54, 23.24] = [ 37.28,151.24] Ry
 Optimized for a Real-space Cutoff    1.53 Angstroem

   l    n(q)    QCUT    max X(q) W(low)/X(q) W(high)/X(q)  e(spline)
   2     10    11.539     4.599    0.83E-05    0.15E-04    0.45E-07
   2     10    11.539    18.158    0.10E-03    0.14E-03    0.24E-06
   0     11    11.539    15.740    0.19E-04    0.12E-05    0.17E-07
   0     11    11.539    47.662    0.48E-04    0.15E-04    0.31E-06
   1     10    11.539     5.777    0.11E-04    0.46E-05    0.25E-07
   1     10    11.539     8.007    0.46E-04    0.29E-04    0.11E-06
 Optimization of the real space projectors (new method)

[...]

   l    n(q)    QCUT    max X(q) W(low)/X(q) W(high)/X(q)  e(spline)
   0      8    11.508     6.651    0.19E-04    0.31E-05    0.49E-08
   0      8    11.508    90.285    0.95E-04    0.17E-03    0.51E-07
   1      8    11.508     4.328    0.14E-04    0.32E-04    0.22E-07
   1      8    11.508    54.583    0.16E-03    0.71E-04    0.89E-07
 Optimization of the real space projectors (new method)

 maximal supplied QI-value         = 19.84
 optimisation between [QCUT,QGAM] = [ 11.51, 23.22] = [ 37.09,150.92] Ry
 Optimized for a Real-space Cutoff    1.21 Angstroem

   l    n(q)    QCUT    max X(q) W(low)/X(q) W(high)/X(q)  e(spline)
   0      8    11.508     5.487    0.18E-04    0.22E-05    0.47E-08
   0      8    11.508    85.627    0.96E-04    0.18E-03    0.54E-07
   1      8    11.508     3.530    0.17E-04    0.28E-04    0.21E-07
   1      8    11.508    42.714    0.18E-03    0.63E-04    0.92E-07

 PAW_PBE Co 06Sep2000                   :
  PAW_PBE P 17Jan2003                   :
  PAW_PBE S 17Jan2003                   :

 POSCAR: Co2 P2 S6
  positions in direct lattice
  velocities in cartesian coordinates
 exchange correlation table for  LEXCH =       42
   RHO(1)=    0.500       N(1)  =     2000
   RHO(2)=  100.500       N(2)  =     4000

 ion  position               nearest neighbor table
   1  0.333  0.333  0.500-   6 2.78   5 2.78   7 2.78   8 2.78  10 2.78   9 2.78
   2  0.667  0.667  0.500-   9 2.78   8 2.78  10 2.78   5 2.78   7 2.78   6 2.78
   3  0.000  0.000  0.448-   4 2.43   8 2.63  10 2.63   9 2.63
   4  0.000  0.000  0.552-   3 2.43   5 2.63   7 2.63   6 2.63
   5  0.626  0.000  0.574-   4 2.63   1 2.78   2 2.78
   6  0.000  0.373  0.574-   4 2.63   1 2.78   2 2.78
   7  0.373  0.626  0.574-   4 2.63   1 2.78   2 2.78
   8  0.374  1.000  0.426-   3 2.63   2 2.78   1 2.78
   9  1.000  0.627  0.426-   3 2.63   2 2.78   1 2.78
  10  0.627  0.374  0.426-   3 2.63   2 2.78   1 2.78

  LATTYP: Found a hexagonal cell.
 ALAT       =     6.9077769333
 C/A-ratio  =     3.3939410937

  Lattice vectors:

 A1 = (   3.4538890000,  -5.9823100000,   0.0000000000)
 A2 = (  -6.9077770000,   0.0000000000,   0.0000000000)
 A3 = (   0.0000000000,   0.0000000000, -23.4445880000)

Analysis of symmetry for initial positions (statically):
 Subroutine PRICEL returns:
 Original cell was already a primitive cell.

 Routine SETGRP: Setting up the symmetry group for a
 hexagonal supercell.

 Subroutine GETGRP returns: Found  6 space group operations
 (whereof  6 operations were pure point group operations)
 out of a pool of 24 trial point group operations.

The static configuration has the point symmetry S_6 .

Analysis of symmetry for dynamics (positions and initial velocities):
 Subroutine PRICEL returns:
 Original cell was already a primitive cell.

[...]

The dynamic configuration has the point symmetry S_6 .

Analysis of constrained symmetry for selective dynamics:
 Subroutine PRICEL returns:
 Original cell was already a primitive cell.

[...]

The constrained configuration has the point symmetry S_6 .

Analysis of structural, dynamic, and magnetic symmetry:
 Subroutine PRICEL returns:
 Original cell was already a primitive cell.

 Routine SETGRP: Setting up the symmetry group for a
 hexagonal supercell.

 Subroutine GETGRP returns: Found  6 space group operations
 (whereof  6 operations were pure point group operations)
 out of a pool of 24 trial point group operations.

The magnetic configuration has the point symmetry S_6 .

 Subroutine INISYM returns: Found  6 space group operations
 (whereof  6 operations are pure point group operations),
 and found     1 'primitive' translations

 KPOINTS: Kpoints from vasprun.xml

Automatic generation of k-mesh.
Space group operators:
 irot       det(A)        alpha          n_x          n_y          n_z        tau_x        tau_y        tau_z
    1     1.000000     0.000000     1.000000     0.000000     0.000000     0.000000     0.000000     0.000000
    2    -1.000000     0.000000     1.000000     0.000000     0.000000     0.000000     0.000000     0.000000
    3     1.000000   120.000000     0.000000     0.000000     1.000000     0.000000     0.000000     0.000000
    4    -1.000000   120.000000     0.000000     0.000000     1.000000     0.000000     0.000000     0.000000
    5     1.000000   120.000000     0.000000     0.000000    -1.000000     0.000000     0.000000     0.000000
    6    -1.000000   120.000000     0.000000     0.000000    -1.000000     0.000000     0.000000     0.000000

 Subroutine IBZKPT returns following result:

 Found      5 irreducible k-points:

 Following reciprocal coordinates:
            Coordinates               Weight
  0.000000  0.000000  0.000000      1.000000
  0.200000  0.000000  0.000000      6.000000
  0.400000  0.000000  0.000000      6.000000
  0.400000  0.200000  0.000000      6.000000
 -0.400000  0.200000  0.000000      6.000000

 Following cartesian coordinates:
            Coordinates               Weight
  0.000000  0.000000  0.000000      1.000000
  0.028953 -0.016716  0.000000      6.000000
  0.057906 -0.033432  0.000000      6.000000
  0.057906  0.000000  0.000000      6.000000
 -0.057906  0.066864  0.000000      6.000000

 TETIRR: Found     15 inequivalent tetrahedra from      150

 SYSTEM =  unknown system
 POSCAR =  Co2 P2 S6

 Startparameter for this run:
   NWRITE =      2    write-flag & timer
   PREC   = accura    normal or accurate (medium, high low for compatibility)
   ISTART =      0    job   : 0-new  1-cont  2-samecut
   ICHARG =      2    charge: 1-file 2-atom 10-const
   ISPIN  =      2    spin polarized calculation?
   LNONCOLLINEAR =      F non collinear calculations
   LSORBIT =      F    spin-orbit coupling
   INIWAV =      1    electr: 0-lowe 1-rand  2-diag
   LASPH  =      F    aspherical Exc in radial PAW
   METAGGA=      F    non-selfconsistent MetaGGA calc.

 Electronic Relaxation 1
   ENCUT  =  520.0 eV  38.22 Ry    6.18 a.u.  12.84 12.84 43.59*2*pi/ulx,y,z
   ENINI  =  520.0     initial cutoff
   ENAUG  =  477.8 eV  augmentation charge cutoff
   NELM   =    400;   NELMIN=  2; NELMDL=  0     # of ELM steps
   EDIFF  = 0.1E-03   stopping-criterion for ELM
   LREAL  =      T    real-space projection
   NLSPLINE    = F    spline interpolate recip. space projectors
   LCOMPAT=      F    compatible to vasp.4.4
   GGA_COMPAT  = T    GGA compatible to vasp.4.4-vasp.4.6
   LMAXPAW     = -100 max onsite density
   LMAXMIX     =    2 max onsite mixed and CHGCAR
   VOSKOWN=      0    Vosko Wilk Nusair interpolation
   ROPT   =   -0.00025  -0.00025  -0.00025
 Ionic relaxation
   EDIFFG = 0.1E-02   stopping-criterion for IOM
   NSW    =     99    number of steps for IOM
   NBLOCK =      1;   KBLOCK =     99    inner block; outer block
   IBRION =      2    ionic relax: 0-MD 1-quasi-New 2-CG
   NFREE  =      1    steps in history (QN), initial steepest desc. (CG)
   ISIF   =      3    stress and relaxation
   IWAVPR =     11    prediction:  0-non 1-charg 2-wave 3-comb
   ISYM   =      2    0-nonsym 1-usesym 2-fastsym
   LCORR  =      T    Harris-Foulkes like correction to forces

   POTIM  = 0.5000    time-step for ionic-motion
   TEIN   =    0.0    initial temperature
   TEBEG  =    0.0;   TEEND  =   0.0 temperature during run
   SMASS  =  -3.00    Nose mass-parameter (am)
   estimated Nose-frequenzy (Omega)   =  0.10E-29 period in steps =****** mass=  -0.109E-26a.u.
   SCALEE = 1.0000    scale energy and forces
   NPACO  =    256;   APACO  = 16.0  distance and # of slots for P.C.
   PSTRESS=    0.0 pullay stress

  Mass of Ions in am
   POMASS =  58.93 30.97 32.07
  Ionic Valenz
   ZVAL   =   9.00  5.00  6.00
  Atomic Wigner-Seitz radii
  virtual crystal weights
   VCA    =   1.00  1.00  1.00
   NELECT =      64.0000    total number of electrons
   NUPDOWN=      -1.0000    fix difference up-down

 DOS related values:
   EMIN   =  10.00;   EMAX   =-10.00  energy-range for DOS
   EFERMI =   0.00
   ISMEAR =    -5;   SIGMA  =   0.05  broadening in eV -4-tet -1-fermi 0-gaus

 Electronic relaxation 2 (details)
   IALGO  =     38    algorithm
   LDIAG  =      T    sub-space diagonalisation (order eigenvalues)
   LSUBROT=      F    optimize rotation matrix (better conditioning)
   TURBO    =      0    0=normal 1=particle mesh
   IRESTART =      0    0=no restart 2=restart with 2 vectors
   NREBOOT  =      0    no. of reboots
   NMIN     =      0    reboot dimension
   EREF     =   0.00    reference energy to select bands
   IMIX   =      4    mixing-type and parameters
     AMIX     =   0.40;   BMIX     =  1.00
     AMIX_MAG =   1.60;   BMIX_MAG =  1.00
     AMIN     =   0.01
     WC   =   100.;   INIMIX=   1;  MIXPRE=   1;  MAXMIX= -45

 Intra band minimization:
   WEIMIN = 0.0010     energy-eigenvalue tresh-hold
   EBREAK =  0.52E-06  absolut break condition
   DEPER  =   0.30     relativ break condition

   TIME   =   0.40     timestep for ELM

  volume/ion in A,a.u.               =      96.88       653.80
[...]
  Total     -28.74572   -28.74571   -18.83985     0.00000     0.00000    -0.00000
  in kB     -47.53723   -47.53723   -31.15575     0.00000     0.00000    -0.00000

 VOLUME and BASIS-vectors are now :
  energy-cutoff  :      520.00
  volume of cell :      968.84
      direct lattice vectors                 reciprocal lattice vectors
     6.907777000 -0.000000000  0.000000000     0.144764372 -0.083579742  0.000000000
     3.453888000  5.982310000  0.000000000     0.000000000  0.167159509 -0.000000000
     0.000000000  0.000000000 23.444588000    -0.000000000  0.000000000  0.042653767

[...]

 FORCES acting on ions
    electron-ion (+dipol)            ewald-force                    non-local-force                 convergence-correction
   0.146E-03 0.660E-04 0.107E+01   0.575E-03 0.344E-03 -.106E+01   0.000E+00 -.173E-17 -.152E-01   0.808E-06 0.467E-06 -.841E-03
   -.146E-03 -.660E-04 -.107E+01   -.575E-03 -.344E-03 0.106E+01   -.867E-18 0.173E-17 0.152E-01   -.808E-06 -.467E-06 0.841E-03
   -.240E-04 -.235E-04 0.238E+03   -.176E-03 -.974E-04 -.239E+03   -.104E-16 -.694E-17 0.130E+01   -.389E-07 -.599E-07 0.139E-01
   0.240E-04 0.235E-04 -.238E+03   0.176E-03 0.974E-04 0.239E+03   0.278E-16 0.694E-17 -.130E+01   0.389E-07 0.599E-07 -.139E-01
   -.114E+02 0.147E+00 -.415E+03   0.924E+01 -.144E+00 0.418E+03   0.347E+01 -.757E-02 -.458E+01   0.755E-04 -.136E-03 -.743E-01
   0.585E+01 0.984E+01 -.415E+03   -.475E+01 -.793E+01 0.418E+03   -.174E+01 -.300E+01 -.458E+01   -.156E-03 0.236E-05 -.743E-01
   0.559E+01 -.999E+01 -.415E+03   -.450E+01 0.808E+01 0.418E+03   -.173E+01 0.301E+01 -.458E+01   0.804E-04 0.133E-03 -.743E-01
   0.114E+02 -.147E+00 0.415E+03   -.924E+01 0.144E+00 -.418E+03   -.347E+01 0.757E-02 0.458E+01   -.755E-04 0.136E-03 0.743E-01
   -.585E+01 -.984E+01 0.415E+03   0.475E+01 0.793E+01 -.418E+03   0.174E+01 0.300E+01 0.458E+01   0.156E-03 -.236E-05 0.743E-01
   -.559E+01 0.999E+01 0.415E+03   0.450E+01 -.808E+01 -.418E+03   0.173E+01 -.301E+01 0.458E+01   -.804E-04 -.133E-03 0.743E-01
   0.146E-09 0.177E-09 0.140E-09   0.888E-15 0.355E-14 0.568E-13   0.666E-15 -.444E-15 0.000E+00   -.302E-13 -.227E-13 0.163E-13

 POSITION                                       TOTAL-FORCE (eV/Angst)
      3.45388      1.99410     11.72054         0.000000      0.000000      0.001211
      6.90778      3.98821     11.72405         0.000000      0.000000     -0.001211
      0.00000      0.00000     10.50824         0.000000      0.000000      0.077137
      0.00000      0.00000     12.93635         0.000000      0.000000     -0.077137
      4.32819      0.00251     13.45138         1.267689     -0.003060     -1.720908
      1.29198      2.23274     13.45138        -0.636495     -1.096321     -1.720908
      4.74152      3.74706     13.45138        -0.631195      1.099381     -1.720908
      6.03348      5.97980      9.99321        -1.267689      0.003060      1.720908
      9.06969      3.74957      9.99321         0.636495      1.096321      1.720908
      5.62015      2.23525      9.99321         0.631195     -1.099381      1.720908
    total drift:                                0.000000      0.000000      0.000000

  FREE ENERGIE OF THE ION-ELECTRON SYSTEM (eV)
  free  energy   TOTEN  =       -38.18460540 eV

  energy  without entropy=      -38.18460540  energy(sigma->0) =      -38.18460540

[...]

 d Force = 0.9360184E+00[ 0.692E+00, 0.118E+01]  d Energy = 0.8925419E+01-0.799E+01
 d Force =-0.2224386E+03[-0.257E+03,-0.188E+03]  d Ewald  =-0.2318944E+04 0.210E+04

 Steepest descent step on ions:
 trial-energy change:   -8.925419  1 .order   -7.600798  -11.008035   -4.193562
  (g-gl).g = 0.110E+02      g.g   = 0.110E+02  gl.gl    = 0.000E+00
 g(Force)  = 0.132E+01   g(Stress)= 0.969E+01 ortho     = 0.000E+00
 gamma     =   0.00000
 trial     =   1.00000
 opt step  =   1.25034  (harmonic =   1.61539) maximal distance =0.10380429
 next E    =   -47.655703   (d E  =  -9.47110)

[...]

 d Force =-0.5993043E-02[-0.712E-02,-0.486E-02]  d Energy = 0.2566495E-02-0.856E-02
 d Force = 0.8347488E+01[ 0.831E+01, 0.839E+01]  d Ewald  = 0.8644946E+02-0.781E+02

[...]

 d Force = 0.8515613E-01[-0.575E-01, 0.228E+00]  d Energy = 0.8576410E-01-0.608E-03
 d Force =-0.2465003E+02[-0.234E+02,-0.259E+02]  d Ewald  = 0.9620614E+02-0.121E+03

 Conjugate gradient step on ions:
 trial-energy change:   -0.085764  1 .order   -0.096625   -0.234916    0.041666
  (g-gl).g = 0.234E+00      g.g   = 0.225E+00  gl.gl    = 0.110E+02
 g(Force)  = 0.213E+00   g(Stress)= 0.118E-01 ortho     =-0.872E-02
 gamma     =   0.02124
 trial     =   1.04464
 opt step  =   0.84995  (harmonic =   0.88727) maximal distance =0.05233321
 next E    =   -47.765802   (d E  =  -0.08972)

[...]

 d Force = 0.6444827E-02[ 0.214E-02, 0.107E-01]  d Energy = 0.4125542E-02 0.232E-02
 d Force = 0.4427936E+01[ 0.447E+01, 0.438E+01]  d Ewald  =-0.1806397E+02 0.225E+02

[...]

 d Force = 0.5560404E-02[ 0.557E-02, 0.555E-02]  d Energy = 0.2877341E-01-0.232E-01
 d Force =-0.2740244E+02[-0.271E+02,-0.277E+02]  d Ewald  = 0.3360036E+03-0.363E+03

 Conjugate gradient step on ions:
 trial-energy change:   -0.028773  1 .order   -0.032255   -0.051730   -0.012780
  (g-gl).g = 0.406E-01      g.g   = 0.510E-01  gl.gl    = 0.225E+00
 g(Force)  = 0.752E-02   g(Stress)= 0.435E-01 ortho     = 0.246E-02
 gamma     =   0.18027
 trial     =   1.00570
 opt step  =   1.33568  (harmonic =   1.33568) maximal distance =0.01157967
 next E    =   -47.800327   (d E  =  -0.03435)

[...]

 d Force = 0.1865408E-02[ 0.190E-02, 0.183E-02]  d Energy = 0.9711938E-03 0.894E-03
 d Force =-0.8887588E+01[-0.885E+01,-0.892E+01]  d Ewald  = 0.1080633E+03-0.117E+03

[...]

 d Force = 0.2969799E-02[-0.211E-03, 0.615E-02]  d Energy = 0.4010245E-02-0.104E-02
 d Force =-0.2716804E+02[-0.272E+02,-0.272E+02]  d Ewald  = 0.7564034E+02-0.103E+03

[...]

 d Force =-0.2997176E-03[-0.676E-03, 0.765E-04]  d Energy = 0.6988360E-03-0.999E-03
 d Force = 0.9066081E+01[ 0.907E+01, 0.907E+01]  d Ewald  =-0.2498489E+02 0.341E+02

[...]

 d Force = 0.2176364E-02[ 0.177E-02, 0.258E-02]  d Energy = 0.1700839E-02 0.476E-03
 d Force =-0.1745712E+01[-0.175E+01,-0.174E+01]  d Ewald  =-0.7253492E+01 0.551E+01

 Conjugate gradient step on ions:
 trial-energy change:   -0.001701  1 .order   -0.002301   -0.002589   -0.002013
  (g-gl).g = 0.196E-02      g.g   = 0.252E-02  gl.gl    = 0.145E-01
 g(Force)  = 0.232E-02   g(Stress)= 0.195E-03 ortho     = 0.513E-03
 gamma     =   0.13509
 trial     =   1.00094
 opt step  =   4.00374  (harmonic =   4.50033) maximal distance =0.01706653
 next E    =   -47.806248   (d E  =  -0.00582)

[...]

 d Force = 0.1154584E-02[-0.300E-02, 0.531E-02]  d Energy =-0.2806296E-03 0.144E-02
 d Force =-0.5306364E+01[-0.536E+01,-0.525E+01]  d Ewald  =-0.2185875E+02 0.166E+02

[...]

 d Force = 0.6396932E-03[ 0.109E-03, 0.117E-02]  d Energy = 0.1378113E-02-0.738E-03
 d Force = 0.2082898E+01[ 0.208E+01, 0.209E+01]  d Ewald  = 0.8543632E+01-0.646E+01

[...]

 d Force = 0.1121688E-03[ 0.953E-04, 0.129E-03]  d Energy =-0.1511615E-02 0.162E-02
 d Force =-0.8224345E+00[-0.821E+00,-0.824E+00]  d Ewald  = 0.3069433E+02-0.315E+02

 Steepest descent step on ions:
 trial-energy change:    0.001512  1 .order   -0.000711   -0.004121    0.002700
  (g-gl).g = 0.755E-02      g.g   = 0.768E-02  gl.gl    = 0.252E-02
 g(Force)  = 0.240E-03   g(Stress)= 0.744E-02 ortho     =-0.517E-03
 gamma     =   0.00000
 trial     =   0.53696
 opt step  =   0.32441  (harmonic =   0.32441) maximal distance =0.00073280
 next E    =   -47.804472   (d E  =  -0.00124)

[...]

 eigenvalue-minimisations  :  1120
 total energy-change (2. order) :-0.9264494E-02  (-0.3377004E-02)
 number of electron      64.0000007 magnetization      -0.0000017
 augmentation part        4.4606487 magnetization      -0.0000026

[...]

 Broyden mixing:
  rms(total) = 0.49498E-02    rms(broyden)= 0.49498E-02
  rms(prec ) = 0.55795E-02
  weight for this iteration     100.00

 eigenvalues of (default mixing * dielectric matrix)
  average eigenvalue GAMMA=   0.9952
  0.2557  0.9178  1.8121

[...]

--------------------------------------- Iteration     15(   5)  ---------------------------------------

[...]

 eigenvalue-minimisations  :   864
 total energy-change (2. order) : 0.1458022E-05  (-0.4067025E-05)
 number of electron      64.0000007 magnetization       0.0000009
 augmentation part        4.3187349 magnetization      -0.0000001

 Free energy of the ion-electron system (eV)
  alpha Z        PSCENC =        41.55451626
  Ewald energy   TEWEN  =     10482.30852115
  -Hartree energ DENC   =    -13766.23813280
  -exchange      EXHF   =         0.00000000
  -V(xc)+E(xc)   XCENC  =       112.50486983
  PAW double counting   =      2129.47191000    -2195.74169557
  entropy T*S    EENTRO =         0.00000000
  eigenvalues    EBANDS =      -505.49781669
  atomic energy  EATOM  =      3653.83506056
  Solvation  Ediel_sol  =         0.00000000
  free energy    TOTEN  =       -47.80276726 eV

  energy without entropy =      -47.80276726  energy(sigma->0) =      -47.80276726

 average (electrostatic) potential at core
  the test charge radii are     1.0452  0.9587  0.9698
  (the norm of the test charge is              1.0000)
       1 -48.5729       2 -48.5729       3 -92.7231       4 -92.7231       5 -94.4126
       6 -94.4126       7 -94.4126       8 -94.4126       9 -94.4126      10 -94.4126

 E-fermi :  -1.8373     XC(G=0):  -3.8950     alpha+bet : -3.2451

[...]

 spin component 2

[...]

 k-point     5 :      -0.4000    0.2000    0.0000
  band No.  band energies     occupation
      1     -18.1431      1.00000
      2     -16.7555      1.00000
      3     -16.5986      1.00000
      4     -16.1836      1.00000
      5     -15.7144      1.00000
      6     -15.5945      1.00000
      7     -12.4160      1.00000
      8     -11.2093      1.00000
      9      -8.9550      1.00000
     10      -8.5325      1.00000
     11      -8.3355      1.00000
     12      -7.8935      1.00000
     13      -7.5694      1.00000
     14      -6.7522      1.00000
     15      -6.4788      1.00000
     16      -6.4065      1.00000
     17      -6.1701      1.00000
     18      -6.1632      1.00000
     19      -6.0804      1.00000
     20      -5.6544      1.00000
     21      -5.5397      1.00000
     22      -4.6274      1.00000
     23      -4.6045      1.00000
     24      -4.4869      1.00000
     25      -4.2276      1.00000
     26      -3.7441      1.00000
     27      -3.4150      1.00000
     28      -3.3849      1.00000
     29      -3.0718      1.00000
     30      -2.9618      1.00000
     31      -2.9335      1.00000
     32      -2.1842      1.00000
     33      -1.7147     -0.03728
     34      -1.3851      0.00000
     35      -1.0136      0.00000
     36      -0.9641      0.00000
     37      -0.3722      0.00000
     38       0.4815      0.00000
     39       0.9127      0.00000
     40       1.0217      0.00000
     41       1.1882      0.00000
     42       1.4908      0.00000
     43       3.1645      0.00000
     44       3.2704      0.00000
     45       3.3928      0.00000
     46       3.6015      0.00000
     47       3.6928      0.00000
     48       4.1138      0.00000

[...]

 soft charge-density along one line, spin component           2
         0         1         2         3         4         5         6         7         8         9
 total charge-density along one line

------------------------ aborting loop because EDIFF is reached ----------------------------------------

[...]

  FORCE on cell =-STRESS in cart. coord.  units (eV):
  Direction    XX          YY          ZZ          XY          YZ          ZX
  Alpha Z    41.55452    41.55452    41.55452
  Ewald   12793.47894 12793.47524-15104.64863    -0.00212    -0.00067    -0.00121
  Hartree 13369.67710 13369.67788-12972.90819    -0.00027     0.00006     0.00010
  E(xc)    -257.79683  -257.79686  -258.02127     0.00003     0.00000     0.00001
  Local  -27123.20374-27123.20253 27058.37926     0.00185     0.00040     0.00073
  n-local   478.12827   481.82269   488.60780     1.82098     0.96503     0.85607
  augment   -29.50167   -29.50152   -34.42712     0.00004    -0.00001     0.00009
  Kinetic   731.18113   719.93677   781.04919    -6.13803    -1.89262    -2.55240
  Fock        0.00000     0.00000     0.00000     0.00000     0.00000     0.00000
  Total      -0.25805    -0.25805    -0.41445    -0.00000     0.00000     0.00000
  in kB      -0.68817    -0.68817    -1.10525    -0.00000     0.00000     0.00000

 VOLUME and BASIS-vectors are now :
  energy-cutoff  :      520.00
  volume of cell :      600.79
      direct lattice vectors                 reciprocal lattice vectors
     5.820474748  0.000000156 -0.000000000     0.171807294 -0.099192976 -0.000000000
     2.910236984  5.040678885  0.000000000    -0.000000005  0.198385979  0.000000000
     0.000000000 -0.000000000 20.477347987     0.000000000 -0.000000000  0.048834449

  length of vectors
     5.820474748  5.820474458 20.477347987     0.198385969  0.198385979  0.048834449

 FORCES acting on ions
    electron-ion (+dipol)            ewald-force                    non-local-force                 convergence-correction
   -.213E-03 -.134E-03 0.269E+00   0.863E-03 0.507E-03 -.271E+00   -.737E-17 -.136E-20 0.448E-02   0.191E-06 0.104E-06 -.127E-03
   0.213E-03 0.134E-03 -.269E+00   -.863E-03 -.507E-03 0.271E+00   -.434E-18 0.136E-20 -.448E-02   -.191E-06 -.104E-06 0.127E-03
   -.541E-04 -.996E-05 0.365E+03   -.288E-03 -.162E-03 -.365E+03   -.346E-16 -.224E-18 0.738E+00   0.141E-08 -.401E-08 0.597E-02
   0.541E-04 0.996E-05 -.365E+03   0.288E-03 0.162E-03 0.365E+03   -.279E-16 0.224E-18 -.738E+00   -.141E-08 0.401E-08 -.597E-02
   -.112E+02 0.753E-02 -.579E+03   0.825E+01 -.671E-02 0.583E+03   0.293E+01 -.275E-02 -.404E+01   -.135E-01 -.596E-04 -.147E-01
   0.560E+01 0.968E+01 -.579E+03   -.413E+01 -.714E+01 0.583E+03   -.147E+01 -.254E+01 -.404E+01   0.670E-02 0.117E-01 -.147E-01
   0.558E+01 -.969E+01 -.579E+03   -.412E+01 0.715E+01 0.583E+03   -.146E+01 0.254E+01 -.404E+01   0.681E-02 -.117E-01 -.147E-01
   0.112E+02 -.753E-02 0.579E+03   -.825E+01 0.671E-02 -.583E+03   -.293E+01 0.275E-02 0.404E+01   0.135E-01 0.596E-04 0.147E-01
   -.560E+01 -.968E+01 0.579E+03   0.413E+01 0.714E+01 -.583E+03   0.147E+01 0.254E+01 0.404E+01   -.670E-02 -.117E-01 0.147E-01
   -.558E+01 0.969E+01 0.579E+03   0.412E+01 -.715E+01 -.583E+03   0.146E+01 -.254E+01 0.404E+01   -.681E-02 0.117E-01 0.147E-01
   0.292E-10 0.789E-10 0.608E-10   -.151E-13 -.355E-14 0.000E+00   0.444E-15 0.000E+00 -.888E-15   -.734E-13 0.115E-12 0.133E-10

 POSITION                                       TOTAL-FORCE (eV/Angst)
      2.91023      1.68022     10.23834        -0.000000     -0.000000      0.001445
      5.82048      3.36045     10.23901        -0.000000      0.000000     -0.001445
      0.00000     -0.00000      9.11487        -0.000000     -0.000000      0.042063
      0.00000     -0.00000     11.36247        -0.000000      0.000000     -0.042063
      3.70602      0.00030     11.62287        -0.005238     -0.001167     -0.028249
      1.05749      1.83103     11.62287         0.001608      0.005120     -0.028249
      3.96721      3.20936     11.62287         0.003630     -0.003953     -0.028249
      5.02469      5.04038      8.85448         0.005238      0.001167      0.028249
      7.67322      3.20965      8.85448        -0.001608     -0.005120      0.028249
      4.76350      1.83132      8.85448        -0.003630      0.003953      0.028249
    total drift:                                0.000000      0.000000      0.000000

  FREE ENERGIE OF THE ION-ELECTRON SYSTEM (eV)
  free  energy   TOTEN  =       -47.80276726 eV

  energy  without entropy=      -47.80276726  energy(sigma->0) =      -47.80276726

 d Force =-0.3989927E-04[-0.421E-04,-0.377E-04]  d Energy = 0.1051925E-02-0.109E-02
 d Force = 0.3244875E+00[ 0.325E+00, 0.324E+00]  d Ewald  =-0.1213094E+02 0.125E+02

 reached required accuracy - stopping structural energy minimisation

 total charge

[...]

 magnetization (x)

# of ion       s       p       d       tot
    1        0.000   0.000   0.000   0.000
    2        0.000   0.000   0.000   0.000
    3       -0.000  -0.000   0.000  -0.000
    4       -0.000  -0.000   0.000  -0.000
    5        0.000   0.000   0.000   0.000
    6        0.000   0.000   0.000   0.000
    7        0.000   0.000   0.000   0.000
    8        0.000   0.000   0.000   0.000
    9        0.000   0.000   0.000   0.000
   10        0.000   0.000   0.000   0.000
tot          0.000   0.000   0.000   0.000

 BZINTS: Fermi energy: -1.837302; 64.000000 electrons
         Band energy:-505.497817;  BLOECHL correction: -0.022641