 vasp.5.4.4.18Apr17-6-g9f103f2a35 (build May  1 2020 15:48:39) complex
 executed on             LinuxGNU date 2020.06.21  10:18:40

 INCAR:
 POTCAR:   PAW_PBE Cr 06Sep2000
 POTCAR:    PAW_PBE P 17Jan2003
 POTCAR:   PAW_PBE Ge 05Jan2001
 POTCAR:    PAW_PBE S 17Jan2003

 POTCAR:   PAW_PBE Cr 06Sep2000
   VRHFIN =Cr : d5 s1

   TITEL  = PAW_PBE Cr 06Sep2000
   POMASS =   51.996; ZVAL   =    6.000    mass and valenz
   ENMAX  =  227.082; ENMIN  =  170.311 eV
   QCUT   =   -4.085; QGAM   =    8.171    optimization parameters

   Description
     l     E      TYP  RCUT    TYP  RCUT
     2   .000     23  2.500
     2   .000     23  2.500
     0   .000     23  2.500
     0   .000     23  2.500
     1  -.400     23  2.500
     1  2.000     23  2.500
     3   .000      7   .000

 POTCAR:    PAW_PBE P 17Jan2003
   VRHFIN =P : s2p3

   TITEL  = PAW_PBE P 17Jan2003
   POMASS =   30.974; ZVAL   =    5.000    mass and valenz
   ENMAX  =  270.000; ENMIN  =  191.280 eV
   QCUT   =   -4.330; QGAM   =    8.659    optimization parameters

[...]

 POTCAR:   PAW_PBE Ge 05Jan2001
   VRHFIN =Ge: s2p2

[...]

 POTCAR:    PAW_PBE S 17Jan2003
   VRHFIN =S : s2p4

   TITEL  = PAW_PBE S 17Jan2003
   POMASS =   32.066; ZVAL   =    6.000    mass and valenz
   ENMAX  =  280.000; ENMIN  =  194.016 eV
   QCUT   =   -4.360; QGAM   =    8.721    optimization parameters

   Description
     l     E      TYP  RCUT    TYP  RCUT
     0   .000     23  1.900
     0   .000     23  1.900
     1   .000     23  1.900
     1   .000     23  1.900
     2   .000     23  1.900

 Optimization of the real space projectors (new method)

 maximal supplied QI-value         = 15.12
 optimisation between [QCUT,QGAM] = [ 11.64, 23.28] = [ 37.95,151.78] Ry
 Optimized for a Real-space Cutoff    1.49 Angstroem

   l    n(q)    QCUT    max X(q) W(low)/X(q) W(high)/X(q)  e(spline)
   2      9    11.641     4.777    0.25E-04    0.21E-05    0.63E-07
   2      9    11.641    31.132    0.13E-03    0.22E-03    0.64E-06
   0     10    11.641    20.416    0.11E-04    0.74E-05    0.19E-07
   0     10    11.641    45.408    0.10E-03    0.85E-04    0.30E-06
   1     10    11.641     7.848    0.22E-04    0.23E-04    0.56E-07
   1     10    11.641     9.895    0.85E-04    0.54E-04    0.16E-06
 Optimization of the real space projectors (new method)

[...]

   l    n(q)    QCUT    max X(q) W(low)/X(q) W(high)/X(q)  e(spline)
   0      9    11.539     8.651    0.22E-04    0.16E-04    0.10E-07
   0      9    11.539    33.192    0.11E-03    0.16E-03    0.65E-07
   1      8    11.539     5.899    0.37E-04    0.28E-04    0.43E-07
   1      8    11.539    27.289    0.22E-03    0.28E-04    0.14E-06
   2      8    11.539     4.673    0.11E-03    0.18E-03    0.58E-07
 Optimization of the real space projectors (new method)

 maximal supplied QI-value         = 19.84
 optimisation between [QCUT,QGAM] = [ 11.51, 23.22] = [ 37.09,150.92] Ry
 Optimized for a Real-space Cutoff    1.21 Angstroem

   l    n(q)    QCUT    max X(q) W(low)/X(q) W(high)/X(q)  e(spline)
   0      8    11.508     5.487    0.18E-04    0.22E-05    0.47E-08
   0      8    11.508    85.627    0.96E-04    0.18E-03    0.54E-07
   1      8    11.508     3.530    0.17E-04    0.28E-04    0.21E-07
   1      8    11.508    42.714    0.18E-03    0.63E-04    0.92E-07

 PAW_PBE Cr 06Sep2000                   :
  PAW_PBE P 17Jan2003                   :
 PAW_PBE Ge 05Jan2001                   :
  PAW_PBE S 17Jan2003                   :

 POSCAR: Cr2 P Ge S6
  positions in direct lattice
  velocities in cartesian coordinates
 exchange correlation table for  LEXCH =       42
   RHO(1)=    0.500       N(1)  =     2000
   RHO(2)=  100.500       N(2)  =     4000

 ion  position               nearest neighbor table
   1  0.333  0.333  0.500-   6 2.78   5 2.78   7 2.78   8 2.78  10 2.78   9 2.78
   2  0.667  0.667  0.500-   9 2.78   8 2.78  10 2.78   5 2.78   7 2.78   6 2.78
   3  0.000  0.000  0.448-   4 2.43   8 2.63  10 2.63   9 2.63
   4  0.000  0.000  0.552-   3 2.43   5 2.63   7 2.63   6 2.63
   5  0.626  0.000  0.574-   4 2.63   1 2.78   2 2.78
   6  0.000  0.373  0.574-   4 2.63   1 2.78   2 2.78
   7  0.373  0.626  0.574-   4 2.63   1 2.78   2 2.78
   8  0.374  1.000  0.426-   3 2.63   2 2.78   1 2.78
   9  1.000  0.627  0.426-   3 2.63   2 2.78   1 2.78
  10  0.627  0.374  0.426-   3 2.63   2 2.78   1 2.78

  LATTYP: Found a hexagonal cell.
 ALAT       =     6.9077769333
 C/A-ratio  =     3.3939410937

  Lattice vectors:

 A1 = (   3.4538890000,  -5.9823100000,   0.0000000000)
 A2 = (  -6.9077770000,   0.0000000000,   0.0000000000)
 A3 = (   0.0000000000,   0.0000000000, -23.4445880000)

Analysis of symmetry for initial positions (statically):
 Subroutine PRICEL returns:
 Original cell was already a primitive cell.

 Routine SETGRP: Setting up the symmetry group for a
 hexagonal supercell.

 Subroutine GETGRP returns: Found  3 space group operations
 (whereof  3 operations were pure point group operations)
 out of a pool of 24 trial point group operations.

The static configuration has the point symmetry C_3 .

Analysis of symmetry for dynamics (positions and initial velocities):
 Subroutine PRICEL returns:
 Original cell was already a primitive cell.

[...]

The dynamic configuration has the point symmetry C_3 .

Analysis of constrained symmetry for selective dynamics:
 Subroutine PRICEL returns:
 Original cell was already a primitive cell.

[...]

The constrained configuration has the point symmetry C_3 .

Analysis of structural, dynamic, and magnetic symmetry:
 Subroutine PRICEL returns:
 Original cell was already a primitive cell.

 Routine SETGRP: Setting up the symmetry group for a
 hexagonal supercell.

 Subroutine GETGRP returns: Found  3 space group operations
 (whereof  3 operations were pure point group operations)
 out of a pool of 24 trial point group operations.

The magnetic configuration has the point symmetry C_3 .

 Subroutine INISYM returns: Found  3 space group operations
 (whereof  3 operations are pure point group operations),
 and found     1 'primitive' translations

 KPOINTS: Kpoints from vasprun.xml

Automatic generation of k-mesh.
Space group operators:
 irot       det(A)        alpha          n_x          n_y          n_z        tau_x        tau_y        tau_z
    1     1.000000     0.000000     1.000000     0.000000     0.000000     0.000000     0.000000     0.000000
    2     1.000000   120.000000     0.000000     0.000000     1.000000     0.000000     0.000000     0.000000
    3     1.000000   120.000000     0.000000     0.000000    -1.000000     0.000000     0.000000     0.000000

 Subroutine IBZKPT returns following result:

 Found      5 irreducible k-points:

 Following reciprocal coordinates:
            Coordinates               Weight
  0.000000  0.000000  0.000000      1.000000
  0.200000  0.000000  0.000000      6.000000
  0.400000  0.000000  0.000000      6.000000
  0.400000  0.200000  0.000000      6.000000
 -0.400000  0.200000  0.000000      6.000000

 Following cartesian coordinates:
            Coordinates               Weight
  0.000000  0.000000  0.000000      1.000000
  0.028953 -0.016716  0.000000      6.000000
  0.057906 -0.033432  0.000000      6.000000
  0.057906  0.000000  0.000000      6.000000
 -0.057906  0.066864  0.000000      6.000000

 TETIRR: Found     15 inequivalent tetrahedra from      150

 SYSTEM =  unknown system
 POSCAR =  Cr2 P Ge S6

 Startparameter for this run:
   NWRITE =      2    write-flag & timer
   PREC   = accura    normal or accurate (medium, high low for compatibility)
   ISTART =      0    job   : 0-new  1-cont  2-samecut
   ICHARG =      2    charge: 1-file 2-atom 10-const
   ISPIN  =      2    spin polarized calculation?
   LNONCOLLINEAR =      F non collinear calculations
   LSORBIT =      F    spin-orbit coupling
   INIWAV =      1    electr: 0-lowe 1-rand  2-diag
   LASPH  =      F    aspherical Exc in radial PAW
   METAGGA=      F    non-selfconsistent MetaGGA calc.

 Electronic Relaxation 1
   ENCUT  =  520.0 eV  38.22 Ry    6.18 a.u.  12.84 12.84 43.59*2*pi/ulx,y,z
   ENINI  =  520.0     initial cutoff
   ENAUG  =  402.1 eV  augmentation charge cutoff
   NELM   =    400;   NELMIN=  2; NELMDL=  0     # of ELM steps
   EDIFF  = 0.1E-03   stopping-criterion for ELM
   LREAL  =      T    real-space projection
   NLSPLINE    = F    spline interpolate recip. space projectors
   LCOMPAT=      F    compatible to vasp.4.4
   GGA_COMPAT  = T    GGA compatible to vasp.4.4-vasp.4.6
   LMAXPAW     = -100 max onsite density
   LMAXMIX     =    2 max onsite mixed and CHGCAR
   VOSKOWN=      0    Vosko Wilk Nusair interpolation
   ROPT   =   -0.00025  -0.00025  -0.00025  -0.00025
 Ionic relaxation
   EDIFFG = 0.1E-02   stopping-criterion for IOM
   NSW    =     99    number of steps for IOM
   NBLOCK =      1;   KBLOCK =     99    inner block; outer block
   IBRION =      2    ionic relax: 0-MD 1-quasi-New 2-CG
   NFREE  =      1    steps in history (QN), initial steepest desc. (CG)
   ISIF   =      3    stress and relaxation
   IWAVPR =     11    prediction:  0-non 1-charg 2-wave 3-comb
   ISYM   =      2    0-nonsym 1-usesym 2-fastsym
   LCORR  =      T    Harris-Foulkes like correction to forces

   POTIM  = 0.5000    time-step for ionic-motion
   TEIN   =    0.0    initial temperature
   TEBEG  =    0.0;   TEEND  =   0.0 temperature during run
   SMASS  =  -3.00    Nose mass-parameter (am)
   estimated Nose-frequenzy (Omega)   =  0.10E-29 period in steps =****** mass=  -0.109E-26a.u.
   SCALEE = 1.0000    scale energy and forces
   NPACO  =    256;   APACO  = 16.0  distance and # of slots for P.C.
   PSTRESS=    0.0 pullay stress

  Mass of Ions in am
   POMASS =  52.00 30.97 72.61 32.07
  Ionic Valenz
   ZVAL   =   6.00  5.00  4.00  6.00
  Atomic Wigner-Seitz radii
  virtual crystal weights
   VCA    =   1.00  1.00  1.00  1.00
   NELECT =      57.0000    total number of electrons
   NUPDOWN=      -1.0000    fix difference up-down

 DOS related values:
   EMIN   =  10.00;   EMAX   =-10.00  energy-range for DOS
   EFERMI =   0.00
   ISMEAR =    -5;   SIGMA  =   0.05  broadening in eV -4-tet -1-fermi 0-gaus

 Electronic relaxation 2 (details)
   IALGO  =     38    algorithm
   LDIAG  =      T    sub-space diagonalisation (order eigenvalues)
   LSUBROT=      F    optimize rotation matrix (better conditioning)
   TURBO    =      0    0=normal 1=particle mesh
   IRESTART =      0    0=no restart 2=restart with 2 vectors
   NREBOOT  =      0    no. of reboots
   NMIN     =      0    reboot dimension
   EREF     =   0.00    reference energy to select bands
   IMIX   =      4    mixing-type and parameters
     AMIX     =   0.40;   BMIX     =  1.00
     AMIX_MAG =   1.60;   BMIX_MAG =  1.00
     AMIN     =   0.01
     WC   =   100.;   INIMIX=   1;  MIXPRE=   1;  MAXMIX= -45

 Intra band minimization:
   WEIMIN = 0.0010     energy-eigenvalue tresh-hold
   EBREAK =  0.52E-06  absolut break condition
   DEPER  =   0.30     relativ break condition

   TIME   =   0.40     timestep for ELM

  volume/ion in A,a.u.               =      96.88       653.80
  Fermi-wavevector in a.u.,A,eV,Ry     =   0.636722  1.203230  5.516004  0.405415
[...]
  Alpha Z    20.97303    20.97303    20.97303
  Ewald    7704.79684  7704.79469 -9187.98168    -0.00106    -0.00039    -0.00072
  Hartree  8170.06181  8170.06214 -7919.10544    -0.00006     0.00004     0.00006
  E(xc)    -207.52144  -207.52147  -206.97269     0.00003     0.00000     0.00001
  Local  -16757.93666-16757.93579 16191.53916     0.00087     0.00024     0.00045
  n-local   476.02581   478.00545   488.63088     0.78239     0.23743     0.13392
  augment   -53.53967   -53.53953   -57.22834    -0.00006    -0.00005     0.00005
  Kinetic   619.94942   618.92616   653.24594    -1.24211     0.31717     0.10504
  Fock        0.00000     0.00000     0.00000     0.00000     0.00000     0.00000
  Total     -26.71309   -26.71308   -16.89912     0.00000     0.00000     0.00000
  in kB     -44.17584   -44.17583   -27.94633     0.00000     0.00000     0.00000

 VOLUME and BASIS-vectors are now :
  energy-cutoff  :      520.00
  volume of cell :      968.84
      direct lattice vectors                 reciprocal lattice vectors
     6.907777000 -0.000000000  0.000000000     0.144764372 -0.083579742  0.000000000
     3.453888000  5.982310000  0.000000000     0.000000000  0.167159509 -0.000000000
     0.000000000  0.000000000 23.444588000    -0.000000000  0.000000000  0.042653767

[...]

 FORCES acting on ions
    electron-ion (+dipol)            ewald-force                    non-local-force                 convergence-correction
   -.755E-04 -.462E-04 -.457E+01   0.314E-03 0.187E-03 0.471E+01   -.173E-17 0.000E+00 -.402E-01   0.120E-05 0.690E-06 0.957E-02
   0.661E-04 0.604E-04 -.589E+01   -.314E-03 -.187E-03 0.600E+01   0.173E-17 0.000E+00 -.263E-01   -.121E-05 -.697E-06 0.981E-02
   -.311E-04 -.131E-04 0.198E+03   -.176E-03 -.973E-04 -.197E+03   0.000E+00 0.694E-17 -.121E+01   -.373E-06 -.198E-06 0.160E-01
   0.159E-04 0.118E-04 -.171E+03   0.141E-03 0.779E-04 0.170E+03   -.347E-17 0.000E+00 0.147E+01   0.250E-06 0.129E-06 -.354E-03
   -.565E+01 0.158E+00 -.348E+03   0.308E+01 -.150E+00 0.352E+03   0.342E+01 -.122E-01 -.542E+01   0.251E-03 -.139E-02 -.371E-02
   0.296E+01 0.481E+01 -.348E+03   -.167E+01 -.259E+01 0.352E+03   -.172E+01 -.295E+01 -.542E+01   -.133E-02 0.479E-03 -.371E-02
   0.268E+01 -.497E+01 -.348E+03   -.141E+01 0.274E+01 0.352E+03   -.170E+01 0.297E+01 -.542E+01   0.108E-02 0.915E-03 -.372E-02
   -.140E+01 -.149E+00 0.342E+03   0.353E+01 0.143E+00 -.346E+03   -.308E+01 0.116E-01 0.551E+01   0.106E-03 -.130E-02 0.217E-01
   0.574E+00 0.129E+01 0.342E+03   -.164E+01 -.313E+01 -.346E+03   0.155E+01 0.266E+01 0.551E+01   -.118E-02 0.557E-03 0.217E-01
   0.834E+00 -.114E+01 0.342E+03   -.189E+01 0.298E+01 -.346E+03   0.153E+01 -.267E+01 0.551E+01   0.107E-02 0.740E-03 0.217E-01
   -.346E-04 0.238E-05 -.540E+00   0.844E-14 0.711E-14 -.568E-13   0.666E-15 0.444E-15 0.450E+00   -.143E-06 -.808E-07 0.890E-01

 POSITION                                       TOTAL-FORCE (eV/Angst)
      3.45388      1.99410     11.72054        -0.000000     -0.000000      0.110382
      6.90778      3.98821     11.72405        -0.000000     -0.000000      0.092106
      0.00000      0.00000     10.50824        -0.000000     -0.000000     -0.774193
      0.00000      0.00000     12.93635        -0.000000     -0.000000      0.363927
      4.32819      0.00251     13.45138         0.854551     -0.004696     -1.713958
      1.29198      2.23274     13.45138        -0.431342     -0.737715     -1.713958
      4.74152      3.74706     13.45138        -0.423209      0.742411     -1.713958
      6.03348      5.97980      9.99321        -0.953415      0.003408      1.783217
      9.06969      3.74957      9.99321         0.479659      0.823978      1.783217
      5.62015      2.23525      9.99321         0.473757     -0.827386      1.783217
    total drift:                               -0.000035      0.000002     -0.000484

  FREE ENERGIE OF THE ION-ELECTRON SYSTEM (eV)
  free  energy   TOTEN  =       -47.78909298 eV

  energy  without entropy=      -47.78909298  energy(sigma->0) =      -47.78909298

[...]

 d Force = 0.5876410E+00[ 0.129E+00, 0.105E+01]  d Energy = 0.6227442E+01-0.564E+01
 d Force =-0.1812221E+03[-0.207E+03,-0.156E+03]  d Ewald  =-0.1700044E+04 0.152E+04

 Steepest descent step on ions:
 trial-energy change:   -6.227442  1 .order   -4.937211   -9.414341   -0.460082
  (g-gl).g = 0.941E+01      g.g   = 0.941E+01  gl.gl    = 0.000E+00
 g(Force)  = 0.115E+01   g(Stress)= 0.826E+01 ortho     = 0.000E+00
 gamma     =   0.00000
 trial     =   1.00000
 opt step  =   1.02721  (harmonic =   1.05138) maximal distance =0.08836825
 next E    =   -54.022821   (d E  =  -6.23373)

[...]

 d Force = 0.3040180E-02[ 0.223E-02, 0.385E-02]  d Energy = 0.6743022E-02-0.370E-02
 d Force =-0.6143790E+01[-0.617E+01,-0.612E+01]  d Ewald  =-0.5660253E+02 0.505E+02

[...]

 d Force = 0.6219235E-01[ 0.830E-02, 0.116E+00]  d Energy = 0.6274536E-01-0.553E-03
 d Force = 0.8179032E+01[ 0.843E+01, 0.792E+01]  d Ewald  =-0.9412410E+02 0.102E+03

 Conjugate gradient step on ions:
 trial-energy change:   -0.062745  1 .order   -0.063421   -0.123069   -0.003772
  (g-gl).g = 0.130E+00      g.g   = 0.123E+00  gl.gl    = 0.941E+01
 g(Force)  = 0.114E+00   g(Stress)= 0.852E-02 ortho     =-0.707E-02
 gamma     =   0.01376
 trial     =   1.00544
 opt step  =   1.03839  (harmonic =   1.03724) maximal distance =0.01792496
 next E    =   -54.086085   (d E  =  -0.06281)

[...]

 d Force = 0.2190907E-03[ 0.164E-03, 0.274E-03]  d Energy = 0.9861253E-04 0.120E-03
 d Force = 0.2750379E+00[ 0.275E+00, 0.275E+00]  d Ewald  =-0.3088547E+01 0.336E+01

[...]

 d Force = 0.6049529E-02[ 0.336E-02, 0.874E-02]  d Energy = 0.8470943E-02-0.242E-02
 d Force =-0.2294766E+01[-0.230E+01,-0.228E+01]  d Ewald  = 0.7042289E+02-0.727E+02

 Conjugate gradient step on ions:
 trial-energy change:   -0.008471  1 .order   -0.008047   -0.012625   -0.003469
  (g-gl).g = 0.109E-01      g.g   = 0.125E-01  gl.gl    = 0.123E+00
 g(Force)  = 0.818E-02   g(Stress)= 0.430E-02 ortho     =-0.401E-04
 gamma     =   0.08861
 trial     =   1.01203
 opt step  =   1.29500  (harmonic =   1.39553) maximal distance =0.01134747
 next E    =   -54.095087   (d E  =  -0.00897)

[...]

 d Force = 0.1164703E-02[ 0.674E-03, 0.166E-02]  d Energy = 0.1314134E-02-0.149E-03
 d Force =-0.4300787E+01[-0.431E+01,-0.429E+01]  d Ewald  = 0.8380811E+01-0.127E+02

 Conjugate gradient step on ions:
 trial-energy change:   -0.001314  1 .order   -0.002068   -0.003590   -0.000547
  (g-gl).g = 0.176E-02      g.g   = 0.317E-02  gl.gl    = 0.125E-01
 g(Force)  = 0.130E-02   g(Stress)= 0.187E-02 ortho     = 0.134E-02
 gamma     =   0.14108
 trial     =   1.06863
 opt step  =   1.26052  (harmonic =   1.26052) maximal distance =0.00534045
 next E    =   -54.097404   (d E  =  -0.00212)

[...]

 d Force = 0.9393973E-04[ 0.668E-04, 0.121E-03]  d Energy =-0.5404913E-04 0.148E-03
 d Force =-0.7753578E+00[-0.776E+00,-0.775E+00]  d Ewald  = 0.1510656E+01-0.229E+01

[...]

 eigenvalues of (default mixing * dielectric matrix)
  average eigenvalue GAMMA=   0.8645
  1.6048  0.6365  0.3523

[...]

 eigenvalue-minimisations  :   976
 total energy-change (2. order) : 0.5139214E-05  (-0.3667045E-04)
 number of electron      56.9999998 magnetization       5.2854553
 augmentation part       -0.9371515 magnetization       3.8039326

[...]

 d Force = 0.9805743E-03[ 0.100E-02, 0.960E-03]  d Energy = 0.4851171E-03 0.495E-03
 d Force = 0.5965847E+01[ 0.597E+01, 0.596E+01]  d Ewald  = 0.1393719E+01 0.457E+01

 Conjugate gradient step on ions:
 trial-energy change:   -0.000485  1 .order   -0.000767   -0.001423   -0.000110
  (g-gl).g = 0.160E-03      g.g   = 0.123E-02  gl.gl    = 0.317E-02
 g(Force)  = 0.850E-03   g(Stress)= 0.379E-03 ortho     = 0.110E-02
 gamma     =   0.05050
 trial     =   1.10700
 opt step  =   1.19993  (harmonic =   1.19993) maximal distance =0.00262648
 next E    =   -54.097318   (d E  =  -0.00077)

[...]

 Broyden mixing:
  rms(total) = 0.22207E-02    rms(broyden)= 0.22206E-02
  rms(prec ) = 0.29920E-02
  weight for this iteration     100.00

[...]

--------------------------------------- Iteration     11(   2)  ---------------------------------------

[...]

 eigenvalue-minimisations  :   768
 total energy-change (2. order) :-0.9267182E-04  (-0.9238930E-05)
 number of electron      56.9999998 magnetization       5.2859360
 augmentation part       -0.9384834 magnetization       3.8040216

 Free energy of the ion-electron system (eV)
  alpha Z        PSCENC =        30.51902766
  Ewald energy   TEWEN  =      7974.06841178
  -Hartree energ DENC   =    -10215.00834964
  -exchange      EXHF   =         0.00000000
  -V(xc)+E(xc)   XCENC  =        32.16347310
  PAW double counting   =      1261.73494216    -1176.76784633
  entropy T*S    EENTRO =         0.00000000
  eigenvalues    EBANDS =      -466.58522247
  atomic energy  EATOM  =      2505.77835381
  Solvation  Ediel_sol  =         0.00000000
  free energy    TOTEN  =       -54.09720993 eV

  energy without entropy =      -54.09720993  energy(sigma->0) =      -54.09720993

 average (electrostatic) potential at core
  the test charge radii are     1.1394  0.9587  1.1631  0.9698
  (the norm of the test charge is              1.0000)
       1 -51.2026       2 -51.2013       3 -92.7205       4 -39.8810       5 -94.0821
       6 -94.0821       7 -94.0820       8 -94.3598       9 -94.3598      10 -94.3598

 E-fermi :  -1.8826     XC(G=0):  -3.3579     alpha+bet : -3.0566

[...]

 spin component 2

[...]

 k-point     5 :      -0.4000    0.2000    0.0000
  band No.  band energies     occupation
      1     -17.4423      1.00000
      2     -16.1935      1.00000
      3     -15.9875      1.00000
      4     -15.8668      1.00000
      5     -15.4892      1.00000
      6     -15.3209      1.00000
      7     -12.1490      1.00000
      8     -10.4380      1.00000
      9      -8.4008      1.00000
     10      -7.9606      1.00000
     11      -7.6290      1.00000
     12      -7.1712      1.00000
     13      -6.9024      1.00000
     14      -6.3817      1.00000
     15      -6.1196      1.00000
     16      -6.0802      1.00000
     17      -5.8829      1.00000
     18      -5.5189      1.00000
     19      -5.4953      1.00000
     20      -5.2618      1.00000
     21      -5.1210      1.00000
     22      -4.5321      1.00000
     23      -4.3563      1.00000
     24      -4.3186      1.00000
     25      -4.0353      1.00000
     26      -2.8083      1.00000
     27      -1.6521      0.00000
     28      -1.5459      0.00000
     29      -1.3906      0.00000
     30      -0.7913      0.00000
     31      -0.6606      0.00000
     32      -0.6057      0.00000
     33      -0.3731      0.00000
     34      -0.3019      0.00000
     35       0.2145      0.00000
     36       0.2517      0.00000
     37       0.5880      0.00000
     38       0.7061      0.00000
     39       1.0954      0.00000
     40       1.7983      0.00000
     41       2.0192      0.00000
     42       2.0498      0.00000
     43       3.2031      0.00000
     44       3.4106      0.00000
     45       3.5666      0.00000
     46       3.6372      0.00000
     47       3.8473      0.00000
     48       4.2964      0.00000

[...]

 soft charge-density along one line, spin component           2
         0         1         2         3         4         5         6         7         8         9
 total charge-density along one line

------------------------ aborting loop because EDIFF is reached ----------------------------------------

[...]

  FORCE on cell =-STRESS in cart. coord.  units (eV):
  Direction    XX          YY          ZZ          XY          YZ          ZX
  Alpha Z    30.51903    30.51903    30.51903
  Ewald    9695.32487  9695.32212-11416.58070    -0.00122    -0.00045    -0.00081
  Hartree 10035.95934 10035.95966 -9859.06193    -0.00005     0.00003     0.00006
  E(xc)    -215.23721  -215.23720  -215.00300     0.00000     0.00000     0.00001
  Local  -20635.34909-20635.34813 20323.82292     0.00082     0.00023     0.00043
  n-local   491.57159   493.37967   500.75124     0.85660     0.70658     0.69383
  augment   -53.43435   -53.43430   -58.12854     0.00001     0.00002     0.00002
  Kinetic   653.57127   646.53494   693.98804    -4.21611    -0.22619    -0.53854
  Fock        0.00000     0.00000     0.00000     0.00000     0.00000     0.00000
  Total       0.31063     0.31063     0.30705     0.00000     0.00000    -0.00000
  in kB       0.74750     0.74750     0.73888     0.00000     0.00000    -0.00000

 VOLUME and BASIS-vectors are now :
  energy-cutoff  :      520.00
  volume of cell :      665.79
      direct lattice vectors                 reciprocal lattice vectors
     5.987041686  0.000000030 -0.000000000     0.167027399 -0.096433307  0.000000000
     2.993520517  5.184929989 -0.000000000    -0.000000001  0.192866636 -0.000000000
    -0.000000000  0.000000000 21.447922677     0.000000000  0.000000000  0.046624562

  length of vectors
     5.987041686  5.987041346 21.447922677     0.192866625  0.192866636  0.046624562

 FORCES acting on ions
    electron-ion (+dipol)            ewald-force                    non-local-force                 convergence-correction
   -.163E-03 -.837E-04 -.358E+01   0.411E-03 0.242E-03 0.415E+01   0.610E-19 -.482E-19 -.481E+00   0.143E-06 0.847E-07 -.159E-01
   0.130E-03 0.104E-03 -.460E+01   -.430E-03 -.252E-03 0.517E+01   -.688E-17 -.503E-19 -.502E+00   0.701E-07 0.294E-07 -.163E-01
   -.350E-04 -.316E-04 0.287E+03   -.274E-03 -.153E-03 -.285E+03   -.622E-16 -.210E-16 -.221E+01   -.258E-06 -.155E-06 0.806E-02
   0.426E-04 -.192E-05 -.231E+03   0.199E-03 0.111E-03 0.229E+03   0.666E-17 0.106E-16 0.222E+01   -.975E-07 -.622E-07 -.261E-01
   -.674E+01 -.873E-02 -.470E+03   0.273E+01 0.213E-01 0.473E+03   0.398E+01 -.738E-02 -.368E+01   0.984E-02 -.589E-02 -.368E-01
   0.336E+01 0.584E+01 -.470E+03   -.135E+01 -.238E+01 0.473E+03   -.200E+01 -.345E+01 -.368E+01   -.100E-01 -.558E-02 -.368E-01
   0.337E+01 -.583E+01 -.470E+03   -.138E+01 0.235E+01 0.473E+03   -.198E+01 0.345E+01 -.368E+01   0.179E-03 0.115E-01 -.368E-01
   -.115E+02 0.337E-01 0.454E+03   0.160E+02 -.323E-01 -.458E+03   -.451E+01 0.717E-02 0.369E+01   -.131E-01 -.603E-02 0.132E-01
   0.578E+01 0.994E+01 0.454E+03   -.802E+01 -.138E+02 -.458E+03   0.226E+01 0.390E+01 0.369E+01   0.131E-02 0.143E-01 0.132E-01
   0.572E+01 -.997E+01 0.454E+03   -.797E+01 0.139E+02 -.458E+03   0.225E+01 -.391E+01 0.369E+01   0.118E-01 -.830E-02 0.132E-01
   -.992E-04 -.573E-04 0.106E+01   0.266E-14 -.355E-14 -.568E-13   0.000E+00 -.444E-15 -.934E+00   -.860E-07 0.203E-07 -.121E+00

 POSITION                                       TOTAL-FORCE (eV/Angst)
      2.99352      1.72831     10.72235        -0.000000      0.000000      0.072482
      5.98704      3.45662     10.72557        -0.000000     -0.000000      0.054333
     -0.00000      0.00000      9.52812        -0.000000      0.000000     -0.002077
     -0.00000      0.00000     11.83462        -0.000000     -0.000000     -0.017831
      3.75930      0.00079     12.23920        -0.016581      0.000221      0.026337
      1.11456      1.92890     12.23920         0.008482      0.014249      0.026337
      4.10672      3.25525     12.23920         0.008099     -0.014470      0.026337
      5.15007      5.18412      9.23878        -0.030228      0.001651     -0.061972
      7.90159      3.31770      9.23878         0.016544      0.025353     -0.061972
      4.90946      1.86803      9.23878         0.013684     -0.027004     -0.061972
    total drift:                               -0.000099     -0.000057      0.001891

  FREE ENERGIE OF THE ION-ELECTRON SYSTEM (eV)
  free  energy   TOTEN  =       -54.09720993 eV

  energy  without entropy=      -54.09720993  energy(sigma->0) =      -54.09720993

 d Force = 0.7907543E-04[ 0.740E-04, 0.841E-04]  d Energy = 0.1776516E-03-0.986E-04
 d Force = 0.5015733E+00[ 0.502E+00, 0.502E+00]  d Ewald  = 0.1175132E+00 0.384E+00

 reached required accuracy - stopping structural energy minimisation

 total charge

[...]

 magnetization (x)

# of ion       s       p       d       tot
    1        0.030   0.036   2.674   2.740
    2        0.030   0.036   2.674   2.741
    3       -0.031  -0.003   0.000  -0.035
    4        0.002   0.029  -0.000   0.031
    5        0.000  -0.058   0.000  -0.058
    6       -0.002  -0.042   0.000  -0.043
    7       -0.001  -0.053   0.000  -0.054
    8       -0.004  -0.069   0.000  -0.073
    9       -0.003  -0.063   0.000  -0.066
   10       -0.005  -0.071   0.000  -0.076
tot          0.017  -0.257   5.347   5.107

 BZINTS: Fermi energy: -1.882606; 57.000000 electrons
         Band energy:-466.585222;  BLOECHL correction: -0.024490