 vasp.5.4.4.18Apr17-6-g9f103f2a35 (build May  1 2020 15:48:39) complex
 executed on             LinuxGNU date 2020.07.09  05:09:35

 INCAR:
 POTCAR:   PAW_PBE Mn 06Sep2000
 POTCAR:   PAW_PBE Ge 05Jan2001
 POTCAR:    PAW_PBE S 17Jan2003

 POTCAR:   PAW_PBE Mn 06Sep2000
   VRHFIN =Mn: d6 s1

   TITEL  = PAW_PBE Mn 06Sep2000
   POMASS =   54.938; ZVAL   =    7.000    mass and valenz
   ENMAX  =  269.865; ENMIN  =  202.399 eV
   QCUT   =   -4.454; QGAM   =    8.907    optimization parameters

   Description
     l     E      TYP  RCUT    TYP  RCUT
     2   .000     23  2.300
     2   .000     23  2.300
     0   .000     23  2.300
     0   .000     23  2.300
     1  -.200     23  2.300
     1  1.500     23  2.300
     3   .000      7   .000

 POTCAR:   PAW_PBE Ge 05Jan2001
   VRHFIN =Ge: s2p2

   TITEL  = PAW_PBE Ge 05Jan2001
   POMASS =   72.610; ZVAL   =    4.000    mass and valenz
   ENMAX  =  173.807; ENMIN  =  130.355 eV
   QCUT   =   -3.574; QGAM   =    7.148    optimization parameters

[...]

 POTCAR:    PAW_PBE S 17Jan2003
   VRHFIN =S : s2p4

   TITEL  = PAW_PBE S 17Jan2003
   POMASS =   32.066; ZVAL   =    6.000    mass and valenz
   ENMAX  =  280.000; ENMIN  =  194.016 eV
   QCUT   =   -4.360; QGAM   =    8.721    optimization parameters

   Description
     l     E      TYP  RCUT    TYP  RCUT
     0   .000     23  1.900
     0   .000     23  1.900
     1   .000     23  1.900
     1   .000     23  1.900
     2   .000     23  1.900

 Optimization of the real space projectors (new method)

 maximal supplied QI-value         = 16.25
 optimisation between [QCUT,QGAM] = [ 11.54, 23.24] = [ 37.28,151.24] Ry
 Optimized for a Real-space Cutoff    1.53 Angstroem

   l    n(q)    QCUT    max X(q) W(low)/X(q) W(high)/X(q)  e(spline)
   2     10    11.539     4.144    0.87E-05    0.14E-04    0.48E-07
   2     10    11.539    35.116    0.12E-03    0.13E-03    0.25E-06
   0     11    11.539    20.431    0.20E-04    0.18E-05    0.19E-07
   0     11    11.539    61.159    0.37E-04    0.19E-04    0.29E-06
   1     10    11.539     6.695    0.11E-04    0.24E-05    0.29E-07
   1     10    11.539     8.642    0.41E-04    0.18E-04    0.11E-06
 Optimization of the real space projectors (new method)

[...]

   l    n(q)    QCUT    max X(q) W(low)/X(q) W(high)/X(q)  e(spline)
   0      9    11.539     8.651    0.22E-04    0.16E-04    0.10E-07
   0      9    11.539    33.192    0.11E-03    0.16E-03    0.65E-07
   1      8    11.539     5.899    0.37E-04    0.28E-04    0.43E-07
   1      8    11.539    27.289    0.22E-03    0.28E-04    0.14E-06
   2      8    11.539     4.673    0.11E-03    0.18E-03    0.58E-07
 Optimization of the real space projectors (new method)

 maximal supplied QI-value         = 19.84
 optimisation between [QCUT,QGAM] = [ 11.51, 23.22] = [ 37.09,150.92] Ry
 Optimized for a Real-space Cutoff    1.21 Angstroem

   l    n(q)    QCUT    max X(q) W(low)/X(q) W(high)/X(q)  e(spline)
   0      8    11.508     5.487    0.18E-04    0.22E-05    0.47E-08
   0      8    11.508    85.627    0.96E-04    0.18E-03    0.54E-07
   1      8    11.508     3.530    0.17E-04    0.28E-04    0.21E-07
   1      8    11.508    42.714    0.18E-03    0.63E-04    0.92E-07

 PAW_PBE Mn 06Sep2000                   :
 PAW_PBE Ge 05Jan2001                   :
  PAW_PBE S 17Jan2003                   :

 POSCAR: Mn2 Ge2 S6
  positions in direct lattice
  velocities in cartesian coordinates
 exchange correlation table for  LEXCH =       42
   RHO(1)=    0.500       N(1)  =     2000
   RHO(2)=  100.500       N(2)  =     4000

 ion  position               nearest neighbor table
   1  0.333  0.333  0.500-   6 2.78   5 2.78   7 2.78   8 2.78  10 2.78   9 2.78
   2  0.667  0.667  0.500-   9 2.78   8 2.78  10 2.78   5 2.78   7 2.78   6 2.78
   3  0.000  0.000  0.448-   4 2.43   8 2.63  10 2.63   9 2.63
   4  0.000  0.000  0.552-   3 2.43   5 2.63   7 2.63   6 2.63
   5  0.626  0.000  0.574-   4 2.63   1 2.78   2 2.78
   6  0.000  0.373  0.574-   4 2.63   1 2.78   2 2.78
   7  0.373  0.626  0.574-   4 2.63   1 2.78   2 2.78
   8  0.374  1.000  0.426-   3 2.63   2 2.78   1 2.78
   9  1.000  0.627  0.426-   3 2.63   2 2.78   1 2.78
  10  0.627  0.374  0.426-   3 2.63   2 2.78   1 2.78

  LATTYP: Found a hexagonal cell.
 ALAT       =     6.9077769333
 C/A-ratio  =     3.3939410937

  Lattice vectors:

 A1 = (   3.4538890000,  -5.9823100000,   0.0000000000)
 A2 = (  -6.9077770000,   0.0000000000,   0.0000000000)
 A3 = (   0.0000000000,   0.0000000000, -23.4445880000)

Analysis of symmetry for initial positions (statically):
 Subroutine PRICEL returns:
 Original cell was already a primitive cell.

 Routine SETGRP: Setting up the symmetry group for a
 hexagonal supercell.

 Subroutine GETGRP returns: Found  6 space group operations
 (whereof  6 operations were pure point group operations)
 out of a pool of 24 trial point group operations.

The static configuration has the point symmetry S_6 .

Analysis of symmetry for dynamics (positions and initial velocities):
 Subroutine PRICEL returns:
 Original cell was already a primitive cell.

[...]

The dynamic configuration has the point symmetry S_6 .

Analysis of constrained symmetry for selective dynamics:
 Subroutine PRICEL returns:
 Original cell was already a primitive cell.

[...]

The constrained configuration has the point symmetry S_6 .

Analysis of structural, dynamic, and magnetic symmetry:
 Subroutine PRICEL returns:
 Original cell was already a primitive cell.

 Routine SETGRP: Setting up the symmetry group for a
 hexagonal supercell.

 Subroutine GETGRP returns: Found  6 space group operations
 (whereof  6 operations were pure point group operations)
 out of a pool of 24 trial point group operations.

The magnetic configuration has the point symmetry S_6 .

 Subroutine INISYM returns: Found  6 space group operations
 (whereof  6 operations are pure point group operations),
 and found     1 'primitive' translations

 KPOINTS: Kpoints from vasprun.xml

Automatic generation of k-mesh.
Space group operators:
 irot       det(A)        alpha          n_x          n_y          n_z        tau_x        tau_y        tau_z
    1     1.000000     0.000000     1.000000     0.000000     0.000000     0.000000     0.000000     0.000000
    2    -1.000000     0.000000     1.000000     0.000000     0.000000     0.000000     0.000000     0.000000
    3     1.000000   120.000000     0.000000     0.000000     1.000000     0.000000     0.000000     0.000000
    4    -1.000000   120.000000     0.000000     0.000000     1.000000     0.000000     0.000000     0.000000
    5     1.000000   120.000000     0.000000     0.000000    -1.000000     0.000000     0.000000     0.000000
    6    -1.000000   120.000000     0.000000     0.000000    -1.000000     0.000000     0.000000     0.000000

 Subroutine IBZKPT returns following result:

 Found      5 irreducible k-points:

 Following reciprocal coordinates:
            Coordinates               Weight
  0.000000  0.000000  0.000000      1.000000
  0.200000  0.000000  0.000000      6.000000
  0.400000  0.000000  0.000000      6.000000
  0.400000  0.200000  0.000000      6.000000
 -0.400000  0.200000  0.000000      6.000000

 Following cartesian coordinates:
            Coordinates               Weight
  0.000000  0.000000  0.000000      1.000000
  0.028953 -0.016716  0.000000      6.000000
  0.057906 -0.033432  0.000000      6.000000
  0.057906  0.000000  0.000000      6.000000
 -0.057906  0.066864  0.000000      6.000000

 TETIRR: Found     15 inequivalent tetrahedra from      150

 SYSTEM =  unknown system
 POSCAR =  Mn2 Ge2 S6

 Startparameter for this run:
   NWRITE =      2    write-flag & timer
   PREC   = accura    normal or accurate (medium, high low for compatibility)
   ISTART =      0    job   : 0-new  1-cont  2-samecut
   ICHARG =      2    charge: 1-file 2-atom 10-const
   ISPIN  =      2    spin polarized calculation?
   LNONCOLLINEAR =      F non collinear calculations
   LSORBIT =      F    spin-orbit coupling
   INIWAV =      1    electr: 0-lowe 1-rand  2-diag
   LASPH  =      F    aspherical Exc in radial PAW
   METAGGA=      F    non-selfconsistent MetaGGA calc.

 Electronic Relaxation 1
   ENCUT  =  520.0 eV  38.22 Ry    6.18 a.u.  12.84 12.84 43.59*2*pi/ulx,y,z
   ENINI  =  520.0     initial cutoff
   ENAUG  =  500.7 eV  augmentation charge cutoff
   NELM   =    400;   NELMIN=  2; NELMDL=  0     # of ELM steps
   EDIFF  = 0.1E-03   stopping-criterion for ELM
   LREAL  =      T    real-space projection
   NLSPLINE    = F    spline interpolate recip. space projectors
   LCOMPAT=      F    compatible to vasp.4.4
   GGA_COMPAT  = T    GGA compatible to vasp.4.4-vasp.4.6
   LMAXPAW     = -100 max onsite density
   LMAXMIX     =    2 max onsite mixed and CHGCAR
   VOSKOWN=      0    Vosko Wilk Nusair interpolation
   ROPT   =   -0.00025  -0.00025  -0.00025
 Ionic relaxation
   EDIFFG = 0.1E-02   stopping-criterion for IOM
   NSW    =     99    number of steps for IOM
   NBLOCK =      1;   KBLOCK =     99    inner block; outer block
   IBRION =      2    ionic relax: 0-MD 1-quasi-New 2-CG
   NFREE  =      1    steps in history (QN), initial steepest desc. (CG)
   ISIF   =      3    stress and relaxation
   IWAVPR =     11    prediction:  0-non 1-charg 2-wave 3-comb
   ISYM   =      2    0-nonsym 1-usesym 2-fastsym
   LCORR  =      T    Harris-Foulkes like correction to forces

   POTIM  = 0.5000    time-step for ionic-motion
   TEIN   =    0.0    initial temperature
   TEBEG  =    0.0;   TEEND  =   0.0 temperature during run
   SMASS  =  -3.00    Nose mass-parameter (am)
   estimated Nose-frequenzy (Omega)   =  0.10E-29 period in steps =****** mass=  -0.109E-26a.u.
   SCALEE = 1.0000    scale energy and forces
   NPACO  =    256;   APACO  = 16.0  distance and # of slots for P.C.
   PSTRESS=    0.0 pullay stress

  Mass of Ions in am
   POMASS =  54.94 72.61 32.07
  Ionic Valenz
   ZVAL   =   7.00  4.00  6.00
  Atomic Wigner-Seitz radii
  virtual crystal weights
   VCA    =   1.00  1.00  1.00
   NELECT =      58.0000    total number of electrons
   NUPDOWN=      -1.0000    fix difference up-down

 DOS related values:
   EMIN   =  10.00;   EMAX   =-10.00  energy-range for DOS
   EFERMI =   0.00
   ISMEAR =    -5;   SIGMA  =   0.05  broadening in eV -4-tet -1-fermi 0-gaus

 Electronic relaxation 2 (details)
   IALGO  =     38    algorithm
   LDIAG  =      T    sub-space diagonalisation (order eigenvalues)
   LSUBROT=      F    optimize rotation matrix (better conditioning)
   TURBO    =      0    0=normal 1=particle mesh
   IRESTART =      0    0=no restart 2=restart with 2 vectors
   NREBOOT  =      0    no. of reboots
   NMIN     =      0    reboot dimension
   EREF     =   0.00    reference energy to select bands
   IMIX   =      4    mixing-type and parameters
     AMIX     =   0.40;   BMIX     =  1.00
     AMIX_MAG =   1.60;   BMIX_MAG =  1.00
     AMIN     =   0.01
     WC   =   100.;   INIMIX=   1;  MIXPRE=   1;  MAXMIX= -45

 Intra band minimization:
   WEIMIN = 0.0010     energy-eigenvalue tresh-hold
   EBREAK =  0.52E-06  absolut break condition
   DEPER  =   0.30     relativ break condition

   TIME   =   0.40     timestep for ELM
[...]
  Kinetic   639.18798   636.12901   674.24573    -1.89750    -0.40810    -1.07188
  Fock        0.00000     0.00000     0.00000     0.00000     0.00000     0.00000
  Total     -24.94482   -24.94482   -11.69427     0.00000     0.00000    -0.00000
  in kB     -41.25163   -41.25162   -19.33899     0.00000     0.00000    -0.00000

 VOLUME and BASIS-vectors are now :
  energy-cutoff  :      520.00
  volume of cell :      968.84
      direct lattice vectors                 reciprocal lattice vectors
     6.907777000 -0.000000000  0.000000000     0.144764372 -0.083579742  0.000000000
     3.453888000  5.982310000  0.000000000     0.000000000  0.167159509 -0.000000000
     0.000000000  0.000000000 23.444588000    -0.000000000  0.000000000  0.042653767

[...]

 FORCES acting on ions
    electron-ion (+dipol)            ewald-force                    non-local-force                 convergence-correction
   0.207E-03 0.109E-03 0.783E+00   0.380E-03 0.228E-03 -.767E+00   -.596E-18 -.108E-18 -.113E-01   0.376E-05 0.217E-05 -.192E-03
   -.207E-03 -.109E-03 -.783E+00   -.380E-03 -.228E-03 0.767E+00   0.271E-18 0.108E-18 0.113E-01   -.376E-05 -.217E-05 0.192E-03
   -.303E-04 0.974E-05 0.167E+03   -.141E-03 -.779E-04 -.165E+03   0.867E-18 0.520E-17 -.324E+01   -.655E-06 -.337E-06 0.154E-01
   0.303E-04 -.974E-05 -.167E+03   0.141E-03 0.779E-04 0.165E+03   -.867E-17 -.520E-17 0.324E+01   0.655E-06 0.337E-06 -.154E-01
   -.119E+02 0.159E+00 -.360E+03   0.914E+01 -.153E+00 0.363E+03   0.375E+01 -.110E-01 -.449E+01   -.841E-02 -.540E-03 -.388E-01
   0.608E+01 0.102E+02 -.360E+03   -.470E+01 -.784E+01 0.363E+03   -.188E+01 -.324E+01 -.449E+01   0.374E-02 0.756E-02 -.388E-01
   0.580E+01 -.104E+02 -.360E+03   -.444E+01 0.800E+01 0.363E+03   -.187E+01 0.325E+01 -.449E+01   0.468E-02 -.702E-02 -.388E-01
   0.119E+02 -.159E+00 0.360E+03   -.914E+01 0.153E+00 -.363E+03   -.375E+01 0.110E-01 0.449E+01   0.841E-02 0.540E-03 0.388E-01
   -.608E+01 -.102E+02 0.360E+03   0.470E+01 0.784E+01 -.363E+03   0.188E+01 0.324E+01 0.449E+01   -.374E-02 -.756E-02 0.388E-01
   -.580E+01 0.104E+02 0.360E+03   0.444E+01 -.800E+01 -.363E+03   0.187E+01 -.325E+01 0.449E+01   -.468E-02 0.702E-02 0.388E-01
   0.149E-09 0.195E-09 0.769E-10   -.622E-14 0.115E-13 -.568E-13   0.000E+00 0.000E+00 0.888E-15   0.414E-13 -.257E-13 -.223E-11

 POSITION                                       TOTAL-FORCE (eV/Angst)
      3.45388      1.99410     11.72054        -0.000000      0.000000      0.004920
      6.90778      3.98821     11.72405        -0.000000     -0.000000     -0.004920
      0.00000      0.00000     10.50824        -0.000000      0.000000     -1.254077
      0.00000      0.00000     12.93635        -0.000000      0.000000      1.254077
      4.32819      0.00251     13.45138         1.003876     -0.003929     -1.396105
      1.29198      2.23274     13.45138        -0.505341     -0.867418     -1.396105
      4.74152      3.74706     13.45138        -0.498535      0.871347     -1.396105
      6.03348      5.97980      9.99321        -1.003876      0.003929      1.396105
      9.06969      3.74957      9.99321         0.505341      0.867418      1.396105
      5.62015      2.23525      9.99321         0.498535     -0.871347      1.396105
    total drift:                                0.000000      0.000000      0.000000

  FREE ENERGIE OF THE ION-ELECTRON SYSTEM (eV)
  free  energy   TOTEN  =       -46.12078730 eV

  energy  without entropy=      -46.12078730  energy(sigma->0) =      -46.12078730

[...]

 d Force = 0.4064963E+00[ 0.240E-01, 0.789E+00]  d Energy = 0.4641835E+01-0.424E+01
 d Force =-0.1578589E+03[-0.180E+03,-0.136E+03]  d Ewald  =-0.1856314E+04 0.170E+04

 Steepest descent step on ions:
 trial-energy change:   -4.641835  1 .order   -3.805509   -7.519379   -0.091638
  (g-gl).g = 0.752E+01      g.g   = 0.752E+01  gl.gl    = 0.000E+00
 g(Force)  = 0.856E+00   g(Stress)= 0.666E+01 ortho     = 0.000E+00
 gamma     =   0.00000
 trial     =   1.00000
 opt step  =   1.00734  (harmonic =   1.01234) maximal distance =0.06784626
 next E    =   -50.762959   (d E  =  -4.64217)

[...]

 Conjugate gradient step on ions:
 trial-energy change:   -0.023414  1 .order   -0.022302   -0.023769   -0.020834
  (g-gl).g = 0.192E-01      g.g   = 0.237E-01  gl.gl    = 0.752E+01
 g(Force)  = 0.150E-01   g(Stress)= 0.877E-02 ortho     = 0.453E-02
 gamma     =   0.00255
 trial     =   1.00147
 opt step  =   4.00587  (harmonic =   8.10947) maximal distance =0.03274165
 next E    =   -50.860092   (d E  =  -0.09624)

[...]

 d Force = 0.5058677E-01[ 0.248E-01, 0.764E-01]  d Energy =-0.3370903E-01 0.843E-01
 d Force =-0.1380056E+03[-0.141E+03,-0.135E+03]  d Ewald  =-0.8053945E+03 0.667E+03

[...]

 d Force =-0.2705801E-01[-0.402E-01,-0.139E-01]  d Energy = 0.4215683E-01-0.692E-01
 d Force = 0.9385248E+02[ 0.926E+02, 0.951E+02]  d Ewald  = 0.5784059E+03-0.485E+03

[...]

 Conjugate gradient step on ions:
 trial-energy change:   -0.012315  1 .order   -0.013732   -0.016906   -0.010558
  (g-gl).g = 0.368E-01      g.g   = 0.343E-01  gl.gl    = 0.237E-01
 g(Force)  = 0.169E-01   g(Stress)= 0.173E-01 ortho     =-0.199E-02
 gamma     =   1.54953
 trial     =   0.54229
 opt step  =   1.44421  (harmonic =   1.44421) maximal distance =0.03319011
 next E    =   -50.862327   (d E  =  -0.02251)

[...]

 d Force = 0.3718751E-02[ 0.301E-02, 0.443E-02]  d Energy = 0.1006199E-01-0.634E-02
 d Force =-0.3517803E+02[-0.350E+02,-0.353E+02]  d Ewald  = 0.5516258E+02-0.903E+02

[...]

 d Force = 0.1589548E-02[ 0.123E-02, 0.195E-02]  d Energy = 0.1689352E-02-0.998E-04
 d Force =-0.2266123E+02[-0.226E+02,-0.227E+02]  d Ewald  = 0.3549132E+02-0.582E+02

[...]

 d Force = 0.3831629E-02[ 0.298E-02, 0.468E-02]  d Energy = 0.4099971E-02-0.268E-03
 d Force =-0.1444635E+02[-0.144E+02,-0.145E+02]  d Ewald  =-0.1491111E+02 0.465E+00

[...]

 d Force = 0.3892000E-03[-0.790E-02, 0.868E-02]  d Energy = 0.2281214E-02-0.189E-02
 d Force =-0.4197793E+02[-0.419E+02,-0.420E+02]  d Ewald  =-0.4329621E+02 0.132E+01

[...]

 d Force = 0.1803701E-02[ 0.853E-03, 0.275E-02]  d Energy = 0.7755195E-03 0.103E-02
 d Force = 0.1461738E+02[ 0.146E+02, 0.146E+02]  d Ewald  = 0.1509198E+02-0.475E+00

[...]

 d Force =-0.5130106E-03[-0.430E-03,-0.596E-03]  d Energy = 0.3147966E-02-0.366E-02
 d Force =-0.1039026E+02[-0.104E+02,-0.104E+02]  d Ewald  =-0.1448483E+02 0.409E+01

 Conjugate gradient step on ions:
 trial-energy change:   -0.003148  1 .order   -0.002578   -0.003589   -0.001567
  (g-gl).g = 0.498E-02      g.g   = 0.430E-02  gl.gl    = 0.557E-02
 g(Force)  = 0.246E-03   g(Stress)= 0.405E-02 ortho     =-0.248E-03
 gamma     =   0.89322
 trial     =   0.88072
 opt step  =   1.10011  (harmonic =   1.56336) maximal distance =0.00497438
 next E    =   -50.881521   (d E  =  -0.00335)

[...]

 d Force =-0.1063047E-03[-0.106E-03,-0.107E-03]  d Energy = 0.4965537E-03-0.603E-03
 d Force =-0.2575951E+01[-0.257E+01,-0.258E+01]  d Ewald  =-0.3584161E+01 0.101E+01

[...]

 d Force = 0.5425312E-04[ 0.528E-04, 0.557E-04]  d Energy = 0.6213256E-03-0.567E-03
 d Force = 0.2195304E+00[ 0.220E+00, 0.219E+00]  d Ewald  =-0.3594644E+02 0.362E+02

 Conjugate gradient step on ions:
 trial-energy change:   -0.000621  1 .order   -0.000714   -0.000933   -0.000496
  (g-gl).g = 0.956E-04      g.g   = 0.997E-03  gl.gl    = 0.430E-02
 g(Force)  = 0.710E-04   g(Stress)= 0.926E-03 ortho     = 0.527E-03
 gamma     =   0.02224
 trial     =   0.92460
 opt step  =   1.97688  (harmonic =   1.97688) maximal distance =0.00114793
 next E    =   -50.882811   (d E  =  -0.00100)

[...]

 eigenvalue-minimisations  :  1152
 total energy-change (2. order) :-0.1584468E-02  (-0.6542152E-02)
 number of electron      58.0000001 magnetization       6.4357663
 augmentation part        0.2124429 magnetization       4.4535015

[...]

 Broyden mixing:
  rms(total) = 0.30420E-02    rms(broyden)= 0.30420E-02
  rms(prec ) = 0.42065E-02
  weight for this iteration     100.00

 eigenvalues of (default mixing * dielectric matrix)
  average eigenvalue GAMMA=   1.0179
  1.9782  0.7328  0.3428

[...]

--------------------------------------- Iteration     18(   5)  ---------------------------------------

[...]

 eigenvalue-minimisations  :   768
 total energy-change (2. order) : 0.6307294E-04  (-0.9671013E-05)
 number of electron      58.0000001 magnetization       6.4418625
 augmentation part        0.2019886 magnetization       4.4570722

 Free energy of the ion-electron system (eV)
  alpha Z        PSCENC =        32.01073167
  Ewald energy   TEWEN  =      9335.73581769
  -Hartree energ DENC   =    -11762.57705479
  -exchange      EXHF   =         0.00000000
  -V(xc)+E(xc)   XCENC  =        35.96899641
  PAW double counting   =      1413.26870365    -1333.29748386
  entropy T*S    EENTRO =         0.00000000
  eigenvalues    EBANDS =      -488.00036488
  atomic energy  EATOM  =      2716.00809441
  Solvation  Ediel_sol  =         0.00000000
  free energy    TOTEN  =       -50.88255971 eV

  energy without entropy =      -50.88255971  energy(sigma->0) =      -50.88255971

 average (electrostatic) potential at core
  the test charge radii are     1.0210  1.1631  0.9698
  (the norm of the test charge is              1.0000)
       1 -53.2103       2 -53.2103       3 -40.0281       4 -40.0281       5 -94.6048
       6 -94.6048       7 -94.6047       8 -94.6048       9 -94.6048      10 -94.6047

 E-fermi :  -2.6832     XC(G=0):  -3.5238     alpha+bet : -2.7051

[...]

 spin component 2

[...]

 k-point     5 :      -0.4000    0.2000    0.0000
  band No.  band energies     occupation
      1     -16.7519      1.00000
      2     -16.3769      1.00000
      3     -16.0768      1.00000
      4     -15.9830      1.00000
      5     -15.7802      1.00000
      6     -15.6208      1.00000
      7     -11.6413      1.00000
      8     -10.2562      1.00000
      9      -8.1904      1.00000
     10      -7.7498      1.00000
     11      -7.6542      1.00000
     12      -7.2147      1.00000
     13      -6.9623      1.00000
     14      -6.6581      1.00000
     15      -6.4239      1.00000
     16      -6.1010      1.00000
     17      -6.0165      1.00000
     18      -5.9478      1.00000
     19      -5.8994      1.00000
     20      -5.6302      1.00000
     21      -5.5544      1.00000
     22      -4.8994      1.00000
     23      -4.7799      1.00000
     24      -4.7067      1.00000
     25      -4.1326      1.00000
     26      -3.1144      1.00000
     27      -2.5799      0.00000
     28      -2.4947      0.00000
     29      -2.1755      0.00000
     30      -1.9290      0.00000
     31      -1.8947      0.00000
     32      -1.7269      0.00000
     33      -1.2068      0.00000
     34      -1.1930      0.00000
     35      -0.9325      0.00000
     36      -0.8678      0.00000
     37      -0.0686      0.00000
     38       0.7480      0.00000
     39       0.8750      0.00000
     40       1.6059      0.00000
     41       1.6617      0.00000
     42       1.7238      0.00000
     43       2.6740      0.00000
     44       2.7880      0.00000
     45       2.8908      0.00000
     46       2.9425      0.00000
     47       3.3536      0.00000
     48       3.7311      0.00000

[...]

 soft charge-density along one line, spin component           2
         0         1         2         3         4         5         6         7         8         9
 total charge-density along one line

------------------------ aborting loop because EDIFF is reached ----------------------------------------

[...]

  FORCE on cell =-STRESS in cart. coord.  units (eV):
  Direction    XX          YY          ZZ          XY          YZ          ZX
  Alpha Z    32.01073    32.01073    32.01073
  Ewald   11096.56107 11096.55881-12857.38604    -0.00154    -0.00044    -0.00080
  Hartree 11504.39477 11504.39526-11242.31354    -0.00018     0.00004     0.00006
  E(xc)    -225.24773  -225.24776  -224.88340     0.00004     0.00001     0.00000
  Local  -23465.87956-23465.87908 23198.68581     0.00130     0.00023     0.00043
  n-local   430.78874   432.66402   434.63347     1.06628     1.19511     1.20670
  augment   -39.63481   -39.63496   -42.40278     0.00018    -0.00022     0.00016
  Kinetic   670.08710   662.11621   701.69628    -4.91415    -2.10312    -1.87306
  Fock        0.00000     0.00000     0.00000     0.00000     0.00000     0.00000
  Total       0.03178     0.03178     0.04053    -0.00000     0.00000     0.00000
  in kB       0.06952     0.06952     0.08867    -0.00000     0.00000     0.00000

 VOLUME and BASIS-vectors are now :
  energy-cutoff  :      520.00
  volume of cell :      732.32
      direct lattice vectors                 reciprocal lattice vectors
     6.046365019 -0.000000071 -0.000000000     0.165388624 -0.095487164 -0.000000000
     3.023182258  5.236305443  0.000000000     0.000000002  0.190974343  0.000000000
    -0.000000000 -0.000000000 23.130422442     0.000000000 -0.000000000  0.043233106

  length of vectors
     6.046365019  6.046364664 23.130422442     0.190974332  0.190974343  0.043233106

 FORCES acting on ions
    electron-ion (+dipol)            ewald-force                    non-local-force                 convergence-correction
   -.456E-04 -.374E-04 -.150E+00   0.488E-03 0.290E-03 0.152E+00   -.520E-17 -.104E-16 -.168E-02   -.897E-07 -.739E-07 -.289E-02
   0.456E-04 0.374E-04 0.150E+00   -.488E-03 -.290E-03 -.152E+00   -.234E-21 -.109E-20 0.168E-02   0.897E-07 0.739E-07 0.289E-02
   -.402E-04 0.394E-06 0.238E+03   -.199E-03 -.111E-03 -.235E+03   0.417E-18 0.158E-16 -.299E+01   0.187E-07 0.101E-07 -.371E-01
   0.402E-04 -.394E-06 -.238E+03   0.199E-03 0.111E-03 0.235E+03   0.152E-16 -.158E-16 0.299E+01   -.187E-07 -.101E-07 0.371E-01
   -.155E+02 -.239E-02 -.482E+03   0.118E+02 0.347E-03 0.485E+03   0.363E+01 0.229E-02 -.352E+01   0.410E-02 -.298E-03 0.681E-01
   0.773E+01 0.134E+02 -.482E+03   -.591E+01 -.102E+02 0.485E+03   -.181E+01 -.314E+01 -.352E+01   -.231E-02 -.340E-02 0.681E-01
   0.773E+01 -.134E+02 -.482E+03   -.591E+01 0.102E+02 0.485E+03   -.182E+01 0.314E+01 -.352E+01   -.179E-02 0.370E-02 0.681E-01
   0.155E+02 0.239E-02 0.482E+03   -.118E+02 -.347E-03 -.485E+03   -.363E+01 -.229E-02 0.352E+01   -.410E-02 0.298E-03 -.681E-01
   -.773E+01 -.134E+02 0.482E+03   0.591E+01 0.102E+02 -.485E+03   0.181E+01 0.314E+01 0.352E+01   0.231E-02 0.340E-02 -.681E-01
   -.773E+01 0.134E+02 0.482E+03   0.591E+01 -.102E+02 -.485E+03   0.182E+01 -.314E+01 0.352E+01   0.179E-02 -.370E-02 -.681E-01
   0.354E-09 0.393E-09 0.185E-09   0.178E-14 -.888E-14 0.114E-12   0.666E-15 0.444E-15 0.888E-15   0.112E-12 -.491E-13 0.621E-11

 POSITION                                       TOTAL-FORCE (eV/Angst)
      3.02318      1.74543     11.56558         0.000000      0.000000     -0.002122
      6.04637      3.49087     11.56484         0.000000     -0.000000      0.002122
     -0.00000     -0.00000     10.36743         0.000000      0.000000     -0.000278
     -0.00000     -0.00000     12.76300         0.000000      0.000000      0.000278
      3.77880     -0.00023     13.08730        -0.016303      0.000856     -0.017187
      1.13359      1.96389     13.08730         0.008893      0.013691     -0.017187
      4.15717      3.27265     13.08730         0.007410     -0.014547     -0.017187
      2.26757      0.00023     10.04312         0.016303     -0.000856      0.017187
      1.88959      3.27241     10.04312        -0.008893     -0.013691      0.017187
      4.91238      1.96366     10.04312        -0.007410      0.014547      0.017187
    total drift:                                0.000000      0.000000      0.000000

  FREE ENERGIE OF THE ION-ELECTRON SYSTEM (eV)
  free  energy   TOTEN  =       -50.88255971 eV

  energy  without entropy=      -50.88255971  energy(sigma->0) =      -50.88255971

 d Force = 0.5532996E-04[ 0.506E-04, 0.600E-04]  d Energy = 0.1247099E-03-0.694E-04
 d Force = 0.2507814E+00[ 0.251E+00, 0.250E+00]  d Ewald  =-0.4099695E+02 0.412E+02

 reached required accuracy - stopping structural energy minimisation

 total charge

[...]

 magnetization (x)

# of ion       s       p       d       tot
    1        0.026   0.029   3.098   3.154
    2        0.026   0.029   3.098   3.154
    3       -0.002   0.019   0.002   0.019
    4       -0.002   0.019   0.002   0.019
    5        0.006  -0.053   0.000  -0.047
    6        0.006  -0.031   0.000  -0.025
    7        0.004  -0.047   0.000  -0.043
    8        0.006  -0.053   0.000  -0.047
    9        0.006  -0.031   0.000  -0.025
   10        0.004  -0.047   0.000  -0.043
tot          0.082  -0.166   6.200   6.116

 BZINTS: Fermi energy: -2.683151; 58.000000 electrons
         Band energy:-488.000365;  BLOECHL correction: -0.022512