 vasp.5.4.4.18Apr17-6-g9f103f2a35 (build May  1 2020 15:48:39) complex
 executed on             LinuxGNU date 2020.06.27  11:56:01

 INCAR:
 POTCAR:   PAW_PBE Co 06Sep2000
 POTCAR:    PAW_PBE P 17Jan2003
 POTCAR:   PAW_PBE Te 08Apr2002

 POTCAR:   PAW_PBE Co 06Sep2000
   VRHFIN =Co: d8 s1

   TITEL  = PAW_PBE Co 06Sep2000
   POMASS =   58.933; ZVAL   =    9.000    mass and valenz
   ENMAX  =  267.969; ENMIN  =  200.977 eV
   QCUT   =   -4.438; QGAM   =    8.876    optimization parameters

   Description
     l     E      TYP  RCUT    TYP  RCUT
     2   .000     23  2.300
     2   .000     23  2.300
     0   .000     23  2.300
     0   .000     23  2.300
     1  -.200     23  2.300
     1   .000     23  2.300
     3   .000      7   .000

 POTCAR:    PAW_PBE P 17Jan2003
   VRHFIN =P : s2p3

   TITEL  = PAW_PBE P 17Jan2003
   POMASS =   30.974; ZVAL   =    5.000    mass and valenz
   ENMAX  =  270.000; ENMIN  =  191.280 eV
   QCUT   =   -4.330; QGAM   =    8.659    optimization parameters

[...]

 POTCAR:   PAW_PBE Te 08Apr2002
   VRHFIN =Te: s2p4

   TITEL  = PAW_PBE Te 08Apr2002
   POMASS =  127.600; ZVAL   =    6.000    mass and valenz
   ENMAX  =  174.982; ENMIN  =  131.236 eV
   QCUT   =   -3.586; QGAM   =    7.172    optimization parameters

   Description
     l     E      TYP  RCUT    TYP  RCUT
     0   .000     23  2.300
     0   .000     23  2.300
     1   .000     23  2.300
     1   .000     23  2.300
     2   .000     23  2.300
     3  -.100     23  2.300

 Optimization of the real space projectors (new method)

 maximal supplied QI-value         = 16.25
 optimisation between [QCUT,QGAM] = [ 11.54, 23.24] = [ 37.28,151.24] Ry
 Optimized for a Real-space Cutoff    1.53 Angstroem

   l    n(q)    QCUT    max X(q) W(low)/X(q) W(high)/X(q)  e(spline)
   2     10    11.539     4.599    0.83E-05    0.15E-04    0.45E-07
   2     10    11.539    18.158    0.10E-03    0.14E-03    0.24E-06
   0     11    11.539    15.740    0.19E-04    0.12E-05    0.17E-07
   0     11    11.539    47.662    0.48E-04    0.15E-04    0.31E-06
   1     10    11.539     5.777    0.11E-04    0.46E-05    0.25E-07
   1     10    11.539     8.007    0.46E-04    0.29E-04    0.11E-06
 Optimization of the real space projectors (new method)

[...]

   l    n(q)    QCUT    max X(q) W(low)/X(q) W(high)/X(q)  e(spline)
   0      8    11.508     6.651    0.19E-04    0.31E-05    0.49E-08
   0      8    11.508    90.285    0.95E-04    0.17E-03    0.51E-07
   1      8    11.508     4.328    0.14E-04    0.32E-04    0.22E-07
   1      8    11.508    54.583    0.16E-03    0.71E-04    0.89E-07
 Optimization of the real space projectors (new method)

 maximal supplied QI-value         = 16.25
 optimisation between [QCUT,QGAM] = [ 11.54, 23.24] = [ 37.28,151.24] Ry
 Optimized for a Real-space Cutoff    1.36 Angstroem

   l    n(q)    QCUT    max X(q) W(low)/X(q) W(high)/X(q)  e(spline)
   0      9    11.539     7.090    0.13E-04    0.25E-05    0.51E-08
   0      9    11.539   101.654    0.53E-04    0.69E-04    0.12E-06
   1      9    11.539     5.276    0.20E-04    0.98E-05    0.24E-07
   1      9    11.539    81.891    0.24E-03    0.13E-04    0.15E-06
   2      9    11.539     5.599    0.30E-04    0.97E-04    0.54E-07

 PAW_PBE Co 06Sep2000                   :
  PAW_PBE P 17Jan2003                   :
 PAW_PBE Te 08Apr2002                   :

 POSCAR: Co2 P2 Te6
  positions in direct lattice
 exchange correlation table for  LEXCH =       42
   RHO(1)=    0.500       N(1)  =     2000
   RHO(2)=  100.500       N(2)  =     4000

 ion  position               nearest neighbor table
   1  0.333  0.333  0.500-   6 2.78   5 2.78   7 2.78   8 2.78  10 2.78   9 2.78
   2  0.667  0.667  0.500-   9 2.78   8 2.78  10 2.78   5 2.78   7 2.78   6 2.78
   3  0.000  0.000  0.448-   4 2.43   8 2.63  10 2.63   9 2.63
   4  0.000  0.000  0.552-   3 2.43   5 2.63   7 2.63   6 2.63
   5  0.626  0.000  0.574-   4 2.63   1 2.78   2 2.78
   6  0.000  0.373  0.574-   4 2.63   1 2.78   2 2.78
   7  0.373  0.626  0.574-   4 2.63   1 2.78   2 2.78
   8  0.374  1.000  0.426-   3 2.63   2 2.78   1 2.78
   9  1.000  0.627  0.426-   3 2.63   2 2.78   1 2.78
  10  0.627  0.374  0.426-   3 2.63   2 2.78   1 2.78

  LATTYP: Found a hexagonal cell.
 ALAT       =     6.9077769333
 C/A-ratio  =     3.3939410937

  Lattice vectors:

 A1 = (   3.4538890000,  -5.9823100000,   0.0000000000)
 A2 = (  -6.9077770000,   0.0000000000,   0.0000000000)
 A3 = (   0.0000000000,   0.0000000000, -23.4445880000)

Analysis of symmetry for initial positions (statically):
 Subroutine PRICEL returns:
 Original cell was already a primitive cell.

 Routine SETGRP: Setting up the symmetry group for a
 hexagonal supercell.

 Subroutine GETGRP returns: Found  6 space group operations
 (whereof  6 operations were pure point group operations)
 out of a pool of 24 trial point group operations.

The static configuration has the point symmetry S_6 .

Analysis of symmetry for dynamics (positions and initial velocities):
 Subroutine PRICEL returns:
 Original cell was already a primitive cell.

[...]

The dynamic configuration has the point symmetry S_6 .

Analysis of constrained symmetry for selective dynamics:
 Subroutine PRICEL returns:
 Original cell was already a primitive cell.

[...]

The constrained configuration has the point symmetry S_6 .

Analysis of structural, dynamic, and magnetic symmetry:
 Subroutine PRICEL returns:
 Original cell was already a primitive cell.

 Routine SETGRP: Setting up the symmetry group for a
 hexagonal supercell.

 Subroutine GETGRP returns: Found  6 space group operations
 (whereof  6 operations were pure point group operations)
 out of a pool of 24 trial point group operations.

The magnetic configuration has the point symmetry S_6 .

 Subroutine INISYM returns: Found  6 space group operations
 (whereof  6 operations are pure point group operations),
 and found     1 'primitive' translations

 KPOINTS: Kpoints from vasprun.xml

Automatic generation of k-mesh.
Space group operators:
 irot       det(A)        alpha          n_x          n_y          n_z        tau_x        tau_y        tau_z
    1     1.000000     0.000000     1.000000     0.000000     0.000000     0.000000     0.000000     0.000000
    2    -1.000000     0.000000     1.000000     0.000000     0.000000     0.000000     0.000000     0.000000
    3     1.000000   120.000000     0.000000     0.000000     1.000000     0.000000     0.000000     0.000000
    4    -1.000000   120.000000     0.000000     0.000000     1.000000     0.000000     0.000000     0.000000
    5     1.000000   120.000000     0.000000     0.000000    -1.000000     0.000000     0.000000     0.000000
    6    -1.000000   120.000000     0.000000     0.000000    -1.000000     0.000000     0.000000     0.000000

 Subroutine IBZKPT returns following result:

 Found      5 irreducible k-points:

 Following reciprocal coordinates:
            Coordinates               Weight
  0.000000  0.000000  0.000000      1.000000
  0.200000  0.000000  0.000000      6.000000
  0.400000  0.000000  0.000000      6.000000
  0.400000  0.200000  0.000000      6.000000
 -0.400000  0.200000  0.000000      6.000000

 Following cartesian coordinates:
            Coordinates               Weight
  0.000000  0.000000  0.000000      1.000000
  0.028953 -0.016716  0.000000      6.000000
  0.057906 -0.033432  0.000000      6.000000
  0.057906  0.000000  0.000000      6.000000
 -0.057906  0.066864  0.000000      6.000000

 TETIRR: Found     15 inequivalent tetrahedra from      150

 SYSTEM =  unknown system
 POSCAR =  Co2 P2 Te6

 Startparameter for this run:
   NWRITE =      2    write-flag & timer
   PREC   = accura    normal or accurate (medium, high low for compatibility)
   ISTART =      0    job   : 0-new  1-cont  2-samecut
   ICHARG =      2    charge: 1-file 2-atom 10-const
   ISPIN  =      2    spin polarized calculation?
   LNONCOLLINEAR =      F non collinear calculations
   LSORBIT =      F    spin-orbit coupling
   INIWAV =      1    electr: 0-lowe 1-rand  2-diag
   LASPH  =      F    aspherical Exc in radial PAW
   METAGGA=      F    non-selfconsistent MetaGGA calc.

 Electronic Relaxation 1
   ENCUT  =  520.0 eV  38.22 Ry    6.18 a.u.  12.84 12.84 43.59*2*pi/ulx,y,z
   ENINI  =  520.0     initial cutoff
   ENAUG  =  477.8 eV  augmentation charge cutoff
   NELM   =    400;   NELMIN=  2; NELMDL=  0     # of ELM steps
   EDIFF  = 0.1E-03   stopping-criterion for ELM
   LREAL  =      T    real-space projection
   NLSPLINE    = F    spline interpolate recip. space projectors
   LCOMPAT=      F    compatible to vasp.4.4
   GGA_COMPAT  = T    GGA compatible to vasp.4.4-vasp.4.6
   LMAXPAW     = -100 max onsite density
   LMAXMIX     =    2 max onsite mixed and CHGCAR
   VOSKOWN=      0    Vosko Wilk Nusair interpolation
   ROPT   =   -0.00025  -0.00025  -0.00025
 Ionic relaxation
   EDIFFG = 0.1E-02   stopping-criterion for IOM
   NSW    =     99    number of steps for IOM
   NBLOCK =      1;   KBLOCK =     99    inner block; outer block
   IBRION =      2    ionic relax: 0-MD 1-quasi-New 2-CG
   NFREE  =      1    steps in history (QN), initial steepest desc. (CG)
   ISIF   =      3    stress and relaxation
   IWAVPR =     11    prediction:  0-non 1-charg 2-wave 3-comb
   ISYM   =      2    0-nonsym 1-usesym 2-fastsym
   LCORR  =      T    Harris-Foulkes like correction to forces

   POTIM  = 0.5000    time-step for ionic-motion
   TEIN   =    0.0    initial temperature
   TEBEG  =    0.0;   TEEND  =   0.0 temperature during run
   SMASS  =  -3.00    Nose mass-parameter (am)
   estimated Nose-frequenzy (Omega)   =  0.10E-29 period in steps =****** mass=  -0.109E-26a.u.
   SCALEE = 1.0000    scale energy and forces
   NPACO  =    256;   APACO  = 16.0  distance and # of slots for P.C.
   PSTRESS=    0.0 pullay stress

  Mass of Ions in am
   POMASS =  58.93 30.97127.60
  Ionic Valenz
   ZVAL   =   9.00  5.00  6.00
  Atomic Wigner-Seitz radii
  virtual crystal weights
   VCA    =   1.00  1.00  1.00
   NELECT =      64.0000    total number of electrons
   NUPDOWN=      -1.0000    fix difference up-down

 DOS related values:
   EMIN   =  10.00;   EMAX   =-10.00  energy-range for DOS
   EFERMI =   0.00
   ISMEAR =    -5;   SIGMA  =   0.05  broadening in eV -4-tet -1-fermi 0-gaus

 Electronic relaxation 2 (details)
   IALGO  =     38    algorithm
   LDIAG  =      T    sub-space diagonalisation (order eigenvalues)
   LSUBROT=      F    optimize rotation matrix (better conditioning)
   TURBO    =      0    0=normal 1=particle mesh
   IRESTART =      0    0=no restart 2=restart with 2 vectors
   NREBOOT  =      0    no. of reboots
   NMIN     =      0    reboot dimension
   EREF     =   0.00    reference energy to select bands
   IMIX   =      4    mixing-type and parameters
     AMIX     =   0.40;   BMIX     =  1.00
     AMIX_MAG =   1.60;   BMIX_MAG =  1.00
     AMIN     =   0.01
     WC   =   100.;   INIMIX=   1;  MIXPRE=   1;  MAXMIX= -45

 Intra band minimization:
   WEIMIN = 0.0010     energy-eigenvalue tresh-hold
   EBREAK =  0.52E-06  absolut break condition
   DEPER  =   0.30     relativ break condition

   TIME   =   0.40     timestep for ELM

[...]
     0.000000000  0.000000000 23.444588000    -0.000000000  0.000000000  0.042653767

[...]

 FORCES acting on ions
    electron-ion (+dipol)            ewald-force                    non-local-force                 convergence-correction
   0.153E-03 0.866E-04 0.105E+01   0.575E-03 0.344E-03 -.106E+01   0.173E-17 0.867E-18 0.121E-01   -.215E-06 -.119E-06 0.422E-03
   -.153E-03 -.866E-04 -.105E+01   -.575E-03 -.344E-03 0.106E+01   -.867E-18 -.867E-18 -.121E-01   0.215E-06 0.119E-06 -.422E-03
   -.502E-04 -.653E-05 0.237E+03   -.176E-03 -.974E-04 -.239E+03   0.694E-17 0.694E-17 0.305E+01   0.167E-07 -.489E-08 -.586E-01
   0.502E-04 0.653E-05 -.237E+03   0.176E-03 0.974E-04 0.239E+03   -.139E-16 -.694E-17 -.305E+01   -.167E-07 0.489E-08 0.586E-01
   -.116E+02 0.145E+00 -.414E+03   0.924E+01 -.144E+00 0.418E+03   0.187E+01 -.770E-02 -.469E+01   0.786E-02 0.340E-03 0.127E+00
   0.593E+01 0.998E+01 -.414E+03   -.475E+01 -.793E+01 0.418E+03   -.940E+00 -.161E+01 -.469E+01   -.363E-02 -.697E-02 0.127E+00
   0.568E+01 -.101E+02 -.414E+03   -.450E+01 0.808E+01 0.418E+03   -.927E+00 0.162E+01 -.469E+01   -.422E-02 0.664E-02 0.127E+00
   0.116E+02 -.145E+00 0.414E+03   -.924E+01 0.144E+00 -.418E+03   -.187E+01 0.770E-02 0.469E+01   -.786E-02 -.340E-03 -.127E+00
   -.593E+01 -.998E+01 0.414E+03   0.475E+01 0.793E+01 -.418E+03   0.940E+00 0.161E+01 0.469E+01   0.363E-02 0.697E-02 -.127E+00
   -.568E+01 0.101E+02 0.414E+03   0.450E+01 -.808E+01 -.418E+03   0.927E+00 -.162E+01 0.469E+01   0.422E-02 -.664E-02 -.127E+00
   -.274E-09 -.100E-09 0.801E-09   0.888E-15 0.355E-14 0.568E-13   0.000E+00 0.000E+00 0.178E-14   0.123E-13 -.696E-15 -.260E-11

 POSITION                                       TOTAL-FORCE (eV/Angst)
      3.45388      1.99410     11.72054        -0.000000      0.000000      0.005673
      6.90778      3.98821     11.72405        -0.000000      0.000000     -0.005673
      0.00000      0.00000     10.50824        -0.000000      0.000000      0.768453
      0.00000      0.00000     12.93635        -0.000000      0.000000     -0.768453
      4.32819      0.00251     13.45138        -0.492496     -0.005491     -1.226819
      1.29198      2.23274     13.45138         0.241493      0.429260     -1.226819
      4.74152      3.74706     13.45138         0.251003     -0.423769     -1.226819
      6.03348      5.97980      9.99321         0.492496      0.005491      1.226819
      9.06969      3.74957      9.99321        -0.241493     -0.429260      1.226819
      5.62015      2.23525      9.99321        -0.251003      0.423769      1.226819
    total drift:                               -0.000000     -0.000000      0.000000

  FREE ENERGIE OF THE ION-ELECTRON SYSTEM (eV)
  free  energy   TOTEN  =       -36.11707088 eV

  energy  without entropy=      -36.11707088  energy(sigma->0) =      -36.11707088

[...]

 d Force = 0.1844522E-01[-0.164E-01, 0.533E-01]  d Energy = 0.9676719E+00-0.949E+00
 d Force =-0.1731198E+02[-0.180E+02,-0.166E+02]  d Ewald  =-0.6073917E+02 0.434E+02

 Steepest descent step on ions:
 trial-energy change:   -0.967672  1 .order   -0.820381   -1.642566    0.001804
  (g-gl).g = 0.164E+01      g.g   = 0.164E+01  gl.gl    = 0.000E+00
 g(Force)  = 0.570E-01   g(Stress)= 0.159E+01 ortho     = 0.000E+00
 gamma     =   0.00000
 trial     =   1.00000
 opt step  =   0.99929  (harmonic =   0.99890) maximal distance =0.03704574
 next E    =   -37.084743   (d E  =  -0.96767)

[...]

 d Force = 0.1247122E-04[ 0.124E-04, 0.125E-04]  d Energy = 0.3267752E-03-0.314E-03
 d Force = 0.1376993E-01[ 0.138E-01, 0.138E-01]  d Ewald  = 0.3620851E-01-0.224E-01

[...]

 Conjugate gradient step on ions:
 trial-energy change:   -0.112572  1 .order   -0.115902   -0.160105   -0.071698
  (g-gl).g = 0.224E+00      g.g   = 0.168E+00  gl.gl    = 0.164E+01
 g(Force)  = 0.532E-02   g(Stress)= 0.162E+00 ortho     =-0.562E-01
 gamma     =   0.13633
 trial     =   0.99986
 opt step  =   1.81075  (harmonic =   1.81075) maximal distance =0.01136229
 next E    =   -37.230045   (d E  =  -0.14498)

[...]

 Conjugate gradient step on ions:
 trial-energy change:   -0.078476  1 .order   -0.073727   -0.122693   -0.024761
  (g-gl).g = 0.131E+00      g.g   = 0.150E+00  gl.gl    = 0.168E+00
 g(Force)  = 0.143E+00   g(Stress)= 0.729E-02 ortho     =-0.712E-02
 gamma     =   0.78047
 trial     =   0.84940
 opt step  =   1.00900  (harmonic =   1.06416) maximal distance =0.06414188
 next E    =   -37.301948   (d E  =  -0.08083)

[...]

 d Force = 0.6286878E-02[ 0.501E-02, 0.757E-02]  d Energy = 0.2735386E-02 0.355E-02
 d Force = 0.5149176E+01[ 0.515E+01, 0.515E+01]  d Ewald  = 0.5776379E+02-0.526E+02

[...]

 d Force = 0.4992514E-02[ 0.276E-02, 0.723E-02]  d Energy = 0.1134064E-01-0.635E-02
 d Force = 0.7481122E+01[ 0.753E+01, 0.743E+01]  d Ewald  =-0.5511001E+02 0.626E+02

 Conjugate gradient step on ions:
 trial-energy change:   -0.011341  1 .order   -0.012259   -0.028326    0.003808
  (g-gl).g = 0.111E-01      g.g   = 0.312E-01  gl.gl    = 0.150E+00
 g(Force)  = 0.590E-02   g(Stress)= 0.253E-01 ortho     = 0.125E-01
 gamma     =   0.07418
 trial     =   0.88132
 opt step  =   0.75878  (harmonic =   0.77687) maximal distance =0.01263011
 next E    =   -37.313933   (d E  =  -0.01161)

[...]

 d Force =-0.4237160E-03[-0.462E-03,-0.385E-03]  d Energy = 0.5961970E-04-0.483E-03
 d Force =-0.1050914E+01[-0.105E+01,-0.105E+01]  d Ewald  = 0.7710604E+01-0.876E+01

[...]

 d Force = 0.7690033E-03[ 0.262E-03, 0.128E-02]  d Energy = 0.9400174E-03-0.171E-03
 d Force = 0.2895826E+01[ 0.290E+01, 0.290E+01]  d Ewald  =-0.7495820E+00 0.365E+01

[...]

 d Force = 0.3009305E-04[-0.331E-04, 0.932E-04]  d Energy = 0.7355554E-04-0.435E-04
 d Force = 0.1029802E+01[ 0.103E+01, 0.103E+01]  d Ewald  =-0.2654849E+00 0.130E+01

[...]

 d Force =-0.1028518E-03[-0.177E-03,-0.288E-04]  d Energy =-0.1113949E-01 0.110E-01
 d Force = 0.8976594E+00[ 0.896E+00, 0.899E+00]  d Ewald  = 0.1365850E+02-0.128E+02

 Conjugate gradient step on ions:
 trial-energy change:    0.011139  1 .order    0.001132   -0.001221    0.003486
  (g-gl).g = 0.606E-03      g.g   = 0.124E-02  gl.gl    = 0.173E-02
 g(Force)  = 0.668E-05   g(Stress)= 0.123E-02 ortho     = 0.263E-03
 gamma     =   0.35042
 trial     =   0.91777
 opt step  =   0.23809  (harmonic =   0.23809) maximal distance =0.00045240
 next E    =   -37.314898   (d E  =  -0.00016)

[...]

 d Force = 0.8577940E-04[ 0.408E-04, 0.131E-03]  d Energy = 0.4719222E-01-0.471E-01
 d Force =-0.6630791E+00[-0.664E+00,-0.662E+00]  d Ewald  =-0.1010971E+02 0.945E+01

[...]

 d Force =-0.3521541E-04[-0.500E-04,-0.205E-04]  d Energy =-0.4562711E-01 0.456E-01
 d Force = 0.3326904E+00[ 0.333E+00, 0.333E+00]  d Ewald  = 0.5066315E+01-0.473E+01

[...]

 d Force = 0.1881946E-04[ 0.139E-04, 0.238E-04]  d Energy =-0.6960150E-02 0.698E-02
 d Force =-0.1581495E+00[-0.158E+00,-0.158E+00]  d Ewald  =-0.1359259E+01 0.120E+01

 Steepest descent step on ions:
 trial-energy change:    0.006960  1 .order   -0.001547   -0.001415   -0.001680
  (g-gl).g = 0.116E-01      g.g   = 0.856E-02  gl.gl    = 0.124E-02
 g(Force)  = 0.144E-03   g(Stress)= 0.842E-02 ortho     =-0.361E-02
 gamma     =   0.00000
 trial     =   0.16526
 opt step  =   0.66104  (harmonic =   0.66104) maximal distance =0.00123164
 next E    =   -37.312948   (d E  =  -0.00778)

[...]

 eigenvalue-minimisations  :  1072
 total energy-change (2. order) :-0.2939994E-02  (-0.1820982E-03)
 number of electron      64.0368466 magnetization       0.0624854
 augmentation part        2.1944373 magnetization       0.0563051

 Broyden mixing:
  rms(total) = 0.94605E-02    rms(broyden)= 0.94602E-02
  rms(prec ) = 0.11541E-01
  weight for this iteration     100.00

[...]

 Broyden mixing:
  rms(total) = 0.29236E-02    rms(broyden)= 0.25996E-02
  rms(prec ) = 0.33133E-02
  weight for this iteration     100.00
  WARNING: grid for Broyden might be to small

 eigenvalues of (default mixing * dielectric matrix)
  average eigenvalue GAMMA=   1.3445
  4.9622  4.9622  2.4386  1.5852  1.2798  1.2798  1.2674  0.8126  0.8126  0.1876
  0.7364  0.7364  0.5899  0.5899  0.2789  0.3075  0.0298

[...]

--------------------------------------- Iteration     16(  19)  ---------------------------------------

[...]

 eigenvalue-minimisations  :  1024
 total energy-change (2. order) : 0.1118191E-04  (-0.9861875E-04)
 number of electron      63.9988099 magnetization       0.0623241
 augmentation part        2.1864022 magnetization       0.0243609

 Free energy of the ion-electron system (eV)
  alpha Z        PSCENC =        20.88772544
  Ewald energy   TEWEN  =      6884.80532539
  -Hartree energ DENC   =     -9897.75989667
  -exchange      EXHF   =         0.00000000
  -V(xc)+E(xc)   XCENC  =      -136.07139337
  PAW double counting   =      2124.19116342    -1970.94952686
  entropy T*S    EENTRO =         0.00000000
  eigenvalues    EBANDS =      -395.83452359
  atomic energy  EATOM  =      3333.41834461
  Solvation  Ediel_sol  =         0.00000000
  free energy    TOTEN  =       -37.31278163 eV

  energy without entropy =      -37.31278163  energy(sigma->0) =      -37.31278163

 average (electrostatic) potential at core
  the test charge radii are     1.0452  0.9587  1.1897
  (the norm of the test charge is              1.0000)
       1 -47.5561       2 -47.5561       3 -91.3213       4 -91.3213       5 -96.2452
       6 -96.2452       7 -96.2452       8 -96.2452       9 -96.2452      10 -96.2452

 E-fermi :  -1.0190     XC(G=0):  -3.6652     alpha+bet : -3.5361

[...]

 spin component 2

[...]

 k-point     5 :      -0.4000    0.2000    0.0000
  band No.  band energies     occupation
      1     -15.2957      1.00000
      2     -13.6933      1.00000
      3     -13.5271      1.00000
      4     -13.3044      1.00000
      5     -12.7070      1.00000
      6     -12.6094      1.00000
      7     -11.2045      1.00000
      8      -9.8242      1.00000
      9      -7.0021      1.00000
     10      -6.6234      1.00000
     11      -6.4181      1.00000
     12      -5.9078      1.00000
     13      -5.6187      1.00000
     14      -5.0818      1.00000
     15      -4.8940      1.00000
     16      -4.5799      1.00000
     17      -4.5734      1.00000
     18      -4.4788      1.00000
     19      -4.3893      1.00000
     20      -4.0537      1.00000
     21      -4.0272      1.00000
     22      -3.6766      1.00000
     23      -3.1692      1.00000
     24      -2.8911      1.00000
     25      -2.8190      1.00000
     26      -2.7035      1.00000
     27      -2.4453      1.00000
     28      -2.4032      1.00000
     29      -2.2327      1.00000
     30      -2.2103      1.00000
     31      -2.1792      1.00000
     32      -1.2367      1.00000
     33      -1.0190      0.00000
     34      -0.8592      0.00000
     35      -0.5412      0.00000
     36      -0.1729      0.00000
     37      -0.1565      0.00000
     38       0.2805      0.00000
     39       0.8188      0.00000
     40       0.9656      0.00000
     41       1.4094      0.00000
     42       1.4542      0.00000
     43       2.9900      0.00000
     44       3.3046      0.00000
     45       3.3120      0.00000
     46       3.3154      0.00000
     47       3.5646      0.00000
     48       3.9949      0.00000

[...]

 soft charge-density along one line, spin component           2
         0         1         2         3         4         5         6         7         8         9
 total charge-density along one line

------------------------ aborting loop because EDIFF is reached ----------------------------------------

[...]

  FORCE on cell =-STRESS in cart. coord.  units (eV):
  Direction    XX          YY          ZZ          XY          YZ          ZX
  Alpha Z    20.88773    20.88773    20.88773
  Ewald    8886.93765  8886.93459-10889.07045    -0.00202    -0.00063    -0.00115
  Hartree  9466.45279  9466.45371 -9037.14612    -0.00019     0.00009     0.00015
  E(xc)    -270.16546  -270.16545  -270.41978     0.00004     0.00002     0.00002
  Local  -19278.90842-19278.90726 18958.31648     0.00187     0.00041     0.00076
  n-local   704.20965   706.13472   723.17302     0.78719     0.62845     0.41836
  augment   -85.22784   -85.22768   -93.26476     0.00007     0.00004     0.00005
  Kinetic   558.96342   551.23639   587.47086    -4.84327    -0.25713    -0.84926
  Fock        0.00000     0.00000     0.00000     0.00000     0.00000     0.00000
  Total       0.24813     0.24813    -0.05303     0.00000     0.00000     0.00000
  in kB       0.48940     0.48940    -0.10459     0.00000     0.00000     0.00000

 VOLUME and BASIS-vectors are now :
  energy-cutoff  :      520.00
  volume of cell :      812.30
      direct lattice vectors                 reciprocal lattice vectors
     6.766664026  0.000000181 -0.000000000     0.147783311 -0.085322722 -0.000000000
     3.383331391  5.860102696 -0.000000000    -0.000000005  0.170645476 -0.000000000
     0.000000000  0.000000000 20.485095716     0.000000000  0.000000000  0.048815979

  length of vectors
     6.766664026  6.766663499 20.485095716     0.170645463  0.170645476  0.048815979

 FORCES acting on ions
    electron-ion (+dipol)            ewald-force                    non-local-force                 convergence-correction
   0.864E-04 0.394E-04 0.127E+01   0.676E-03 0.403E-03 -.129E+01   0.521E-17 0.347E-17 0.243E-01   -.889E-08 -.582E-08 0.624E-04
   -.864E-04 -.394E-04 -.127E+01   -.676E-03 -.403E-03 0.129E+01   -.762E-20 -.674E-21 -.243E-01   0.889E-08 0.582E-08 -.624E-04
   -.460E-04 -.193E-04 0.255E+03   -.187E-03 -.103E-03 -.258E+03   0.799E-17 -.138E-16 0.334E+01   -.326E-09 0.342E-09 0.204E-01
   0.460E-04 0.193E-04 -.255E+03   0.187E-03 0.103E-03 0.258E+03   0.589E-17 0.138E-16 -.334E+01   0.326E-09 -.342E-09 -.204E-01
   -.180E+02 0.141E+00 -.416E+03   0.157E+02 -.138E+00 0.420E+03   0.163E+01 -.125E-01 -.399E+01   -.457E-02 -.429E-05 -.369E-01
   0.912E+01 0.155E+02 -.416E+03   -.795E+01 -.135E+02 0.420E+03   -.826E+00 -.141E+01 -.399E+01   0.228E-02 0.396E-02 -.369E-01
   0.887E+01 -.157E+02 -.416E+03   -.771E+01 0.136E+02 0.420E+03   -.804E+00 0.142E+01 -.399E+01   0.229E-02 -.395E-02 -.369E-01
   0.180E+02 -.141E+00 0.416E+03   -.157E+02 0.138E+00 -.420E+03   -.163E+01 0.125E-01 0.399E+01   0.457E-02 0.429E-05 0.369E-01
   -.912E+01 -.155E+02 0.416E+03   0.795E+01 0.135E+02 -.420E+03   0.826E+00 0.141E+01 0.399E+01   -.228E-02 -.396E-02 0.369E-01
   -.887E+01 0.157E+02 0.416E+03   0.771E+01 -.136E+02 -.420E+03   0.804E+00 -.142E+01 0.399E+01   -.229E-02 0.395E-02 0.369E-01
   0.405E-10 0.482E-10 0.192E-09   -.133E-13 0.888E-14 0.227E-12   0.444E-15 0.000E+00 0.888E-15   0.279E-13 -.289E-13 0.696E-11

 POSITION                                       TOTAL-FORCE (eV/Angst)
      3.38333      1.95337     10.24062         0.000000      0.000000     -0.000977
      6.76667      3.90674     10.24448         0.000000      0.000000      0.000977
      0.00000      0.00000      9.12030         0.000000      0.000000     -0.026570
      0.00000      0.00000     11.36479         0.000000      0.000000      0.026570
      4.23977      0.00246     11.75336        -0.714728     -0.008908      0.026101
      1.26558      2.18713     11.75336         0.349649      0.623426      0.026101
      4.64465      3.67052     11.75336         0.365078     -0.614518      0.026101
      5.91023      5.85764      8.73173         0.714728      0.008908     -0.026101
      8.88441      3.67297      8.73173        -0.349649     -0.623426     -0.026101
      5.50534      2.18959      8.73173        -0.365078      0.614518     -0.026101
    total drift:                                0.000000      0.000000      0.000000

  FREE ENERGIE OF THE ION-ELECTRON SYSTEM (eV)
  free  energy   TOTEN  =       -37.31278163 eV

  energy  without entropy=      -37.31278163  energy(sigma->0) =      -37.31278163

 d Force =-0.3705533E-05[-0.490E-04, 0.416E-04]  d Energy = 0.1457676E-01-0.146E-01
 d Force =-0.4747293E+00[-0.475E+00,-0.474E+00]  d Ewald  =-0.4070779E+01 0.360E+01

 reached required accuracy - stopping structural energy minimisation

 total charge

[...]

 magnetization (x)

# of ion       s       p       d       tot
    1        0.000   0.000   0.022   0.022
    2        0.000   0.000   0.022   0.022
    3        0.002   0.000   0.000   0.002
    4        0.002   0.000   0.000   0.002
    5        0.000   0.001   0.000   0.001
    6        0.000   0.001   0.000   0.002
    7        0.000   0.001   0.000   0.001
    8        0.000   0.001   0.000   0.001
    9        0.000   0.001   0.000   0.002
   10        0.000   0.001   0.000   0.001
tot          0.005   0.006   0.045   0.057

 BZINTS: Fermi energy: -1.018952; 63.998980 electrons
         Band energy:-395.834524;  BLOECHL correction: -0.016984