 vasp.5.4.4.18Apr17-6-g9f103f2a35 (build May  1 2020 15:48:39) complex
 executed on             LinuxGNU date 2020.07.02  15:15:26

 INCAR:
 POTCAR:   PAW_PBE Cr 06Sep2000
 POTCAR:    PAW_PBE P 17Jan2003
 POTCAR:    PAW_PBE S 17Jan2003

 POTCAR:   PAW_PBE Cr 06Sep2000
   VRHFIN =Cr : d5 s1

   TITEL  = PAW_PBE Cr 06Sep2000
   POMASS =   51.996; ZVAL   =    6.000    mass and valenz
   ENMAX  =  227.082; ENMIN  =  170.311 eV
   QCUT   =   -4.085; QGAM   =    8.171    optimization parameters

   Description
     l     E      TYP  RCUT    TYP  RCUT
     2   .000     23  2.500
     2   .000     23  2.500
     0   .000     23  2.500
     0   .000     23  2.500
     1  -.400     23  2.500
     1  2.000     23  2.500
     3   .000      7   .000

 POTCAR:    PAW_PBE P 17Jan2003
   VRHFIN =P : s2p3

   TITEL  = PAW_PBE P 17Jan2003
   POMASS =   30.974; ZVAL   =    5.000    mass and valenz
   ENMAX  =  270.000; ENMIN  =  191.280 eV
   QCUT   =   -4.330; QGAM   =    8.659    optimization parameters

[...]

 POTCAR:    PAW_PBE S 17Jan2003
   VRHFIN =S : s2p4

   TITEL  = PAW_PBE S 17Jan2003
   POMASS =   32.066; ZVAL   =    6.000    mass and valenz
   ENMAX  =  280.000; ENMIN  =  194.016 eV
   QCUT   =   -4.360; QGAM   =    8.721    optimization parameters

   Description
     l     E      TYP  RCUT    TYP  RCUT
     0   .000     23  1.900
     0   .000     23  1.900
     1   .000     23  1.900
     1   .000     23  1.900
     2   .000     23  1.900

 Optimization of the real space projectors (new method)

 maximal supplied QI-value         = 15.12
 optimisation between [QCUT,QGAM] = [ 11.64, 23.28] = [ 37.95,151.78] Ry
 Optimized for a Real-space Cutoff    1.49 Angstroem

   l    n(q)    QCUT    max X(q) W(low)/X(q) W(high)/X(q)  e(spline)
   2      9    11.641     4.777    0.25E-04    0.21E-05    0.63E-07
   2      9    11.641    31.132    0.13E-03    0.22E-03    0.64E-06
   0     10    11.641    20.416    0.11E-04    0.74E-05    0.19E-07
   0     10    11.641    45.408    0.10E-03    0.85E-04    0.30E-06
   1     10    11.641     7.848    0.22E-04    0.23E-04    0.56E-07
   1     10    11.641     9.895    0.85E-04    0.54E-04    0.16E-06
 Optimization of the real space projectors (new method)

[...]

   l    n(q)    QCUT    max X(q) W(low)/X(q) W(high)/X(q)  e(spline)
   0      8    11.508     6.651    0.19E-04    0.31E-05    0.49E-08
   0      8    11.508    90.285    0.95E-04    0.17E-03    0.51E-07
   1      8    11.508     4.328    0.14E-04    0.32E-04    0.22E-07
   1      8    11.508    54.583    0.16E-03    0.71E-04    0.89E-07
 Optimization of the real space projectors (new method)

 maximal supplied QI-value         = 19.84
 optimisation between [QCUT,QGAM] = [ 11.51, 23.22] = [ 37.09,150.92] Ry
 Optimized for a Real-space Cutoff    1.21 Angstroem

   l    n(q)    QCUT    max X(q) W(low)/X(q) W(high)/X(q)  e(spline)
   0      8    11.508     5.487    0.18E-04    0.22E-05    0.47E-08
   0      8    11.508    85.627    0.96E-04    0.18E-03    0.54E-07
   1      8    11.508     3.530    0.17E-04    0.28E-04    0.21E-07
   1      8    11.508    42.714    0.18E-03    0.63E-04    0.92E-07

 PAW_PBE Cr 06Sep2000                   :
  PAW_PBE P 17Jan2003                   :
  PAW_PBE S 17Jan2003                   :

 POSCAR: Cr2 P2 S6
  positions in direct lattice
  velocities in cartesian coordinates
 exchange correlation table for  LEXCH =       42
   RHO(1)=    0.500       N(1)  =     2000
   RHO(2)=  100.500       N(2)  =     4000

 ion  position               nearest neighbor table
   1  0.333  0.333  0.500-   6 2.78   5 2.78   7 2.78   8 2.78  10 2.78   9 2.78
   2  0.667  0.667  0.500-   9 2.78   8 2.78  10 2.78   5 2.78   7 2.78   6 2.78
   3  0.000  0.000  0.448-   4 2.43   8 2.63  10 2.63   9 2.63
   4  0.000  0.000  0.552-   3 2.43   5 2.63   7 2.63   6 2.63
   5  0.626  0.000  0.574-   4 2.63   1 2.78   2 2.78
   6  0.000  0.373  0.574-   4 2.63   1 2.78   2 2.78
   7  0.373  0.626  0.574-   4 2.63   1 2.78   2 2.78
   8  0.374  1.000  0.426-   3 2.63   2 2.78   1 2.78
   9  1.000  0.627  0.426-   3 2.63   2 2.78   1 2.78
  10  0.627  0.374  0.426-   3 2.63   2 2.78   1 2.78

  LATTYP: Found a hexagonal cell.
 ALAT       =     6.9077769333
 C/A-ratio  =     3.3939410937

  Lattice vectors:

 A1 = (   3.4538890000,  -5.9823100000,   0.0000000000)
 A2 = (  -6.9077770000,   0.0000000000,   0.0000000000)
 A3 = (   0.0000000000,   0.0000000000, -23.4445880000)

Analysis of symmetry for initial positions (statically):
 Subroutine PRICEL returns:
 Original cell was already a primitive cell.

 Routine SETGRP: Setting up the symmetry group for a
 hexagonal supercell.

 Subroutine GETGRP returns: Found  6 space group operations
 (whereof  6 operations were pure point group operations)
 out of a pool of 24 trial point group operations.

The static configuration has the point symmetry S_6 .

Analysis of symmetry for dynamics (positions and initial velocities):
 Subroutine PRICEL returns:
 Original cell was already a primitive cell.

[...]

The dynamic configuration has the point symmetry S_6 .

Analysis of constrained symmetry for selective dynamics:
 Subroutine PRICEL returns:
 Original cell was already a primitive cell.

[...]

The constrained configuration has the point symmetry S_6 .

Analysis of structural, dynamic, and magnetic symmetry:
 Subroutine PRICEL returns:
 Original cell was already a primitive cell.

 Routine SETGRP: Setting up the symmetry group for a
 hexagonal supercell.

 Subroutine GETGRP returns: Found  6 space group operations
 (whereof  6 operations were pure point group operations)
 out of a pool of 24 trial point group operations.

The magnetic configuration has the point symmetry S_6 .

 Subroutine INISYM returns: Found  6 space group operations
 (whereof  6 operations are pure point group operations),
 and found     1 'primitive' translations

 KPOINTS: Kpoints from vasprun.xml

Automatic generation of k-mesh.
Space group operators:
 irot       det(A)        alpha          n_x          n_y          n_z        tau_x        tau_y        tau_z
    1     1.000000     0.000000     1.000000     0.000000     0.000000     0.000000     0.000000     0.000000
    2    -1.000000     0.000000     1.000000     0.000000     0.000000     0.000000     0.000000     0.000000
    3     1.000000   120.000000     0.000000     0.000000     1.000000     0.000000     0.000000     0.000000
    4    -1.000000   120.000000     0.000000     0.000000     1.000000     0.000000     0.000000     0.000000
    5     1.000000   120.000000     0.000000     0.000000    -1.000000     0.000000     0.000000     0.000000
    6    -1.000000   120.000000     0.000000     0.000000    -1.000000     0.000000     0.000000     0.000000

 Subroutine IBZKPT returns following result:

 Found      5 irreducible k-points:

 Following reciprocal coordinates:
            Coordinates               Weight
  0.000000  0.000000  0.000000      1.000000
  0.200000  0.000000  0.000000      6.000000
  0.400000  0.000000  0.000000      6.000000
  0.400000  0.200000  0.000000      6.000000
 -0.400000  0.200000  0.000000      6.000000

 Following cartesian coordinates:
            Coordinates               Weight
  0.000000  0.000000  0.000000      1.000000
  0.028953 -0.016716  0.000000      6.000000
  0.057906 -0.033432  0.000000      6.000000
  0.057906  0.000000  0.000000      6.000000
 -0.057906  0.066864  0.000000      6.000000

 TETIRR: Found     15 inequivalent tetrahedra from      150

 SYSTEM =  unknown system
 POSCAR =  Cr2 P2 S6

 Startparameter for this run:
   NWRITE =      2    write-flag & timer
   PREC   = accura    normal or accurate (medium, high low for compatibility)
   ISTART =      0    job   : 0-new  1-cont  2-samecut
   ICHARG =      2    charge: 1-file 2-atom 10-const
   ISPIN  =      2    spin polarized calculation?
   LNONCOLLINEAR =      F non collinear calculations
   LSORBIT =      F    spin-orbit coupling
   INIWAV =      1    electr: 0-lowe 1-rand  2-diag
   LASPH  =      F    aspherical Exc in radial PAW
   METAGGA=      F    non-selfconsistent MetaGGA calc.

 Electronic Relaxation 1
   ENCUT  =  520.0 eV  38.22 Ry    6.18 a.u.  12.84 12.84 43.59*2*pi/ulx,y,z
   ENINI  =  520.0     initial cutoff
   ENAUG  =  402.1 eV  augmentation charge cutoff
   NELM   =    400;   NELMIN=  2; NELMDL=  0     # of ELM steps
   EDIFF  = 0.1E-03   stopping-criterion for ELM
   LREAL  =      T    real-space projection
   NLSPLINE    = F    spline interpolate recip. space projectors
   LCOMPAT=      F    compatible to vasp.4.4
   GGA_COMPAT  = T    GGA compatible to vasp.4.4-vasp.4.6
   LMAXPAW     = -100 max onsite density
   LMAXMIX     =    2 max onsite mixed and CHGCAR
   VOSKOWN=      0    Vosko Wilk Nusair interpolation
   ROPT   =   -0.00025  -0.00025  -0.00025
 Ionic relaxation
   EDIFFG = 0.1E-02   stopping-criterion for IOM
   NSW    =     99    number of steps for IOM
   NBLOCK =      1;   KBLOCK =     99    inner block; outer block
   IBRION =      2    ionic relax: 0-MD 1-quasi-New 2-CG
   NFREE  =      1    steps in history (QN), initial steepest desc. (CG)
   ISIF   =      3    stress and relaxation
   IWAVPR =     11    prediction:  0-non 1-charg 2-wave 3-comb
   ISYM   =      2    0-nonsym 1-usesym 2-fastsym
   LCORR  =      T    Harris-Foulkes like correction to forces

   POTIM  = 0.5000    time-step for ionic-motion
   TEIN   =    0.0    initial temperature
   TEBEG  =    0.0;   TEEND  =   0.0 temperature during run
   SMASS  =  -3.00    Nose mass-parameter (am)
   estimated Nose-frequenzy (Omega)   =  0.10E-29 period in steps =****** mass=  -0.109E-26a.u.
   SCALEE = 1.0000    scale energy and forces
   NPACO  =    256;   APACO  = 16.0  distance and # of slots for P.C.
   PSTRESS=    0.0 pullay stress

  Mass of Ions in am
   POMASS =  52.00 30.97 32.07
  Ionic Valenz
   ZVAL   =   6.00  5.00  6.00
  Atomic Wigner-Seitz radii
  virtual crystal weights
   VCA    =   1.00  1.00  1.00
   NELECT =      58.0000    total number of electrons
   NUPDOWN=      -1.0000    fix difference up-down

 DOS related values:
   EMIN   =  10.00;   EMAX   =-10.00  energy-range for DOS
   EFERMI =   0.00
   ISMEAR =    -5;   SIGMA  =   0.05  broadening in eV -4-tet -1-fermi 0-gaus

 Electronic relaxation 2 (details)
   IALGO  =     38    algorithm
   LDIAG  =      T    sub-space diagonalisation (order eigenvalues)
   LSUBROT=      F    optimize rotation matrix (better conditioning)
   TURBO    =      0    0=normal 1=particle mesh
   IRESTART =      0    0=no restart 2=restart with 2 vectors
   NREBOOT  =      0    no. of reboots
   NMIN     =      0    reboot dimension
   EREF     =   0.00    reference energy to select bands
   IMIX   =      4    mixing-type and parameters
     AMIX     =   0.40;   BMIX     =  1.00
     AMIX_MAG =   1.60;   BMIX_MAG =  1.00
     AMIN     =   0.01
     WC   =   100.;   INIMIX=   1;  MIXPRE=   1;  MAXMIX= -45

 Intra band minimization:
   WEIMIN = 0.0010     energy-eigenvalue tresh-hold
   EBREAK =  0.63E-06  absolut break condition
   DEPER  =   0.30     relativ break condition

   TIME   =   0.40     timestep for ELM

  volume/ion in A,a.u.               =      96.88       653.80
[...]
   0.707E-04 0.471E-04 -.669E+00   -.323E-03 -.191E-03 0.652E+00   0.260E-17 0.000E+00 0.656E-02   0.970E-06 0.546E-06 -.187E-04
   -.254E-04 -.237E-04 0.211E+03   -.176E-03 -.973E-04 -.213E+03   -.347E-17 -.347E-17 0.228E+01   0.390E-07 0.617E-08 0.760E-02
   0.254E-04 0.237E-04 -.211E+03   0.176E-03 0.973E-04 0.213E+03   -.347E-17 0.347E-17 -.228E+01   -.390E-07 -.617E-08 -.760E-02
   0.270E+01 0.147E+00 -.352E+03   -.488E+01 -.141E+00 0.355E+03   0.282E+01 -.107E-01 -.554E+01   0.335E-01 0.716E-04 0.230E-01
   -.123E+01 -.242E+01 -.352E+03   0.232E+01 0.430E+01 0.355E+03   -.142E+01 -.244E+01 -.554E+01   -.167E-01 -.291E-01 0.230E-01
   -.148E+01 0.227E+01 -.352E+03   0.256E+01 -.416E+01 0.355E+03   -.140E+01 0.245E+01 -.554E+01   -.168E-01 0.290E-01 0.230E-01
   -.270E+01 -.147E+00 0.352E+03   0.488E+01 0.141E+00 -.355E+03   -.282E+01 0.107E-01 0.554E+01   -.335E-01 -.716E-04 -.230E-01
   0.123E+01 0.242E+01 0.352E+03   -.232E+01 -.430E+01 -.355E+03   0.142E+01 0.244E+01 0.554E+01   0.167E-01 0.291E-01 -.230E-01
   0.148E+01 -.227E+01 0.352E+03   -.256E+01 0.416E+01 -.355E+03   0.140E+01 -.245E+01 0.554E+01   0.168E-01 -.290E-01 -.230E-01
   -.102E-09 -.165E-09 -.631E-10   0.888E-14 0.533E-14 0.568E-13   -.444E-15 0.000E+00 0.178E-14   0.143E-13 -.205E-13 -.469E-11

 POSITION                                       TOTAL-FORCE (eV/Angst)
      3.45388      1.99410     11.72054        -0.000000      0.000000      0.010092
      6.90778      3.98821     11.72405         0.000000      0.000000     -0.010092
      0.00000      0.00000     10.50824         0.000000      0.000000      0.272159
      0.00000      0.00000     12.93635         0.000000      0.000000     -0.272159
      4.32819      0.00251     13.45138         0.681081     -0.004118     -1.843707
      1.29198      2.23274     13.45138        -0.344107     -0.587775     -1.843707
      4.74152      3.74706     13.45138        -0.336975      0.591893     -1.843707
      6.03348      5.97980      9.99321        -0.681081      0.004118      1.843707
      9.06969      3.74957      9.99321         0.344107      0.587775      1.843707
      5.62015      2.23525      9.99321         0.336975     -0.591893      1.843707
    total drift:                               -0.000000     -0.000000     -0.000000

  FREE ENERGIE OF THE ION-ELECTRON SYSTEM (eV)
  free  energy   TOTEN  =       -47.77954905 eV

  energy  without entropy=      -47.77954905  energy(sigma->0) =      -47.77954905

[...]

 d Force = 0.6151480E+00[ 0.217E+00, 0.101E+01]  d Energy = 0.6576300E+01-0.596E+01
 d Force =-0.2064484E+03[-0.235E+03,-0.177E+03]  d Ewald  =-0.1585449E+04 0.138E+04

 Steepest descent step on ions:
 trial-energy change:   -6.576300  1 .order   -5.344149   -9.769072   -0.919227
  (g-gl).g = 0.977E+01      g.g   = 0.977E+01  gl.gl    = 0.000E+00
 g(Force)  = 0.113E+01   g(Stress)= 0.864E+01 ortho     = 0.000E+00
 gamma     =   0.00000
 trial     =   1.00000
 opt step  =   1.05521  (harmonic =   1.10387) maximal distance =0.09385562
 next E    =   -54.381430   (d E  =  -6.60188)

[...]

 d Force = 0.1055376E-01[ 0.780E-02, 0.133E-01]  d Energy = 0.1930396E-01-0.875E-02
 d Force =-0.1440652E+02[-0.145E+02,-0.143E+02]  d Ewald  =-0.1067155E+03 0.923E+02

[...]

 d Force = 0.1377737E+00[ 0.414E-02, 0.271E+00]  d Energy = 0.1287238E+00 0.905E-02
 d Force = 0.1098663E+02[ 0.114E+02, 0.106E+02]  d Ewald  =-0.1202042E+03 0.131E+03

 Conjugate gradient step on ions:
 trial-energy change:   -0.128724  1 .order   -0.137369   -0.278759    0.004022
  (g-gl).g = 0.211E+00      g.g   = 0.274E+00  gl.gl    = 0.977E+01
 g(Force)  = 0.265E+00   g(Stress)= 0.966E-02 ortho     = 0.632E-01
 gamma     =   0.02161
 trial     =   1.01104
 opt step  =   0.99350  (harmonic =   0.99666) maximal distance =0.06741338
 next E    =   -54.503912   (d E  =  -0.12876)

[...]

 d Force =-0.1317178E-03[-0.185E-03,-0.786E-04]  d Energy =-0.9506511E-04-0.367E-04
 d Force =-0.1955983E+00[-0.195E+00,-0.196E+00]  d Ewald  = 0.2094142E+01-0.229E+01

[...]

 d Force = 0.4027194E-01[ 0.343E-01, 0.462E-01]  d Energy = 0.5259835E-01-0.123E-01
 d Force =-0.7777339E+01[-0.793E+01,-0.762E+01]  d Ewald  = 0.7754989E+02-0.853E+02

[...]

 d Force = 0.4470190E-01[ 0.158E-01, 0.736E-01]  d Energy = 0.4476381E-01-0.619E-04
 d Force =-0.1773512E+02[-0.185E+02,-0.170E+02]  d Ewald  = 0.1620830E+03-0.180E+03

[...]

 d Force = 0.8613229E-02[-0.688E-02, 0.241E-01]  d Energy = 0.1159080E-01-0.298E-02
 d Force =-0.6699167E+01[-0.682E+01,-0.658E+01]  d Ewald  =-0.8369671E+02 0.770E+02

 Conjugate gradient step on ions:
 trial-energy change:   -0.011591  1 .order   -0.010271   -0.046595    0.026054
  (g-gl).g = 0.264E-01      g.g   = 0.324E-01  gl.gl    = 0.513E-01
 g(Force)  = 0.131E-01   g(Stress)= 0.193E-01 ortho     =-0.213E-04
 gamma     =   0.51403
 trial     =   1.43846
 opt step  =   0.95750  (harmonic =   0.92260) maximal distance =0.01648591
 next E    =   -54.617041   (d E  =  -0.01590)

[...]

 d Force = 0.3909481E-03[-0.154E-02, 0.232E-02]  d Energy = 0.4080542E-02-0.369E-02
 d Force = 0.2285579E+01[ 0.227E+01, 0.230E+01]  d Ewald  = 0.2818010E+02-0.259E+02

[...]

 d Force = 0.6793258E-02[ 0.330E-02, 0.103E-01]  d Energy = 0.2047794E-01-0.137E-01
 d Force = 0.2303212E+02[ 0.232E+02, 0.229E+02]  d Ewald  =-0.1063475E+03 0.129E+03

 Conjugate gradient step on ions:
 trial-energy change:   -0.020478  1 .order   -0.014551   -0.018219   -0.010884
  (g-gl).g = 0.123E-01      g.g   = 0.139E-01  gl.gl    = 0.324E-01
 g(Force)  = 0.640E-02   g(Stress)= 0.753E-02 ortho     =-0.950E-03
 gamma     =   0.37988
 trial     =   1.34227
 opt step  =   3.33392  (harmonic =   3.33392) maximal distance =0.02898017
 next E    =   -54.639441   (d E  =  -0.02263)

[...]

 d Force = 0.2120921E-02[-0.660E-03, 0.490E-02]  d Energy = 0.6130481E-02-0.401E-02
 d Force = 0.3484375E+02[ 0.352E+02, 0.345E+02]  d Ewald  =-0.1589386E+03 0.194E+03

[...]

 Conjugate gradient step on ions:
 trial-energy change:   -0.000418  1 .order    0.000849   -0.022501    0.024199
  (g-gl).g = 0.800E-02      g.g   = 0.127E-01  gl.gl    = 0.139E-01
 g(Force)  = 0.686E-02   g(Stress)= 0.584E-02 ortho     = 0.191E-02
 gamma     =   0.57429
 trial     =   1.63030
 opt step  =   0.85173  (harmonic =   0.78551) maximal distance =0.00611159
 next E    =   -54.649482   (d E  =  -0.00606)

[...]

 d Force = 0.8535537E-03[-0.111E-02, 0.281E-02]  d Energy = 0.3458546E-02-0.260E-02
 d Force =-0.1332310E+02[-0.134E+02,-0.133E+02]  d Ewald  = 0.3656007E+02-0.499E+02

[...]

 d Force = 0.7604871E-03[-0.153E-02, 0.305E-02]  d Energy = 0.1084499E-02-0.324E-03
 d Force =-0.1073589E+02[-0.108E+02,-0.107E+02]  d Ewald  = 0.3321843E+02-0.440E+02

 Steepest descent step on ions:
 trial-energy change:   -0.001084  1 .order   -0.000913   -0.007632    0.005805
  (g-gl).g = 0.806E-02      g.g   = 0.518E-02  gl.gl    = 0.127E-01
 g(Force)  = 0.207E-02   g(Stress)= 0.310E-02 ortho     =-0.426E-02
 gamma     =   0.00000
 trial     =   1.47458
 opt step  =   0.83752  (harmonic =   0.83752) maximal distance =0.00288721
 next E    =   -54.649468   (d E  =  -0.00217)

[...]

 d Force = 0.2042612E-03[-0.255E-03, 0.664E-03]  d Energy = 0.1226547E-02-0.102E-02
 d Force = 0.4677322E+01[ 0.467E+01, 0.468E+01]  d Ewald  =-0.1436189E+02 0.190E+02

[...]

 d Force = 0.2352628E-03[ 0.214E-03, 0.257E-03]  d Energy = 0.7360466E-03-0.501E-03
 d Force = 0.1109786E+01[ 0.111E+01, 0.111E+01]  d Ewald  = 0.1841941E+02-0.173E+02

 Steepest descent step on ions:
 trial-energy change:   -0.000736  1 .order   -0.000430   -0.001958    0.001097
  (g-gl).g = 0.256E-02      g.g   = 0.145E-02  gl.gl    = 0.518E-02
 g(Force)  = 0.190E-03   g(Stress)= 0.126E-02 ortho     =-0.111E-02
 gamma     =   0.00000
 trial     =   1.34717
 opt step  =   0.86337  (harmonic =   0.86337) maximal distance =0.00100153
 next E    =   -54.650239   (d E  =  -0.00063)

[...]

 eigenvalue-minimisations  :   704
 total energy-change (2. order) : 0.1088452E-03  (-0.2216815E-04)
 number of electron      58.0000003 magnetization       6.4069499
 augmentation part       -0.7388908 magnetization       4.1173033

 Broyden mixing:
  rms(total) = 0.52067E-02    rms(broyden)= 0.52067E-02
  rms(prec ) = 0.56079E-02
  weight for this iteration     100.00

 eigenvalues of (default mixing * dielectric matrix)
  average eigenvalue GAMMA=   1.1741
  1.7451  0.6030

[...]

--------------------------------------- Iteration     17(   4)  ---------------------------------------

[...]

 eigenvalue-minimisations  :   896
 total energy-change (2. order) :-0.3098940E-04  (-0.4800724E-04)
 number of electron      58.0000003 magnetization       6.4069499
 augmentation part       -0.7388908 magnetization       4.1173033

 Free energy of the ion-electron system (eV)
  alpha Z        PSCENC =        29.07769156
  Ewald energy   TEWEN  =      8362.94150729
  -Hartree energ DENC   =    -10661.35548152
  -exchange      EXHF   =         0.00000000
  -V(xc)+E(xc)   XCENC  =        44.19233927
  PAW double counting   =      1257.61461106    -1179.02408523
  entropy T*S    EENTRO =         0.00000000
  eigenvalues    EBANDS =      -484.57076832
  atomic energy  EATOM  =      2576.47363623
  Solvation  Ediel_sol  =         0.00000000
  free energy    TOTEN  =       -54.65054966 eV

  energy without entropy =      -54.65054966  energy(sigma->0) =      -54.65054966

 average (electrostatic) potential at core
  the test charge radii are     1.1394  0.9587  0.9698
  (the norm of the test charge is              1.0000)
       1 -50.7458       2 -50.7458       3 -93.0730       4 -93.0730       5 -94.3148
       6 -94.3148       7 -94.3147       8 -94.3148       9 -94.3148      10 -94.3147

 E-fermi :  -1.5935     XC(G=0):  -3.6588     alpha+bet : -3.1240

[...]

 spin component 2

[...]

 k-point     5 :      -0.4000    0.2000    0.0000
  band No.  band energies     occupation
      1     -18.3632      1.00000
      2     -17.0960      1.00000
      3     -16.3249      1.00000
      4     -16.0367      1.00000
      5     -15.7615      1.00000
      6     -15.6715      1.00000
      7     -12.4834      1.00000
      8     -11.1125      1.00000
      9      -8.7354      1.00000
     10      -8.4489      1.00000
     11      -8.3808      1.00000
     12      -8.0052      1.00000
     13      -7.5782      1.00000
     14      -6.6171      1.00000
     15      -6.1467      1.00000
     16      -6.0323      1.00000
     17      -5.8300      1.00000
     18      -5.7976      1.00000
     19      -5.7922      1.00000
     20      -5.4505      1.00000
     21      -4.9265      1.00000
     22      -4.7236      1.00000
     23      -4.4702      1.00000
     24      -4.3368      1.00000
     25      -4.3179      1.00000
     26      -2.4749      1.00000
     27      -1.5184      0.00000
     28      -1.1813      0.00000
     29      -1.1331      0.00000
     30      -0.4723      0.00000
     31      -0.2857      0.00000
     32      -0.2508      0.00000
     33      -0.2319      0.00000
     34      -0.0562      0.00000
     35       0.2670      0.00000
     36       0.5452      0.00000
     37       0.7248      0.00000
     38       0.9625      0.00000
     39       1.1202      0.00000
     40       1.5266      0.00000

[...]

 soft charge-density along one line, spin component           2
         0         1         2         3         4         5         6         7         8         9
 total charge-density along one line

------------------------ aborting loop because EDIFF is reached ----------------------------------------

[...]

  FORCE on cell =-STRESS in cart. coord.  units (eV):
  Direction    XX          YY          ZZ          XY          YZ          ZX
  Alpha Z    29.07769    29.07769    29.07769
  Ewald   10147.70763 10147.70412-11932.47270    -0.00104    -0.00051    -0.00092
  Hartree 10487.38187 10487.38210-10312.86373     0.00005     0.00004     0.00006
  E(xc)    -219.11088  -219.11089  -219.05297     0.00002     0.00000     0.00001
  Local  -21577.96213-21577.96058 21251.90075     0.00051     0.00026     0.00047
  n-local   524.01613   526.71525   531.33486     1.44215     0.75625     0.73431
  augment   -64.24788   -64.24785   -68.95451     0.00003     0.00006    -0.00000
  Kinetic   676.30919   667.29855   720.97654    -5.24966    -1.84098    -2.01213
  Fock        0.00000     0.00000     0.00000     0.00000     0.00000     0.00000
  Total       0.01500     0.01500    -0.05406    -0.00000     0.00000     0.00000
  in kB       0.03665     0.03665    -0.13209    -0.00000     0.00000     0.00000

 VOLUME and BASIS-vectors are now :
  energy-cutoff  :      520.00
  volume of cell :      655.74
      direct lattice vectors                 reciprocal lattice vectors
     5.950426131  0.000000112  0.000000000     0.168055193 -0.097026701 -0.000000000
     2.975212676  5.153220035  0.000000000    -0.000000004  0.194053428  0.000000000
     0.000000000 -0.000000000 21.384881964    -0.000000000  0.000000000  0.046762007

  length of vectors
     5.950426131  5.950425800 21.384881964     0.194053417  0.194053428  0.046762007

 FORCES acting on ions
    electron-ion (+dipol)            ewald-force                    non-local-force                 convergence-correction
   -.189E-03 -.109E-03 0.477E+00   0.450E-03 0.260E-03 -.479E+00   -.347E-17 0.430E-18 0.995E-02   0.286E-07 0.156E-07 -.114E-04
   0.189E-03 0.109E-03 -.477E+00   -.450E-03 -.260E-03 0.479E+00   0.130E-17 0.437E-18 -.995E-02   -.286E-07 -.156E-07 0.114E-04
   -.469E-04 -.226E-04 0.289E+03   -.284E-03 -.159E-03 -.288E+03   -.394E-17 0.191E-17 -.363E+00   0.317E-07 0.730E-08 -.814E-02
   0.469E-04 0.226E-04 -.289E+03   0.284E-03 0.159E-03 0.288E+03   0.377E-17 -.197E-17 0.363E+00   -.317E-07 -.730E-08 0.814E-02
   0.278E+02 -.555E-01 -.478E+03   -.311E+02 0.597E-01 0.481E+03   0.334E+01 -.485E-02 -.329E+01   0.606E-02 0.161E-04 0.179E-01
   -.139E+02 -.240E+02 -.478E+03   0.156E+02 0.269E+02 0.481E+03   -.167E+01 -.289E+01 -.329E+01   -.302E-02 -.526E-02 0.179E-01
   -.138E+02 0.241E+02 -.478E+03   0.155E+02 -.270E+02 0.481E+03   -.166E+01 0.289E+01 -.329E+01   -.304E-02 0.524E-02 0.179E-01
   -.278E+02 0.555E-01 0.478E+03   0.311E+02 -.597E-01 -.481E+03   -.334E+01 0.485E-02 0.329E+01   -.606E-02 -.161E-04 -.179E-01
   0.139E+02 0.240E+02 0.478E+03   -.156E+02 -.269E+02 -.481E+03   0.167E+01 0.289E+01 0.329E+01   0.302E-02 0.526E-02 -.179E-01
   0.138E+02 -.241E+02 0.478E+03   -.155E+02 0.270E+02 -.481E+03   0.166E+01 -.289E+01 0.329E+01   0.304E-02 -.524E-02 -.179E-01
   0.840E-10 0.128E-09 -.419E-11   -.711E-14 0.355E-14 0.227E-12   0.222E-15 0.000E+00 0.888E-15   0.264E-12 0.956E-13 0.228E-10

 POSITION                                       TOTAL-FORCE (eV/Angst)
      2.97521      1.71774     10.69084         0.000000      0.000000      0.008342
      5.95043      3.43548     10.69404         0.000000      0.000000     -0.008342
      0.00000     -0.00000      9.57837         0.000000      0.000000      0.015265
      0.00000     -0.00000     11.80651         0.000000      0.000000     -0.015265
      3.88627      0.00063     12.20171         0.026107      0.000210     -0.012294
      1.03263      1.78730     12.20171        -0.012872     -0.022714     -0.012294
      4.00675      3.36530     12.20171        -0.013235      0.022504     -0.012294
      5.03936      5.15259      9.18317        -0.026107     -0.000210      0.012294
      7.89301      3.36592      9.18317         0.012872      0.022714      0.012294
      4.91889      1.78792      9.18317         0.013235     -0.022504      0.012294
    total drift:                                0.000000      0.000000      0.000000

  FREE ENERGIE OF THE ION-ELECTRON SYSTEM (eV)
  free  energy   TOTEN  =       -54.65054966 eV

  energy  without entropy=      -54.65054966  energy(sigma->0) =      -54.65054966

 d Force =-0.7341690E-04[-0.703E-04,-0.765E-04]  d Energy = 0.2020210E-03-0.275E-03
 d Force =-0.3967204E+00[-0.397E+00,-0.396E+00]  d Ewald  =-0.6605004E+01 0.621E+01

 reached required accuracy - stopping structural energy minimisation

 total charge

[...]

 magnetization (x)

# of ion       s       p       d       tot
    1        0.030   0.034   2.956   3.021
    2        0.030   0.034   2.956   3.021
    3       -0.001   0.042   0.000   0.041
    4       -0.001   0.042   0.000   0.041
    5        0.007  -0.040   0.000  -0.033
    6        0.004  -0.037   0.000  -0.033
    7        0.005  -0.037   0.000  -0.032
    8        0.007  -0.040   0.000  -0.033
    9        0.004  -0.037   0.000  -0.033
   10        0.005  -0.037   0.000  -0.032
tot          0.088  -0.075   5.912   5.926

 BZINTS: Fermi energy: -1.593472; 58.000000 electrons
         Band energy:-484.570768;  BLOECHL correction: -0.042976