 vasp.5.4.4.18Apr17-6-g9f103f2a35 (build May  1 2020 15:48:39) complex
 executed on             LinuxGNU date 2020.07.02  09:24:00

 INCAR:
 POTCAR:   PAW_PBE Cr 06Sep2000
 POTCAR:   PAW_PBE Si 05Jan2001
 POTCAR:    PAW_PBE P 17Jan2003
 POTCAR:    PAW_PBE S 17Jan2003

 POTCAR:   PAW_PBE Cr 06Sep2000
   VRHFIN =Cr : d5 s1

   TITEL  = PAW_PBE Cr 06Sep2000
   POMASS =   51.996; ZVAL   =    6.000    mass and valenz
   ENMAX  =  227.082; ENMIN  =  170.311 eV
   QCUT   =   -4.085; QGAM   =    8.171    optimization parameters

   Description
     l     E      TYP  RCUT    TYP  RCUT
     2   .000     23  2.500
     2   .000     23  2.500
     0   .000     23  2.500
     0   .000     23  2.500
     1  -.400     23  2.500
     1  2.000     23  2.500
     3   .000      7   .000

 POTCAR:   PAW_PBE Si 05Jan2001
   VRHFIN =Si: s2p2

   TITEL  = PAW_PBE Si 05Jan2001
   POMASS =   28.085; ZVAL   =    4.000    mass and valenz
   ENMAX  =  245.345; ENMIN  =  184.009 eV
   QCUT   =   -4.246; QGAM   =    8.493    optimization parameters

[...]

 POTCAR:    PAW_PBE P 17Jan2003
   VRHFIN =P : s2p3

[...]

 POTCAR:    PAW_PBE S 17Jan2003
   VRHFIN =S : s2p4

   TITEL  = PAW_PBE S 17Jan2003
   POMASS =   32.066; ZVAL   =    6.000    mass and valenz
   ENMAX  =  280.000; ENMIN  =  194.016 eV
   QCUT   =   -4.360; QGAM   =    8.721    optimization parameters

   Description
     l     E      TYP  RCUT    TYP  RCUT
     0   .000     23  1.900
     0   .000     23  1.900
     1   .000     23  1.900
     1   .000     23  1.900
     2   .000     23  1.900

 Optimization of the real space projectors (new method)

 maximal supplied QI-value         = 15.12
 optimisation between [QCUT,QGAM] = [ 11.64, 23.28] = [ 37.95,151.78] Ry
 Optimized for a Real-space Cutoff    1.49 Angstroem

   l    n(q)    QCUT    max X(q) W(low)/X(q) W(high)/X(q)  e(spline)
   2      9    11.641     4.777    0.25E-04    0.21E-05    0.63E-07
   2      9    11.641    31.132    0.13E-03    0.22E-03    0.64E-06
   0     10    11.641    20.416    0.11E-04    0.74E-05    0.19E-07
   0     10    11.641    45.408    0.10E-03    0.85E-04    0.30E-06
   1     10    11.641     7.848    0.22E-04    0.23E-04    0.56E-07
   1     10    11.641     9.895    0.85E-04    0.54E-04    0.16E-06
 Optimization of the real space projectors (new method)

[...]

   l    n(q)    QCUT    max X(q) W(low)/X(q) W(high)/X(q)  e(spline)
   0      8    11.508     6.651    0.19E-04    0.31E-05    0.49E-08
   0      8    11.508    90.285    0.95E-04    0.17E-03    0.51E-07
   1      8    11.508     4.328    0.14E-04    0.32E-04    0.22E-07
   1      8    11.508    54.583    0.16E-03    0.71E-04    0.89E-07
 Optimization of the real space projectors (new method)

 maximal supplied QI-value         = 19.84
 optimisation between [QCUT,QGAM] = [ 11.51, 23.22] = [ 37.09,150.92] Ry
 Optimized for a Real-space Cutoff    1.21 Angstroem

   l    n(q)    QCUT    max X(q) W(low)/X(q) W(high)/X(q)  e(spline)
   0      8    11.508     5.487    0.18E-04    0.22E-05    0.47E-08
   0      8    11.508    85.627    0.96E-04    0.18E-03    0.54E-07
   1      8    11.508     3.530    0.17E-04    0.28E-04    0.21E-07
   1      8    11.508    42.714    0.18E-03    0.63E-04    0.92E-07

 PAW_PBE Cr 06Sep2000                   :
 PAW_PBE Si 05Jan2001                   :
  PAW_PBE P 17Jan2003                   :
  PAW_PBE S 17Jan2003                   :

 POSCAR: Cr2 Si P S6
  positions in direct lattice
  velocities in cartesian coordinates
 exchange correlation table for  LEXCH =       42
   RHO(1)=    0.500       N(1)  =     2000
   RHO(2)=  100.500       N(2)  =     4000

 ion  position               nearest neighbor table
   1  0.333  0.333  0.500-   6 2.78   5 2.78   7 2.78   8 2.78  10 2.78   9 2.78
   2  0.667  0.667  0.500-   9 2.78   8 2.78  10 2.78   5 2.78   7 2.78   6 2.78
   3  0.000  0.000  0.448-   4 2.43   8 2.63  10 2.63   9 2.63
   4  0.000  0.000  0.552-   3 2.43   5 2.63   7 2.63   6 2.63
   5  0.626  0.000  0.574-   4 2.63   1 2.78   2 2.78
   6  0.000  0.373  0.574-   4 2.63   1 2.78   2 2.78
   7  0.373  0.626  0.574-   4 2.63   1 2.78   2 2.78
   8  0.374  1.000  0.426-   3 2.63   2 2.78   1 2.78
   9  1.000  0.627  0.426-   3 2.63   2 2.78   1 2.78
  10  0.627  0.374  0.426-   3 2.63   2 2.78   1 2.78

  LATTYP: Found a hexagonal cell.
 ALAT       =     6.9077769333
 C/A-ratio  =     3.3939410937

  Lattice vectors:

 A1 = (   3.4538890000,  -5.9823100000,   0.0000000000)
 A2 = (  -6.9077770000,   0.0000000000,   0.0000000000)
 A3 = (   0.0000000000,   0.0000000000, -23.4445880000)

Analysis of symmetry for initial positions (statically):
 Subroutine PRICEL returns:
 Original cell was already a primitive cell.

 Routine SETGRP: Setting up the symmetry group for a
 hexagonal supercell.

 Subroutine GETGRP returns: Found  3 space group operations
 (whereof  3 operations were pure point group operations)
 out of a pool of 24 trial point group operations.

The static configuration has the point symmetry C_3 .

Analysis of symmetry for dynamics (positions and initial velocities):
 Subroutine PRICEL returns:
 Original cell was already a primitive cell.

[...]

The dynamic configuration has the point symmetry C_3 .

Analysis of constrained symmetry for selective dynamics:
 Subroutine PRICEL returns:
 Original cell was already a primitive cell.

[...]

The constrained configuration has the point symmetry C_3 .

Analysis of structural, dynamic, and magnetic symmetry:
 Subroutine PRICEL returns:
 Original cell was already a primitive cell.

 Routine SETGRP: Setting up the symmetry group for a
 hexagonal supercell.

 Subroutine GETGRP returns: Found  3 space group operations
 (whereof  3 operations were pure point group operations)
 out of a pool of 24 trial point group operations.

The magnetic configuration has the point symmetry C_3 .

 Subroutine INISYM returns: Found  3 space group operations
 (whereof  3 operations are pure point group operations),
 and found     1 'primitive' translations

 KPOINTS: Kpoints from vasprun.xml

Automatic generation of k-mesh.
Space group operators:
 irot       det(A)        alpha          n_x          n_y          n_z        tau_x        tau_y        tau_z
    1     1.000000     0.000000     1.000000     0.000000     0.000000     0.000000     0.000000     0.000000
    2     1.000000   120.000000     0.000000     0.000000     1.000000     0.000000     0.000000     0.000000
    3     1.000000   120.000000     0.000000     0.000000    -1.000000     0.000000     0.000000     0.000000

 Subroutine IBZKPT returns following result:

 Found      5 irreducible k-points:

 Following reciprocal coordinates:
            Coordinates               Weight
  0.000000  0.000000  0.000000      1.000000
  0.200000  0.000000  0.000000      6.000000
  0.400000  0.000000  0.000000      6.000000
  0.400000  0.200000  0.000000      6.000000
 -0.400000  0.200000  0.000000      6.000000

 Following cartesian coordinates:
            Coordinates               Weight
  0.000000  0.000000  0.000000      1.000000
  0.028953 -0.016716  0.000000      6.000000
  0.057906 -0.033432  0.000000      6.000000
  0.057906  0.000000  0.000000      6.000000
 -0.057906  0.066864  0.000000      6.000000

 TETIRR: Found     15 inequivalent tetrahedra from      150

 SYSTEM =  unknown system
 POSCAR =  Cr2 Si P S6

 Startparameter for this run:
   NWRITE =      2    write-flag & timer
   PREC   = accura    normal or accurate (medium, high low for compatibility)
   ISTART =      0    job   : 0-new  1-cont  2-samecut
   ICHARG =      2    charge: 1-file 2-atom 10-const
   ISPIN  =      2    spin polarized calculation?
   LNONCOLLINEAR =      F non collinear calculations
   LSORBIT =      F    spin-orbit coupling
   INIWAV =      1    electr: 0-lowe 1-rand  2-diag
   LASPH  =      F    aspherical Exc in radial PAW
   METAGGA=      F    non-selfconsistent MetaGGA calc.

 Electronic Relaxation 1
   ENCUT  =  520.0 eV  38.22 Ry    6.18 a.u.  12.84 12.84 43.59*2*pi/ulx,y,z
   ENINI  =  520.0     initial cutoff
   ENAUG  =  402.1 eV  augmentation charge cutoff
   NELM   =    400;   NELMIN=  2; NELMDL=  0     # of ELM steps
   EDIFF  = 0.1E-03   stopping-criterion for ELM
   LREAL  =      T    real-space projection
   NLSPLINE    = F    spline interpolate recip. space projectors
   LCOMPAT=      F    compatible to vasp.4.4
   GGA_COMPAT  = T    GGA compatible to vasp.4.4-vasp.4.6
   LMAXPAW     = -100 max onsite density
   LMAXMIX     =    2 max onsite mixed and CHGCAR
   VOSKOWN=      0    Vosko Wilk Nusair interpolation
   ROPT   =   -0.00025  -0.00025  -0.00025  -0.00025
 Ionic relaxation
   EDIFFG = 0.1E-02   stopping-criterion for IOM
   NSW    =     99    number of steps for IOM
   NBLOCK =      1;   KBLOCK =     99    inner block; outer block
   IBRION =      2    ionic relax: 0-MD 1-quasi-New 2-CG
   NFREE  =      1    steps in history (QN), initial steepest desc. (CG)
   ISIF   =      3    stress and relaxation
   IWAVPR =     11    prediction:  0-non 1-charg 2-wave 3-comb
   ISYM   =      2    0-nonsym 1-usesym 2-fastsym
   LCORR  =      T    Harris-Foulkes like correction to forces

   POTIM  = 0.5000    time-step for ionic-motion
   TEIN   =    0.0    initial temperature
   TEBEG  =    0.0;   TEEND  =   0.0 temperature during run
   SMASS  =  -3.00    Nose mass-parameter (am)
   estimated Nose-frequenzy (Omega)   =  0.10E-29 period in steps =****** mass=  -0.109E-26a.u.
   SCALEE = 1.0000    scale energy and forces
   NPACO  =    256;   APACO  = 16.0  distance and # of slots for P.C.
   PSTRESS=    0.0 pullay stress

  Mass of Ions in am
   POMASS =  52.00 28.09 30.97 32.07
  Ionic Valenz
   ZVAL   =   6.00  4.00  5.00  6.00
  Atomic Wigner-Seitz radii
  virtual crystal weights
   VCA    =   1.00  1.00  1.00  1.00
   NELECT =      57.0000    total number of electrons
   NUPDOWN=      -1.0000    fix difference up-down

 DOS related values:
   EMIN   =  10.00;   EMAX   =-10.00  energy-range for DOS
   EFERMI =   0.00
   ISMEAR =    -5;   SIGMA  =   0.05  broadening in eV -4-tet -1-fermi 0-gaus

 Electronic relaxation 2 (details)
   IALGO  =     38    algorithm
   LDIAG  =      T    sub-space diagonalisation (order eigenvalues)
   LSUBROT=      F    optimize rotation matrix (better conditioning)
   TURBO    =      0    0=normal 1=particle mesh
   IRESTART =      0    0=no restart 2=restart with 2 vectors
   NREBOOT  =      0    no. of reboots
   NMIN     =      0    reboot dimension
   EREF     =   0.00    reference energy to select bands
   IMIX   =      4    mixing-type and parameters
     AMIX     =   0.40;   BMIX     =  1.00
     AMIX_MAG =   1.60;   BMIX_MAG =  1.00
     AMIN     =   0.01
     WC   =   100.;   INIMIX=   1;  MIXPRE=   1;  MAXMIX= -45

 Intra band minimization:
   WEIMIN = 0.0010     energy-eigenvalue tresh-hold
   EBREAK =  0.63E-06  absolut break condition
   DEPER  =   0.30     relativ break condition

   TIME   =   0.40     timestep for ELM

  volume/ion in A,a.u.               =      96.88       653.80
  Fermi-wavevector in a.u.,A,eV,Ry     =   0.636722  1.203230  5.516004  0.405415
  Thomas-Fermi vector in A             =   1.701488

 Write flags
[...]
 total charge-density along one line

[...]

------------------------ aborting loop because EDIFF is reached ----------------------------------------

 total charge

# of ion       s       p       d       tot
    1        0.249   0.249   4.027   4.525
    2        0.249   0.248   4.027   4.524
    3        0.808   0.597   0.000   1.406
    4        1.148   1.129   0.000   2.277
    5        1.384   2.178   0.000   3.563
    6        1.380   2.172   0.000   3.551
    7        1.383   2.178   0.000   3.561
    8        1.376   2.198   0.000   3.574
    9        1.374   2.194   0.000   3.568
   10        1.376   2.196   0.000   3.572
tot         10.727  15.339   8.054  34.121

 magnetization (x)

[...]

  FORCE on cell =-STRESS in cart. coord.  units (eV):
  Direction    XX          YY          ZZ          XY          YZ          ZX
  Alpha Z    18.65692    18.65692    18.65692
  Ewald    7704.79684  7704.79469 -9187.98168    -0.00106    -0.00039    -0.00072
  Hartree  8172.40341  8172.40374 -7921.58780    -0.00006     0.00004     0.00006
  E(xc)    -206.31721  -206.31722  -205.74239     0.00002     0.00000     0.00001
  Local  -16769.39937-16769.39850 16185.20312     0.00087     0.00024     0.00046
  n-local   496.09833   496.83598   508.06800     0.27945     0.34912     0.38629
  augment   -60.87245   -60.87234   -64.48786    -0.00003    -0.00001     0.00004
  Kinetic   617.41533   615.09858   648.98521    -1.70278     0.63278     0.77677
  Fock        0.00000     0.00000     0.00000     0.00000     0.00000     0.00000
  Total     -28.00817   -28.00817   -18.88648     0.00000     0.00000     0.00000
  in kB     -46.31755   -46.31754   -31.23286     0.00000     0.00000     0.00000

 VOLUME and BASIS-vectors are now :
  energy-cutoff  :      520.00
  volume of cell :      968.84
      direct lattice vectors                 reciprocal lattice vectors
     6.907777000 -0.000000000  0.000000000     0.144764372 -0.083579742  0.000000000
     3.453888000  5.982310000  0.000000000     0.000000000  0.167159509 -0.000000000
     0.000000000  0.000000000 23.444588000    -0.000000000  0.000000000  0.042653767

[...]

 FORCES acting on ions
    electron-ion (+dipol)            ewald-force                    non-local-force                 convergence-correction
   -.771E-04 -.548E-04 0.631E+01   0.314E-03 0.187E-03 -.600E+01   -.347E-17 0.000E+00 -.834E-01   0.273E-05 0.161E-05 0.806E-02
   0.656E-04 0.489E-04 0.499E+01   -.314E-03 -.187E-03 -.471E+01   0.000E+00 0.000E+00 -.693E-01   -.279E-05 -.158E-05 0.706E-02
   -.149E-04 -.238E-04 0.174E+03   -.141E-03 -.779E-04 -.170E+03   0.208E-16 0.000E+00 -.330E+01   -.758E-06 -.405E-06 0.991E-03
   0.245E-04 0.229E-04 -.195E+03   0.176E-03 0.973E-04 0.197E+03   0.000E+00 0.000E+00 -.224E+01   0.113E-05 0.615E-06 0.135E-01
   0.123E+01 0.153E+00 -.342E+03   -.353E+01 -.143E+00 0.346E+03   0.294E+01 -.125E-01 -.600E+01   0.194E-01 -.336E-02 0.202E-01
   -.485E+00 -.115E+01 -.342E+03   0.164E+01 0.313E+01 0.346E+03   -.148E+01 -.254E+01 -.600E+01   -.126E-01 -.152E-01 0.202E-01
   -.752E+00 0.990E+00 -.342E+03   0.189E+01 -.298E+01 0.346E+03   -.146E+01 0.255E+01 -.600E+01   -.681E-02 0.185E-01 0.202E-01
   0.620E+01 -.154E+00 0.348E+03   -.308E+01 0.150E+00 -.352E+03   -.453E+01 0.139E-01 0.572E+01   -.146E-01 -.375E-02 -.282E-01
   -.323E+01 -.529E+01 0.348E+03   0.167E+01 0.259E+01 -.352E+03   0.228E+01 0.392E+01 0.572E+01   0.405E-02 0.145E-01 -.282E-01
   -.296E+01 0.545E+01 0.348E+03   0.141E+01 -.274E+01 -.352E+03   0.225E+01 -.393E+01 0.572E+01   0.105E-01 -.107E-01 -.282E-01
   0.181E-04 0.523E-05 0.653E+01   0.142E-13 0.533E-14 0.568E-13   0.000E+00 -.444E-15 -.654E+01   0.193E-06 0.539E-07 0.541E-02

 POSITION                                       TOTAL-FORCE (eV/Angst)
      3.45388      1.99410     11.72054         0.000000      0.000000      0.239924
      6.90778      3.98821     11.72405         0.000000      0.000000      0.221476
      0.00000      0.00000     10.50824         0.000000      0.000000      0.331007
      0.00000      0.00000     12.93635         0.000000      0.000000      0.185172
      4.32819      0.00251     13.45138         0.664990     -0.004714     -1.973732
      1.29198      2.23274     13.45138        -0.336577     -0.573542     -1.973732
      4.74152      3.74706     13.45138        -0.328413      0.578255     -1.973732
      6.03348      5.97980      9.99321        -1.425029      0.004855      1.647872
      9.06969      3.74957      9.99321         0.716720      1.231684      1.647872
      5.62015      2.23525      9.99321         0.708310     -1.236539      1.647872
    total drift:                                0.000018      0.000005      0.000052

  FREE ENERGIE OF THE ION-ELECTRON SYSTEM (eV)
  free  energy   TOTEN  =       -48.59094498 eV

  energy  without entropy=      -48.59094498  energy(sigma->0) =      -48.59094498

[...]

 d Force = 0.7029697E+00[ 0.220E+00, 0.119E+01]  d Energy = 0.7347600E+01-0.664E+01
 d Force =-0.1963117E+03[-0.226E+03,-0.167E+03]  d Ewald  =-0.1737407E+04 0.154E+04

 Steepest descent step on ions:
 trial-energy change:   -7.347600  1 .order   -5.805713  -10.611334   -1.000091
  (g-gl).g = 0.106E+02      g.g   = 0.106E+02  gl.gl    = 0.000E+00
 g(Force)  = 0.132E+01   g(Stress)= 0.929E+01 ortho     = 0.000E+00
 gamma     =   0.00000
 trial     =   1.00000
 opt step  =   1.05171  (harmonic =   1.10405) maximal distance =0.08360845
 next E    =   -55.964615   (d E  =  -7.37367)

[...]

 d Force = 0.9527223E-02[ 0.605E-02, 0.130E-01]  d Energy = 0.2878913E-01-0.193E-01
 d Force =-0.1289766E+02[-0.130E+02,-0.128E+02]  d Ewald  =-0.1113855E+03 0.985E+02

[...]

 d Force = 0.7757861E-01[-0.217E-01, 0.177E+00]  d Energy = 0.9810895E-01-0.205E-01
 d Force = 0.3541828E+02[ 0.352E+02, 0.356E+02]  d Ewald  =-0.1918022E+03 0.227E+03

 Conjugate gradient step on ions:
 trial-energy change:   -0.098109  1 .order   -0.086217   -0.210899    0.038465
  (g-gl).g = 0.200E+00      g.g   = 0.209E+00  gl.gl    = 0.106E+02
 g(Force)  = 0.173E+00   g(Stress)= 0.359E-01 ortho     = 0.902E-02
 gamma     =   0.01881
 trial     =   1.01034
 opt step  =   0.88575  (harmonic =   0.85449) maximal distance =0.03962350
 next E    =   -56.067793   (d E  =  -0.10046)

[...]

 d Force = 0.1212837E-02[-0.173E-03, 0.260E-02]  d Energy = 0.2432402E-02-0.122E-02
 d Force =-0.4289664E+01[-0.429E+01,-0.429E+01]  d Ewald  = 0.2387908E+02-0.282E+02

[...]

 d Force = 0.3447003E-01[ 0.138E-01, 0.551E-01]  d Energy = 0.4111503E-01-0.664E-02
 d Force = 0.1848142E+02[ 0.183E+02, 0.186E+02]  d Ewald  = 0.7574474E+02-0.573E+02

 Conjugate gradient step on ions:
 trial-energy change:   -0.041115  1 .order   -0.039087   -0.068644   -0.009530
  (g-gl).g = 0.827E-01      g.g   = 0.755E-01  gl.gl    = 0.209E+00
 g(Force)  = 0.552E-01   g(Stress)= 0.203E-01 ortho     =-0.146E-01
 gamma     =   0.39660
 trial     =   0.98542
 opt step  =   1.11429  (harmonic =   1.14429) maximal distance =0.03203659
 next E    =   -56.109618   (d E  =  -0.04174)

[...]

 d Force = 0.1588887E-02[ 0.137E-02, 0.180E-02]  d Energy = 0.9923767E-03 0.597E-03
 d Force = 0.2388742E+01[ 0.239E+01, 0.239E+01]  d Ewald  = 0.9817939E+01-0.743E+01

[...]

 d Force = 0.2085538E-02[-0.408E-02, 0.825E-02]  d Energy = 0.2226947E-02-0.141E-03
 d Force =-0.1345842E+02[-0.135E+02,-0.134E+02]  d Ewald  = 0.8276790E+01-0.217E+02

 Conjugate gradient step on ions:
 trial-energy change:   -0.002227  1 .order   -0.003656   -0.013040    0.005727
  (g-gl).g = 0.929E-03      g.g   = 0.128E-01  gl.gl    = 0.755E-01
 g(Force)  = 0.807E-02   g(Stress)= 0.478E-02 ortho     = 0.435E-02
 gamma     =   0.01231
 trial     =   1.01120
 opt step  =   0.59032  (harmonic =   0.70261) maximal distance =0.00943829
 next E    =   -56.113505   (d E  =  -0.00352)

[...]

 eigenvalue-minimisations  :  1104
 total energy-change (2. order) : 0.2098812E-03  (-0.1087150E-03)
 number of electron      56.9999998 magnetization       5.3260512
 augmentation part       -0.5244570 magnetization       3.8393236

 Broyden mixing:
  rms(total) = 0.25441E-02    rms(broyden)= 0.25441E-02
  rms(prec ) = 0.28863E-02
  weight for this iteration     100.00

 eigenvalues of (default mixing * dielectric matrix)
  average eigenvalue GAMMA=   1.0087
  1.7529  0.8626  0.4106

[...]

--------------------------------------- Iteration      9(   5)  ---------------------------------------

[...]

 eigenvalue-minimisations  :   720
 total energy-change (2. order) :-0.5210998E-04  (-0.1218925E-04)
 number of electron      56.9999998 magnetization       5.3260512
 augmentation part       -0.5244570 magnetization       3.8393236

 Free energy of the ion-electron system (eV)
  alpha Z        PSCENC =        27.70161462
  Ewald energy   TEWEN  =      8147.93468444
  -Hartree energ DENC   =    -10388.03639055
  -exchange      EXHF   =         0.00000000
  -V(xc)+E(xc)   XCENC  =        30.70711416
  PAW double counting   =      1249.51519758    -1160.86586468
  entropy T*S    EENTRO =         0.00000000
  eigenvalues    EBANDS =      -466.35496396
  atomic energy  EATOM  =      2503.28425743
  Solvation  Ediel_sol  =         0.00000000
  free energy    TOTEN  =       -56.11435095 eV

  energy without entropy =      -56.11435095  energy(sigma->0) =      -56.11435095

 average (electrostatic) potential at core
  the test charge radii are     1.1394  0.9892  0.9587  0.9698
  (the norm of the test charge is              1.0000)
       1 -51.1818       2 -51.1842       3 -92.8244       4 -92.6373       5 -94.3661
       6 -94.3660       7 -94.3660       8 -93.9274       9 -93.9274      10 -93.9273

 E-fermi :  -1.8168     XC(G=0):  -3.6158     alpha+bet : -3.1687

[...]

 spin component 2

[...]

 k-point     5 :      -0.4000    0.2000    0.0000
  band No.  band energies     occupation
      1     -17.4801      1.00000
      2     -16.2175      1.00000
      3     -16.0790      1.00000
      4     -15.9022      1.00000
      5     -15.4820      1.00000
      6     -15.3348      1.00000
      7     -12.1376      1.00000
      8      -9.8451      1.00000
      9      -8.4449      1.00000
     10      -7.9846      1.00000
     11      -7.7734      1.00000
     12      -7.2846      1.00000
     13      -7.0072      1.00000
     14      -6.4437      1.00000
     15      -6.1070      1.00000
     16      -6.0535      1.00000
     17      -5.8806      1.00000
     18      -5.5281      1.00000
     19      -5.4390      1.00000
     20      -5.2615      1.00000
     21      -5.0625      1.00000
     22      -4.5843      1.00000
     23      -4.3747      1.00000
     24      -4.2401      1.00000
     25      -4.0877      1.00000
     26      -2.7252      1.00000
     27      -1.6556      0.00000
     28      -1.5159      0.00000
     29      -0.9827      0.00000
     30      -0.6968      0.00000
     31      -0.5540      0.00000
     32      -0.5505      0.00000
     33      -0.3292      0.00000
     34      -0.1752      0.00000
     35       0.2373      0.00000
     36       0.2616      0.00000
     37       0.5707      0.00000
     38       1.0504      0.00000
     39       1.3871      0.00000
     40       2.0290      0.00000

[...]

 soft charge-density along one line, spin component           2
         0         1         2         3         4         5         6         7         8         9
 total charge-density along one line

------------------------ aborting loop because EDIFF is reached ----------------------------------------

[...]

  FORCE on cell =-STRESS in cart. coord.  units (eV):
  Direction    XX          YY          ZZ          XY          YZ          ZX
  Alpha Z    27.70161    27.70161    27.70161
  Ewald    9882.35028  9882.34735-11616.76503    -0.00112    -0.00047    -0.00085
  Hartree 10218.44981 10218.45009-10047.98601    -0.00001     0.00004     0.00006
  E(xc)    -214.58074  -214.58075  -214.30618     0.00002     0.00000     0.00001
  Local  -21016.35077-21016.34965 20705.63122     0.00068     0.00024     0.00044
  n-local   509.60709   511.42683   517.30500     0.86828     0.74610     0.69172
  augment   -60.03833   -60.03829   -64.54880     0.00001     0.00001     0.00003
  Kinetic   655.72437   648.15061   692.89155    -4.38260    -0.41361    -0.77942
  Fock        0.00000     0.00000     0.00000     0.00000     0.00000     0.00000
  Total      -0.01443    -0.01443    -0.07663     0.00000     0.00000     0.00000
  in kB      -0.03542    -0.03542    -0.18817     0.00000     0.00000     0.00000

 VOLUME and BASIS-vectors are now :
  energy-cutoff  :      520.00
  volume of cell :      652.51
      direct lattice vectors                 reciprocal lattice vectors
     5.928624806  0.000000056 -0.000000000     0.168673181 -0.097383499  0.000000000
     2.964312069  5.134339510 -0.000000000    -0.000000002  0.194767020  0.000000000
    -0.000000000 -0.000000000 21.436114882     0.000000000  0.000000000  0.046650244

  length of vectors
     5.928624806  5.928624482 21.436114882     0.194767009  0.194767020  0.046650244

 FORCES acting on ions
    electron-ion (+dipol)            ewald-force                    non-local-force                 convergence-correction
   -.163E-03 -.894E-04 0.122E+02   0.432E-03 0.252E-03 -.126E+02   -.695E-17 -.454E-20 0.226E+00   0.728E-08 0.753E-11 0.174E-01
   0.157E-03 0.104E-03 0.112E+02   -.428E-03 -.250E-03 -.115E+02   0.693E-17 -.417E-20 0.208E+00   0.650E-07 0.393E-07 0.173E-01
   -.285E-04 -.266E-04 0.226E+03   -.210E-03 -.118E-03 -.222E+03   0.211E-16 0.753E-19 -.375E+01   0.668E-08 0.136E-07 -.285E-02
   0.519E-04 0.196E-04 -.290E+03   0.275E-03 0.154E-03 0.286E+03   -.384E-16 0.346E-16 0.398E+01   -.102E-07 -.137E-07 0.353E-01
   0.119E+02 -.376E-01 -.467E+03   -.162E+02 0.313E-01 0.471E+03   0.437E+01 -.698E-02 -.366E+01   0.215E-02 0.110E-01 0.457E-01
   -.596E+01 -.103E+02 -.467E+03   0.813E+01 0.140E+02 0.471E+03   -.219E+01 -.378E+01 -.366E+01   0.844E-02 -.736E-02 0.457E-01
   -.590E+01 0.103E+02 -.467E+03   0.807E+01 -.140E+02 0.471E+03   -.218E+01 0.379E+01 -.366E+01   -.106E-01 -.363E-02 0.457E-01
   -.789E+01 -.310E-02 0.480E+03   0.106E+02 -.121E-01 -.484E+03   -.274E+01 0.794E-02 0.348E+01   0.198E-02 0.100E-01 -.158E-01
   0.395E+01 0.684E+01 0.480E+03   -.532E+01 -.920E+01 -.484E+03   0.138E+01 0.237E+01 0.348E+01   0.768E-02 -.672E-02 -.158E-01
   0.395E+01 -.684E+01 0.480E+03   -.530E+01 0.921E+01 -.484E+03   0.136E+01 -.237E+01 0.348E+01   -.966E-02 -.329E-02 -.158E-01
   0.407E-04 0.378E-04 -.295E+00   0.000E+00 -.533E-14 -.171E-12   0.222E-15 -.444E-15 0.126E+00   0.850E-07 0.561E-07 0.157E+00

 POSITION                                       TOTAL-FORCE (eV/Angst)
      2.96431      1.71144     10.71645        -0.000000     -0.000000     -0.114024
      5.92863      3.42289     10.71967        -0.000000     -0.000000     -0.128549
     -0.00000     -0.00000      9.64646        -0.000000     -0.000000      0.075929
     -0.00000     -0.00000     11.86503        -0.000000     -0.000000      0.051983
      3.78058      0.00081     12.21077         0.034835     -0.001392     -0.004252
      1.07473      1.85986     12.21077        -0.018623     -0.029472     -0.004252
      4.03764      3.27367     12.21077        -0.016212      0.030864     -0.004252
      5.05386      5.13340      9.18748        -0.005721      0.001831      0.042473
      7.84734      3.32520      9.18748         0.004446      0.004039      0.042473
      4.88466      1.81007      9.18748         0.001275     -0.005869      0.042473
    total drift:                                0.000041      0.000038     -0.012088

  FREE ENERGIE OF THE ION-ELECTRON SYSTEM (eV)
  free  energy   TOTEN  =       -56.11435095 eV

  energy  without entropy=      -56.11435095  energy(sigma->0) =      -56.11435095

 d Force = 0.5584549E-03[-0.593E-03, 0.171E-02]  d Energy = 0.2140822E-02-0.158E-02
 d Force = 0.5638986E+01[ 0.564E+01, 0.564E+01]  d Ewald  =-0.3446973E+01 0.909E+01

 reached required accuracy - stopping structural energy minimisation

 total charge

[...]

 magnetization (x)

# of ion       s       p       d       tot
    1        0.030   0.035   2.698   2.762
    2        0.030   0.035   2.696   2.761
    3        0.003   0.018   0.000   0.021
    4       -0.033  -0.002   0.000  -0.036
    5       -0.004  -0.075   0.000  -0.079
    6       -0.003  -0.065   0.000  -0.068
    7       -0.006  -0.076   0.000  -0.082
    8        0.001  -0.050   0.000  -0.049
    9       -0.001  -0.034   0.000  -0.035
   10       -0.001  -0.044   0.000  -0.045
tot          0.015  -0.260   5.394   5.149

 BZINTS: Fermi energy: -1.816831; 57.000000 electrons
         Band energy:-466.354964;  BLOECHL correction: -0.028653