 vasp.5.4.4.18Apr17-6-g9f103f2a35 (build May  1 2020 15:48:39) complex
 executed on             LinuxGNU date 2020.07.01  19:53:18

 INCAR:
 POTCAR:   PAW_PBE Cr 06Sep2000
 POTCAR:   PAW_PBE Ge 05Jan2001
 POTCAR:   PAW_PBE Si 05Jan2001
 POTCAR:   PAW_PBE Se 06Sep2000

 POTCAR:   PAW_PBE Cr 06Sep2000
   VRHFIN =Cr : d5 s1

   TITEL  = PAW_PBE Cr 06Sep2000
   POMASS =   51.996; ZVAL   =    6.000    mass and valenz
   ENMAX  =  227.082; ENMIN  =  170.311 eV
   QCUT   =   -4.085; QGAM   =    8.171    optimization parameters

   Description
     l     E      TYP  RCUT    TYP  RCUT
     2   .000     23  2.500
     2   .000     23  2.500
     0   .000     23  2.500
     0   .000     23  2.500
     1  -.400     23  2.500
     1  2.000     23  2.500
     3   .000      7   .000

 POTCAR:   PAW_PBE Ge 05Jan2001
   VRHFIN =Ge: s2p2

   TITEL  = PAW_PBE Ge 05Jan2001
   POMASS =   72.610; ZVAL   =    4.000    mass and valenz
   ENMAX  =  173.807; ENMIN  =  130.355 eV
   QCUT   =   -3.574; QGAM   =    7.148    optimization parameters

[...]

 POTCAR:   PAW_PBE Si 05Jan2001
   VRHFIN =Si: s2p2

   TITEL  = PAW_PBE Si 05Jan2001
   POMASS =   28.085; ZVAL   =    4.000    mass and valenz
   ENMAX  =  245.345; ENMIN  =  184.009 eV
   QCUT   =   -4.246; QGAM   =    8.493    optimization parameters

[...]

 POTCAR:   PAW_PBE Se 06Sep2000
   VRHFIN =Se: s2p4

   TITEL  = PAW_PBE Se 06Sep2000
   POMASS =   78.960; ZVAL   =    6.000    mass and valenz
   ENMAX  =  211.534; ENMIN  =  158.651 eV
   QCUT   =   -3.943; QGAM   =    7.886    optimization parameters

   Description
     l     E      TYP  RCUT    TYP  RCUT
     0   .000     23  2.100
     0   .000     23  2.100
     1   .000     23  2.100
     1   .000     23  2.100
     2   .000     23  2.100
     3  -.100      7  2.100

 Optimization of the real space projectors (new method)

 maximal supplied QI-value         = 15.12
 optimisation between [QCUT,QGAM] = [ 11.64, 23.28] = [ 37.95,151.78] Ry
 Optimized for a Real-space Cutoff    1.49 Angstroem

   l    n(q)    QCUT    max X(q) W(low)/X(q) W(high)/X(q)  e(spline)
   2      9    11.641     4.777    0.25E-04    0.21E-05    0.63E-07
   2      9    11.641    31.132    0.13E-03    0.22E-03    0.64E-06
   0     10    11.641    20.416    0.11E-04    0.74E-05    0.19E-07
   0     10    11.641    45.408    0.10E-03    0.85E-04    0.30E-06
   1     10    11.641     7.848    0.22E-04    0.23E-04    0.56E-07
   1     10    11.641     9.895    0.85E-04    0.54E-04    0.16E-06
 Optimization of the real space projectors (new method)

[...]

   l    n(q)    QCUT    max X(q) W(low)/X(q) W(high)/X(q)  e(spline)
   0      8    11.508     8.708    0.18E-04    0.44E-05    0.47E-08
   0      8    11.508   106.241    0.70E-04    0.15E-03    0.51E-07
   1      8    11.508     5.901    0.63E-05    0.23E-04    0.21E-07
   1      8    11.508    73.241    0.15E-03    0.36E-04    0.79E-07
 Optimization of the real space projectors (new method)

 maximal supplied QI-value         = 17.95
 optimisation between [QCUT,QGAM] = [ 11.67, 23.34] = [ 38.13,152.52] Ry
 Optimized for a Real-space Cutoff    1.25 Angstroem

   l    n(q)    QCUT    max X(q) W(low)/X(q) W(high)/X(q)  e(spline)
   0      9    11.669     6.499    0.13E-04    0.81E-05    0.11E-07
   0      9    11.669    52.623    0.18E-03    0.46E-04    0.72E-07
   1      8    11.669     4.229    0.40E-04    0.45E-04    0.31E-07
   1      8    11.669    29.991    0.22E-03    0.36E-03    0.10E-06
   2      8    11.669     3.719    0.19E-03    0.46E-04    0.50E-07

 PAW_PBE Cr 06Sep2000                   :
 PAW_PBE Ge 05Jan2001                   :
 PAW_PBE Si 05Jan2001                   :
 PAW_PBE Se 06Sep2000                   :

 POSCAR: Cr2 Ge Si Se6
  positions in direct lattice
  velocities in cartesian coordinates
 exchange correlation table for  LEXCH =       42
   RHO(1)=    0.500       N(1)  =     2000
   RHO(2)=  100.500       N(2)  =     4000

 ion  position               nearest neighbor table
   1  0.333  0.333  0.500-   6 2.78   5 2.78   7 2.78   8 2.78  10 2.78   9 2.78
   2  0.667  0.667  0.500-   9 2.78   8 2.78  10 2.78   5 2.78   7 2.78   6 2.78
   3  0.000  0.000  0.448-   4 2.43   8 2.63  10 2.63   9 2.63
   4  0.000  0.000  0.552-   3 2.43   5 2.63   7 2.63   6 2.63
   5  0.626  0.000  0.574-   4 2.63   1 2.78   2 2.78
   6  0.000  0.373  0.574-   4 2.63   1 2.78   2 2.78
   7  0.373  0.626  0.574-   4 2.63   1 2.78   2 2.78
   8  0.374  1.000  0.426-   3 2.63   2 2.78   1 2.78
   9  1.000  0.627  0.426-   3 2.63   2 2.78   1 2.78
  10  0.627  0.374  0.426-   3 2.63   2 2.78   1 2.78

  LATTYP: Found a hexagonal cell.
 ALAT       =     6.9077769333
 C/A-ratio  =     3.3939410937

  Lattice vectors:

 A1 = (   3.4538890000,  -5.9823100000,   0.0000000000)
 A2 = (  -6.9077770000,   0.0000000000,   0.0000000000)
 A3 = (   0.0000000000,   0.0000000000, -23.4445880000)

Analysis of symmetry for initial positions (statically):
 Subroutine PRICEL returns:
 Original cell was already a primitive cell.

 Routine SETGRP: Setting up the symmetry group for a
 hexagonal supercell.

 Subroutine GETGRP returns: Found  3 space group operations
 (whereof  3 operations were pure point group operations)
 out of a pool of 24 trial point group operations.

The static configuration has the point symmetry C_3 .

Analysis of symmetry for dynamics (positions and initial velocities):
 Subroutine PRICEL returns:
 Original cell was already a primitive cell.

[...]

The dynamic configuration has the point symmetry C_3 .

Analysis of constrained symmetry for selective dynamics:
 Subroutine PRICEL returns:
 Original cell was already a primitive cell.

[...]

The constrained configuration has the point symmetry C_3 .

Analysis of structural, dynamic, and magnetic symmetry:
 Subroutine PRICEL returns:
 Original cell was already a primitive cell.

 Routine SETGRP: Setting up the symmetry group for a
 hexagonal supercell.

 Subroutine GETGRP returns: Found  3 space group operations
 (whereof  3 operations were pure point group operations)
 out of a pool of 24 trial point group operations.

The magnetic configuration has the point symmetry C_3 .

 Subroutine INISYM returns: Found  3 space group operations
 (whereof  3 operations are pure point group operations),
 and found     1 'primitive' translations

 KPOINTS: Kpoints from vasprun.xml

Automatic generation of k-mesh.
Space group operators:
 irot       det(A)        alpha          n_x          n_y          n_z        tau_x        tau_y        tau_z
    1     1.000000     0.000000     1.000000     0.000000     0.000000     0.000000     0.000000     0.000000
    2     1.000000   120.000000     0.000000     0.000000     1.000000     0.000000     0.000000     0.000000
    3     1.000000   120.000000     0.000000     0.000000    -1.000000     0.000000     0.000000     0.000000

 Subroutine IBZKPT returns following result:

 Found      5 irreducible k-points:

 Following reciprocal coordinates:
            Coordinates               Weight
  0.000000  0.000000  0.000000      1.000000
  0.200000  0.000000  0.000000      6.000000
  0.400000  0.000000  0.000000      6.000000
  0.400000  0.200000  0.000000      6.000000
 -0.400000  0.200000  0.000000      6.000000

 Following cartesian coordinates:
            Coordinates               Weight
  0.000000  0.000000  0.000000      1.000000
  0.028953 -0.016716  0.000000      6.000000
  0.057906 -0.033432  0.000000      6.000000
  0.057906  0.000000  0.000000      6.000000
 -0.057906  0.066864  0.000000      6.000000

 TETIRR: Found     15 inequivalent tetrahedra from      150

 SYSTEM =  unknown system
 POSCAR =  Cr2 Ge Si Se6

 Startparameter for this run:
   NWRITE =      2    write-flag & timer
   PREC   = accura    normal or accurate (medium, high low for compatibility)
   ISTART =      0    job   : 0-new  1-cont  2-samecut
   ICHARG =      2    charge: 1-file 2-atom 10-const
   ISPIN  =      2    spin polarized calculation?
   LNONCOLLINEAR =      F non collinear calculations
   LSORBIT =      F    spin-orbit coupling
   INIWAV =      1    electr: 0-lowe 1-rand  2-diag
   LASPH  =      F    aspherical Exc in radial PAW
   METAGGA=      F    non-selfconsistent MetaGGA calc.

 Electronic Relaxation 1
   ENCUT  =  520.0 eV  38.22 Ry    6.18 a.u.  12.84 12.84 43.59*2*pi/ulx,y,z
   ENINI  =  520.0     initial cutoff
   ENAUG  =  446.8 eV  augmentation charge cutoff
   NELM   =    400;   NELMIN=  2; NELMDL=  0     # of ELM steps
   EDIFF  = 0.1E-03   stopping-criterion for ELM
   LREAL  =      T    real-space projection
   NLSPLINE    = F    spline interpolate recip. space projectors
   LCOMPAT=      F    compatible to vasp.4.4
   GGA_COMPAT  = T    GGA compatible to vasp.4.4-vasp.4.6
   LMAXPAW     = -100 max onsite density
   LMAXMIX     =    2 max onsite mixed and CHGCAR
   VOSKOWN=      0    Vosko Wilk Nusair interpolation
   ROPT   =   -0.00025  -0.00025  -0.00025  -0.00025
 Ionic relaxation
   EDIFFG = 0.1E-02   stopping-criterion for IOM
   NSW    =     99    number of steps for IOM
   NBLOCK =      1;   KBLOCK =     99    inner block; outer block
   IBRION =      2    ionic relax: 0-MD 1-quasi-New 2-CG
   NFREE  =      1    steps in history (QN), initial steepest desc. (CG)
   ISIF   =      3    stress and relaxation
   IWAVPR =     11    prediction:  0-non 1-charg 2-wave 3-comb
   ISYM   =      2    0-nonsym 1-usesym 2-fastsym
   LCORR  =      T    Harris-Foulkes like correction to forces

   POTIM  = 0.5000    time-step for ionic-motion
   TEIN   =    0.0    initial temperature
   TEBEG  =    0.0;   TEEND  =   0.0 temperature during run
   SMASS  =  -3.00    Nose mass-parameter (am)
   estimated Nose-frequenzy (Omega)   =  0.10E-29 period in steps =****** mass=  -0.109E-26a.u.
   SCALEE = 1.0000    scale energy and forces
   NPACO  =    256;   APACO  = 16.0  distance and # of slots for P.C.
   PSTRESS=    0.0 pullay stress

  Mass of Ions in am
   POMASS =  52.00 72.61 28.09 78.96
  Ionic Valenz
   ZVAL   =   6.00  4.00  4.00  6.00
  Atomic Wigner-Seitz radii
  virtual crystal weights
   VCA    =   1.00  1.00  1.00  1.00
   NELECT =      56.0000    total number of electrons
   NUPDOWN=      -1.0000    fix difference up-down

 DOS related values:
   EMIN   =  10.00;   EMAX   =-10.00  energy-range for DOS
   EFERMI =   0.00
   ISMEAR =    -5;   SIGMA  =   0.05  broadening in eV -4-tet -1-fermi 0-gaus

 Electronic relaxation 2 (details)
   IALGO  =     38    algorithm
   LDIAG  =      T    sub-space diagonalisation (order eigenvalues)
   LSUBROT=      F    optimize rotation matrix (better conditioning)
   TURBO    =      0    0=normal 1=particle mesh
   IRESTART =      0    0=no restart 2=restart with 2 vectors
   NREBOOT  =      0    no. of reboots
   NMIN     =      0    reboot dimension
   EREF     =   0.00    reference energy to select bands
   IMIX   =      4    mixing-type and parameters
     AMIX     =   0.40;   BMIX     =  1.00
     AMIX_MAG =   1.60;   BMIX_MAG =  1.00
     AMIN     =   0.01
     WC   =   100.;   INIMIX=   1;  MIXPRE=   1;  MAXMIX= -45

 Intra band minimization:
   WEIMIN = 0.0010     energy-eigenvalue tresh-hold
   EBREAK =  0.63E-06  absolut break condition
[...]
     21      -4.9612      1.00000
     22      -4.9612      1.00000
     23      -4.7810      1.00000
     24      -4.6171      1.00000
     25      -4.6171      1.00000
     26      -4.6009      1.00000
     27      -4.5951      1.00000
     28      -4.5951      1.00000
     29      -4.2489      1.00000
     30      -4.0532      1.00000
     31      -4.0531      1.00000
     32      -2.7921      0.00000
     33      -2.7921      0.00000
     34      -2.7894      0.00000
     35      -2.4838      0.00000
     36      -2.4512      0.00000
     37      -2.4512      0.00000
     38      -0.5571      0.00000
     39      -0.5571      0.00000
     40       0.6929      0.00000

[...]

 soft charge-density along one line, spin component           1
         0         1         2         3         4         5         6         7         8         9
 total charge-density along one line

[...]

------------------------ aborting loop because EDIFF is reached ----------------------------------------

 total charge

# of ion       s       p       d       tot
    1        0.280   0.299   4.091   4.670
    2        0.280   0.299   4.091   4.670
    3        1.177   0.969   0.064   2.209
    4        0.805   0.672   0.000   1.477
    5        1.485   2.216   0.018   3.719
    6        1.482   2.218   0.018   3.718
    7        1.484   2.215   0.018   3.717
    8        1.486   2.221   0.018   3.725
    9        1.483   2.220   0.018   3.721
   10        1.485   2.219   0.018   3.723
tot         11.446  15.549   8.353  35.348

 magnetization (x)

[...]

  FORCE on cell =-STRESS in cart. coord.  units (eV):
  Direction    XX          YY          ZZ          XY          YZ          ZX
  Alpha Z    31.35304    31.35304    31.35304
  Ewald    7419.63051  7419.62857 -8853.36149    -0.00107    -0.00038    -0.00069
  Hartree  7818.00979  7818.01019 -7616.47451    -0.00006     0.00005     0.00008
  E(xc)    -211.57362  -211.57363  -211.40271     0.00003     0.00000     0.00001
  Local  -15935.53591-15935.53535 15747.81958     0.00087     0.00019     0.00036
  n-local   276.41184   277.68195   283.40905     0.58975     0.25948     0.23226
  augment    30.27701    30.27713    27.74016    -0.00004    -0.00007     0.00007
  Kinetic   551.04296   549.02611   580.01146    -1.73590     0.70776     0.78220
  Fock        0.00000     0.00000     0.00000     0.00000     0.00000     0.00000
  Total     -20.75819   -20.75819   -10.90542     0.00000    -0.00000     0.00000
  in kB     -34.32814   -34.32814   -18.03446     0.00000    -0.00000     0.00000

 VOLUME and BASIS-vectors are now :
  energy-cutoff  :      520.00
  volume of cell :      968.84
      direct lattice vectors                 reciprocal lattice vectors
     6.907777000 -0.000000000  0.000000000     0.144764372 -0.083579742  0.000000000
     3.453888000  5.982310000  0.000000000     0.000000000  0.167159509 -0.000000000
     0.000000000  0.000000000 23.444588000    -0.000000000  0.000000000  0.042653767

[...]

 FORCES acting on ions
    electron-ion (+dipol)            ewald-force                    non-local-force                 convergence-correction
   -.705E-04 -.484E-04 0.541E+00   0.306E-03 0.183E-03 -.640E+00   0.000E+00 0.000E+00 0.496E-01   -.281E-05 -.162E-05 0.317E-02
   0.728E-04 0.426E-04 -.758E+00   -.306E-03 -.183E-03 0.640E+00   0.347E-17 0.000E+00 0.592E-01   0.280E-05 0.162E-05 0.319E-02
   -.230E-04 -.208E-04 0.161E+03   -.141E-03 -.779E-04 -.158E+03   -.347E-17 0.000E+00 -.282E+01   0.727E-06 0.387E-06 -.143E-01
   0.224E-04 0.219E-04 -.163E+03   0.141E-03 0.779E-04 0.158E+03   0.000E+00 -.139E-16 0.558E+01   -.739E-06 -.377E-06 0.176E-01
   -.582E+01 0.156E+00 -.341E+03   0.444E+01 -.152E+00 0.342E+03   0.248E+01 -.980E-02 -.297E+01   0.395E-02 -.142E-02 0.284E-01
   0.304E+01 0.496E+01 -.341E+03   -.235E+01 -.377E+01 0.342E+03   -.125E+01 -.214E+01 -.297E+01   -.320E-02 -.271E-02 0.284E-01
   0.277E+01 -.512E+01 -.341E+03   -.209E+01 0.392E+01 0.342E+03   -.123E+01 0.215E+01 -.297E+01   -.742E-03 0.413E-02 0.284E-01
   0.603E+01 -.153E+00 0.341E+03   -.444E+01 0.152E+00 -.342E+03   -.214E+01 0.974E-02 0.295E+01   -.494E-02 -.148E-02 -.231E-01
   -.315E+01 -.514E+01 0.341E+03   0.235E+01 0.377E+01 -.342E+03   0.108E+01 0.185E+01 0.295E+01   0.118E-02 0.501E-02 -.231E-01
   -.288E+01 0.530E+01 0.341E+03   0.209E+01 -.392E+01 -.342E+03   0.106E+01 -.186E+01 0.295E+01   0.375E-02 -.353E-02 -.231E-01
   0.366E-05 0.327E-05 -.285E+01   0.155E-13 0.799E-14 -.171E-12   -.888E-15 0.000E+00 0.283E+01   -.523E-07 -.363E-08 0.252E-01

 POSITION                                       TOTAL-FORCE (eV/Angst)
      3.45388      1.99410     11.72054         0.000000     -0.000000     -0.045694
      6.90778      3.98821     11.72405         0.000000      0.000000     -0.055404
      0.00000      0.00000     10.50824         0.000000      0.000000      0.107141
      0.00000      0.00000     12.93635         0.000000     -0.000000      0.216206
      4.32819      0.00251     13.45138         1.101408     -0.006727     -1.103590
      1.29198      2.23274     13.45138        -0.556530     -0.950483     -1.103590
      4.74152      3.74706     13.45138        -0.544878      0.957211     -1.103590
      6.03348      5.97980      9.99321        -0.557933      0.006301      1.029508
      9.06969      3.74957      9.99321         0.284423      0.480034      1.029508
      5.62015      2.23525      9.99321         0.273510     -0.486335      1.029508
    total drift:                                0.000004      0.000003      0.000606

  FREE ENERGIE OF THE ION-ELECTRON SYSTEM (eV)
  free  energy   TOTEN  =       -46.21112559 eV

  energy  without entropy=      -46.21112559  energy(sigma->0) =      -46.21112559

[...]

 d Force = 0.1653523E+00[-0.182E+00, 0.513E+00]  d Energy = 0.2377038E+01-0.221E+01
 d Force =-0.1101241E+03[-0.123E+03,-0.976E+02]  d Ewald  =-0.1307402E+04 0.120E+04

 Steepest descent step on ions:
 trial-energy change:   -2.377038  1 .order   -1.736569   -5.283867    1.810728
  (g-gl).g = 0.528E+01      g.g   = 0.528E+01  gl.gl    = 0.000E+00
 g(Force)  = 0.553E+00   g(Stress)= 0.473E+01 ortho     = 0.000E+00
 gamma     =   0.00000
 trial     =   1.00000
 opt step  =   0.82350  (harmonic =   0.74477) maximal distance =0.04375661
 next E    =   -48.744438   (d E  =  -2.53331)

[...]

 d Force = 0.1589784E-01[-0.283E-02, 0.346E-01]  d Energy = 0.1684549E+00-0.153E+00
 d Force = 0.2258637E+02[ 0.221E+02, 0.231E+02]  d Ewald  = 0.2618285E+03-0.239E+03

[...]

 d Force = 0.4571208E-01[ 0.347E-01, 0.567E-01]  d Energy = 0.4648125E-01-0.769E-03
 d Force = 0.1097961E+02[ 0.109E+02, 0.110E+02]  d Ewald  =-0.4299118E+02 0.540E+02

 Conjugate gradient step on ions:
 trial-energy change:   -0.046481  1 .order   -0.047016   -0.059030   -0.035002
  (g-gl).g = 0.431E-01      g.g   = 0.610E-01  gl.gl    = 0.528E+01
 g(Force)  = 0.588E-01   g(Stress)= 0.227E-02 ortho     = 0.180E-01
 gamma     =   0.00815
 trial     =   0.96470
 opt step  =   2.37002  (harmonic =   2.37002) maximal distance =0.05739045
 next E    =   -48.829129   (d E  =  -0.07251)

[...]

 d Force = 0.2575897E-01[ 0.103E-02, 0.505E-01]  d Energy = 0.2314201E-01 0.262E-02
 d Force = 0.1577011E+02[ 0.156E+02, 0.159E+02]  d Ewald  =-0.6327741E+02 0.790E+02

[...]

 eigenvalue-minimisations  :  1008
 total energy-change (2. order) : 0.1649541E-03  (-0.5242879E-04)
 number of electron      56.0000000 magnetization       6.0000001
 augmentation part       -2.4140631 magnetization       4.2130889

[...]

 d Force = 0.3538444E-02[-0.500E-02, 0.121E-01]  d Energy = 0.3641669E-02-0.103E-03
 d Force = 0.2625855E+01[ 0.265E+01, 0.260E+01]  d Ewald  = 0.8720712E+02-0.846E+02

 Conjugate gradient step on ions:
 trial-energy change:   -0.003642  1 .order   -0.004722   -0.018103    0.008658
  (g-gl).g = 0.174E-01      g.g   = 0.154E-01  gl.gl    = 0.610E-01
 g(Force)  = 0.950E-02   g(Stress)= 0.589E-02 ortho     =-0.303E-02
 gamma     =   0.28430
 trial     =   1.24576
 opt step  =   0.77155  (harmonic =   0.84271) maximal distance =0.00664504
 next E    =   -48.831591   (d E  =  -0.00535)

[...]

 Broyden mixing:
  rms(total) = 0.75081E-02    rms(broyden)= 0.75081E-02
  rms(prec ) = 0.81846E-02
  weight for this iteration     100.00

 eigenvalues of (default mixing * dielectric matrix)
  average eigenvalue GAMMA=   0.9442
  1.3762  0.5121

[...]

--------------------------------------- Iteration      7(   4)  ---------------------------------------

[...]

 eigenvalue-minimisations  :   832
 total energy-change (2. order) :-0.7826207E-04  (-0.3755159E-04)
 number of electron      55.9999999 magnetization       6.0000002
 augmentation part       -2.4196400 magnetization       4.2081195

 Free energy of the ion-electron system (eV)
  alpha Z        PSCENC =        38.89172626
  Ewald energy   TEWEN  =      7083.61864434
  -Hartree energ DENC   =     -9138.04570793
  -exchange      EXHF   =         0.00000000
  -V(xc)+E(xc)   XCENC  =       -60.44453977
  PAW double counting   =      1271.73148594    -1111.67516982
  entropy T*S    EENTRO =         0.00000000
  eigenvalues    EBANDS =      -448.69263501
  atomic energy  EATOM  =      2315.78410452
  Solvation  Ediel_sol  =         0.00000000
  free energy    TOTEN  =       -48.83209148 eV

  energy without entropy =      -48.83209148  energy(sigma->0) =      -48.83209148

 average (electrostatic) potential at core
  the test charge radii are     1.1394  1.1631  0.9892  1.0808
  (the norm of the test charge is              1.0000)
       1 -51.4845       2 -51.4779       3 -39.7955       4 -92.9760       5 -61.1060
       6 -61.1060       7 -61.1059       8 -61.1672       9 -61.1672      10 -61.1671

 E-fermi :  -3.2513     XC(G=0):  -3.4987     alpha+bet : -2.7098

[...]

 spin component 2

[...]

 k-point     5 :      -0.4000    0.2000    0.0000
  band No.  band energies     occupation
      1     -16.4012      1.00000
      2     -16.0762      1.00000
      3     -15.8670      1.00000
      4     -15.7579      1.00000
      5     -15.6516      1.00000
      6     -15.5055      1.00000
      7     -11.3998      1.00000
      8      -9.5568      1.00000
      9      -7.5677      1.00000
     10      -7.2156      1.00000
     11      -7.0489      1.00000
     12      -6.6717      1.00000
     13      -6.5307      1.00000
     14      -6.1159      1.00000
     15      -5.6921      1.00000
     16      -5.4800      1.00000
     17      -5.4285      1.00000
     18      -5.2448      1.00000
     19      -5.1578      1.00000
     20      -5.0419      1.00000
     21      -4.7325      1.00000
     22      -4.4225      1.00000
     23      -4.2690      1.00000
     24      -4.0418      1.00000
     25      -3.8253      1.00000
     26      -2.3815      0.00000
     27      -1.5589      0.00000
     28      -1.5573      0.00000
     29      -1.1776      0.00000
     30      -0.9686      0.00000
     31      -0.8616      0.00000
     32      -0.8416      0.00000
     33      -0.5645      0.00000
     34      -0.5584      0.00000
     35      -0.1793      0.00000
     36      -0.1238      0.00000
     37       0.5277      0.00000
     38       0.7363      0.00000
     39       0.9035      0.00000
     40       1.7381      0.00000

[...]

 soft charge-density along one line, spin component           2
         0         1         2         3         4         5         6         7         8         9
 total charge-density along one line

------------------------ aborting loop because EDIFF is reached ----------------------------------------

[...]

  FORCE on cell =-STRESS in cart. coord.  units (eV):
  Direction    XX          YY          ZZ          XY          YZ          ZX
  Alpha Z    38.89173    38.89173    38.89173
  Ewald    8643.35135  8643.34917-10203.08402    -0.00109    -0.00040    -0.00073
  Hartree  8976.41861  8976.41898 -8813.29594    -0.00005     0.00005     0.00007
  E(xc)    -216.78758  -216.78760  -216.51680     0.00004     0.00001     0.00001
  Local  -18332.69715-18332.69656 18275.46003     0.00077     0.00018     0.00034
  n-local   289.48712   290.91651   292.69364     0.68491     0.36992     0.28061
  augment    30.29320    30.29326    27.48680     0.00001     0.00000     0.00003
  Kinetic   572.74060   567.78249   598.26545    -3.63078     0.87235     0.85059
  Fock        0.00000     0.00000     0.00000     0.00000     0.00000     0.00000
  Total      -0.06708    -0.06708    -0.09913     0.00000    -0.00000    -0.00000
  in kB      -0.13760    -0.13760    -0.20334     0.00000    -0.00000    -0.00000

 VOLUME and BASIS-vectors are now :
  energy-cutoff  :      520.00
  volume of cell :      781.04
      direct lattice vectors                 reciprocal lattice vectors
     6.326211291 -0.000000013  0.000000000     0.158072494 -0.091263191 -0.000000000
     3.163105283  5.478659408 -0.000000000     0.000000000  0.182526404  0.000000000
     0.000000000 -0.000000000 22.534832337    -0.000000000  0.000000000  0.044375746

  length of vectors
     6.326211291  6.326210868 22.534832337     0.182526391  0.182526404  0.044375746

 FORCES acting on ions
    electron-ion (+dipol)            ewald-force                    non-local-force                 convergence-correction
   -.922E-04 -.538E-04 -.637E+01   0.363E-03 0.214E-03 0.609E+01   -.327E-17 0.682E-17 0.241E+00   0.900E-07 0.322E-07 -.115E-01
   0.961E-04 0.557E-04 -.730E+01   -.346E-03 -.205E-03 0.702E+01   0.191E-18 -.112E-18 0.226E+00   0.891E-07 0.277E-07 -.109E-01
   -.410E-04 -.117E-04 0.196E+03   -.171E-03 -.957E-04 -.192E+03   0.675E-19 -.146E-17 -.403E+01   -.232E-06 -.100E-06 -.160E-01
   0.374E-04 0.183E-04 -.189E+03   0.180E-03 0.999E-04 0.184E+03   0.486E-17 -.287E-17 0.576E+01   -.199E-06 -.814E-07 0.567E-02
   0.214E+01 0.180E-01 -.409E+03   -.412E+01 0.415E-02 0.411E+03   0.194E+01 -.444E-02 -.222E+01   0.171E-01 -.196E-01 0.396E-01
   -.106E+01 -.186E+01 -.409E+03   0.206E+01 0.356E+01 0.411E+03   -.972E+00 -.167E+01 -.222E+01   -.255E-01 -.502E-02 0.396E-01
   -.109E+01 0.184E+01 -.409E+03   0.205E+01 -.357E+01 0.411E+03   -.964E+00 0.168E+01 -.222E+01   0.840E-02 0.246E-01 0.396E-01
   0.701E+01 0.517E-02 0.411E+03   -.487E+01 0.123E-01 -.413E+03   -.215E+01 0.672E-02 0.227E+01   -.969E-02 -.205E-01 -.517E-01
   -.350E+01 -.607E+01 0.411E+03   0.244E+01 0.421E+01 -.413E+03   0.108E+01 0.186E+01 0.227E+01   -.130E-01 0.187E-01 -.517E-01
   -.351E+01 0.607E+01 0.411E+03   0.242E+01 -.422E+01 -.413E+03   0.107E+01 -.187E+01 0.227E+01   0.226E-01 0.188E-02 -.517E-01
   0.275E-04 0.231E-04 -.224E+01   -.124E-13 0.622E-14 -.171E-12   -.222E-15 -.222E-15 0.233E+01   -.154E-06 -.374E-07 -.689E-01

 POSITION                                       TOTAL-FORCE (eV/Angst)
      3.16310      1.82622     11.26573        -0.000000     -0.000000     -0.059530
      6.32621      3.65244     11.26911        -0.000000     -0.000000     -0.071791
      0.00000     -0.00000     10.10047         0.000000     -0.000000      0.100632
      0.00000     -0.00000     12.42171        -0.000000     -0.000000     -0.100584
      4.06336      0.00102     12.89631        -0.020455     -0.001248      0.005171
      1.13231      1.95919     12.89631         0.009147      0.018339      0.005171
      4.29366      3.51846     12.89631         0.011308     -0.017091      0.005171
      5.55363      5.47765      9.62607        -0.019132      0.003007      0.038587
      8.29317      3.40890      9.62607         0.012170      0.015065      0.038587
      5.13182      2.07076      9.62607         0.006961     -0.018072      0.038587
    total drift:                                0.000027      0.000023      0.022339

  FREE ENERGIE OF THE ION-ELECTRON SYSTEM (eV)
  free  energy   TOTEN  =       -48.83209148 eV

  energy  without entropy=      -48.83209148  energy(sigma->0) =      -48.83209148

 d Force = 0.6790281E-03[-0.545E-03, 0.190E-02]  d Energy = 0.2207894E-02-0.153E-02
 d Force =-0.1009033E+01[-0.101E+01,-0.101E+01]  d Ewald  =-0.3308389E+02 0.321E+02

 reached required accuracy - stopping structural energy minimisation

 total charge

[...]

 magnetization (x)

# of ion       s       p       d       tot
    1        0.037   0.041   2.979   3.057
    2        0.037   0.041   2.979   3.056
    3        0.002   0.041  -0.002   0.041
    4        0.004   0.029   0.000   0.033
    5       -0.000  -0.074   0.005  -0.069
    6       -0.001  -0.061   0.006  -0.057
    7       -0.000  -0.070   0.006  -0.065
    8       -0.001  -0.098   0.006  -0.093
    9       -0.002  -0.078   0.006  -0.074
   10       -0.001  -0.092   0.006  -0.087
tot          0.074  -0.322   5.990   5.741

 BZINTS: Fermi energy: -3.251253; 56.000000 electrons
         Band energy:-448.692635;  BLOECHL correction:  0.000000