 vasp.5.4.4.18Apr17-6-g9f103f2a35 (build May  1 2020 15:48:39) complex
 executed on             LinuxGNU date 2020.07.05  11:33:01

 INCAR:
 POTCAR:   PAW_PBE Fe 06Sep2000
 POTCAR:   PAW_PBE Ge 05Jan2001
 POTCAR:   PAW_PBE Si 05Jan2001
 POTCAR:   PAW_PBE Te 08Apr2002

 POTCAR:   PAW_PBE Fe 06Sep2000
   VRHFIN =Fe:  d7 s1

   TITEL  = PAW_PBE Fe 06Sep2000
   POMASS =   55.847; ZVAL   =    8.000    mass and valenz
   ENMAX  =  267.883; ENMIN  =  200.912 eV
   QCUT   =   -4.437; QGAM   =    8.874    optimization parameters

   Description
     l     E      TYP  RCUT    TYP  RCUT
     2   .000     23  2.300
     2   .000     23  2.300
     0   .000     23  2.300
     0   .000     23  2.300
     1  -.200     23  2.300
     1   .000     23  2.300
     3   .000      7   .000

 POTCAR:   PAW_PBE Ge 05Jan2001
   VRHFIN =Ge: s2p2

   TITEL  = PAW_PBE Ge 05Jan2001
   POMASS =   72.610; ZVAL   =    4.000    mass and valenz
   ENMAX  =  173.807; ENMIN  =  130.355 eV
   QCUT   =   -3.574; QGAM   =    7.148    optimization parameters

[...]

 POTCAR:   PAW_PBE Si 05Jan2001
   VRHFIN =Si: s2p2

   TITEL  = PAW_PBE Si 05Jan2001
   POMASS =   28.085; ZVAL   =    4.000    mass and valenz
   ENMAX  =  245.345; ENMIN  =  184.009 eV
   QCUT   =   -4.246; QGAM   =    8.493    optimization parameters

[...]

 POTCAR:   PAW_PBE Te 08Apr2002
   VRHFIN =Te: s2p4

   TITEL  = PAW_PBE Te 08Apr2002
   POMASS =  127.600; ZVAL   =    6.000    mass and valenz
   ENMAX  =  174.982; ENMIN  =  131.236 eV
   QCUT   =   -3.586; QGAM   =    7.172    optimization parameters

   Description
     l     E      TYP  RCUT    TYP  RCUT
     0   .000     23  2.300
     0   .000     23  2.300
     1   .000     23  2.300
     1   .000     23  2.300
     2   .000     23  2.300
     3  -.100     23  2.300

 Optimization of the real space projectors (new method)

 maximal supplied QI-value         = 16.25
 optimisation between [QCUT,QGAM] = [ 11.54, 23.24] = [ 37.28,151.24] Ry
 Optimized for a Real-space Cutoff    1.53 Angstroem

   l    n(q)    QCUT    max X(q) W(low)/X(q) W(high)/X(q)  e(spline)
   2     10    11.539     4.378    0.86E-05    0.15E-04    0.46E-07
   2     10    11.539    23.237    0.11E-03    0.14E-03    0.22E-06
   0     11    11.539    17.641    0.19E-04    0.14E-05    0.18E-07
   0     11    11.539    50.908    0.43E-04    0.16E-04    0.30E-06
   1     10    11.539     6.148    0.11E-04    0.38E-05    0.26E-07
   1     10    11.539     8.345    0.44E-04    0.25E-04    0.11E-06
 Optimization of the real space projectors (new method)

[...]

   l    n(q)    QCUT    max X(q) W(low)/X(q) W(high)/X(q)  e(spline)
   0      8    11.508     8.708    0.18E-04    0.44E-05    0.47E-08
   0      8    11.508   106.241    0.70E-04    0.15E-03    0.51E-07
   1      8    11.508     5.901    0.63E-05    0.23E-04    0.21E-07
   1      8    11.508    73.241    0.15E-03    0.36E-04    0.79E-07
 Optimization of the real space projectors (new method)

 maximal supplied QI-value         = 16.25
 optimisation between [QCUT,QGAM] = [ 11.54, 23.24] = [ 37.28,151.24] Ry
 Optimized for a Real-space Cutoff    1.36 Angstroem

   l    n(q)    QCUT    max X(q) W(low)/X(q) W(high)/X(q)  e(spline)
   0      9    11.539     7.090    0.13E-04    0.25E-05    0.51E-08
   0      9    11.539   101.654    0.53E-04    0.69E-04    0.12E-06
   1      9    11.539     5.276    0.20E-04    0.98E-05    0.24E-07
   1      9    11.539    81.891    0.24E-03    0.13E-04    0.15E-06
   2      9    11.539     5.599    0.30E-04    0.97E-04    0.54E-07

 PAW_PBE Fe 06Sep2000                   :
 PAW_PBE Ge 05Jan2001                   :
 PAW_PBE Si 05Jan2001                   :
 PAW_PBE Te 08Apr2002                   :

 POSCAR: Fe2 Ge Si Te6
  positions in direct lattice
  velocities in cartesian coordinates
 exchange correlation table for  LEXCH =       42
   RHO(1)=    0.500       N(1)  =     2000
   RHO(2)=  100.500       N(2)  =     4000

 ion  position               nearest neighbor table
   1  0.333  0.333  0.500-   6 2.78   5 2.78   7 2.78   8 2.78  10 2.78   9 2.78
   2  0.667  0.667  0.500-   9 2.78   8 2.78  10 2.78   5 2.78   7 2.78   6 2.78
   3  0.000  0.000  0.448-   4 2.43   8 2.63  10 2.63   9 2.63
   4  0.000  0.000  0.552-   3 2.43   5 2.63   7 2.63   6 2.63
   5  0.626  0.000  0.574-   4 2.63   1 2.78   2 2.78
   6  0.000  0.373  0.574-   4 2.63   1 2.78   2 2.78
   7  0.373  0.626  0.574-   4 2.63   1 2.78   2 2.78
   8  0.374  1.000  0.426-   3 2.63   2 2.78   1 2.78
   9  1.000  0.627  0.426-   3 2.63   2 2.78   1 2.78
  10  0.627  0.374  0.426-   3 2.63   2 2.78   1 2.78

  LATTYP: Found a hexagonal cell.
 ALAT       =     6.9077769333
 C/A-ratio  =     3.3939410937

  Lattice vectors:

 A1 = (   3.4538890000,  -5.9823100000,   0.0000000000)
 A2 = (  -6.9077770000,   0.0000000000,   0.0000000000)
 A3 = (   0.0000000000,   0.0000000000, -23.4445880000)

Analysis of symmetry for initial positions (statically):
 Subroutine PRICEL returns:
 Original cell was already a primitive cell.

 Routine SETGRP: Setting up the symmetry group for a
 hexagonal supercell.

 Subroutine GETGRP returns: Found  3 space group operations
 (whereof  3 operations were pure point group operations)
 out of a pool of 24 trial point group operations.

The static configuration has the point symmetry C_3 .

Analysis of symmetry for dynamics (positions and initial velocities):
 Subroutine PRICEL returns:
 Original cell was already a primitive cell.

[...]

The dynamic configuration has the point symmetry C_3 .

Analysis of constrained symmetry for selective dynamics:
 Subroutine PRICEL returns:
 Original cell was already a primitive cell.

[...]

The constrained configuration has the point symmetry C_3 .

Analysis of structural, dynamic, and magnetic symmetry:
 Subroutine PRICEL returns:
 Original cell was already a primitive cell.

 Routine SETGRP: Setting up the symmetry group for a
 hexagonal supercell.

 Subroutine GETGRP returns: Found  3 space group operations
 (whereof  3 operations were pure point group operations)
 out of a pool of 24 trial point group operations.

The magnetic configuration has the point symmetry C_3 .

 Subroutine INISYM returns: Found  3 space group operations
 (whereof  3 operations are pure point group operations),
 and found     1 'primitive' translations

 KPOINTS: Kpoints from vasprun.xml

Automatic generation of k-mesh.
Space group operators:
 irot       det(A)        alpha          n_x          n_y          n_z        tau_x        tau_y        tau_z
    1     1.000000     0.000000     1.000000     0.000000     0.000000     0.000000     0.000000     0.000000
    2     1.000000   120.000000     0.000000     0.000000     1.000000     0.000000     0.000000     0.000000
    3     1.000000   120.000000     0.000000     0.000000    -1.000000     0.000000     0.000000     0.000000

 Subroutine IBZKPT returns following result:

 Found      5 irreducible k-points:

 Following reciprocal coordinates:
            Coordinates               Weight
  0.000000  0.000000  0.000000      1.000000
  0.200000  0.000000  0.000000      6.000000
  0.400000  0.000000  0.000000      6.000000
  0.400000  0.200000  0.000000      6.000000
 -0.400000  0.200000  0.000000      6.000000

 Following cartesian coordinates:
            Coordinates               Weight
  0.000000  0.000000  0.000000      1.000000
  0.028953 -0.016716  0.000000      6.000000
  0.057906 -0.033432  0.000000      6.000000
  0.057906  0.000000  0.000000      6.000000
 -0.057906  0.066864  0.000000      6.000000

 TETIRR: Found     15 inequivalent tetrahedra from      150

 SYSTEM =  unknown system
 POSCAR =  Fe2 Ge Si Te6

 Startparameter for this run:
   NWRITE =      2    write-flag & timer
   PREC   = accura    normal or accurate (medium, high low for compatibility)
   ISTART =      0    job   : 0-new  1-cont  2-samecut
   ICHARG =      2    charge: 1-file 2-atom 10-const
   ISPIN  =      2    spin polarized calculation?
   LNONCOLLINEAR =      F non collinear calculations
   LSORBIT =      F    spin-orbit coupling
   INIWAV =      1    electr: 0-lowe 1-rand  2-diag
   LASPH  =      F    aspherical Exc in radial PAW
   METAGGA=      F    non-selfconsistent MetaGGA calc.

 Electronic Relaxation 1
   ENCUT  =  520.0 eV  38.22 Ry    6.18 a.u.  12.84 12.84 43.59*2*pi/ulx,y,z
   ENINI  =  520.0     initial cutoff
   ENAUG  =  511.4 eV  augmentation charge cutoff
   NELM   =    400;   NELMIN=  2; NELMDL=  0     # of ELM steps
   EDIFF  = 0.1E-03   stopping-criterion for ELM
   LREAL  =      T    real-space projection
   NLSPLINE    = F    spline interpolate recip. space projectors
   LCOMPAT=      F    compatible to vasp.4.4
   GGA_COMPAT  = T    GGA compatible to vasp.4.4-vasp.4.6
   LMAXPAW     = -100 max onsite density
   LMAXMIX     =    2 max onsite mixed and CHGCAR
   VOSKOWN=      0    Vosko Wilk Nusair interpolation
   ROPT   =   -0.00025  -0.00025  -0.00025  -0.00025
 Ionic relaxation
   EDIFFG = 0.1E-02   stopping-criterion for IOM
   NSW    =     99    number of steps for IOM
   NBLOCK =      1;   KBLOCK =     99    inner block; outer block
   IBRION =      2    ionic relax: 0-MD 1-quasi-New 2-CG
   NFREE  =      1    steps in history (QN), initial steepest desc. (CG)
   ISIF   =      3    stress and relaxation
   IWAVPR =     11    prediction:  0-non 1-charg 2-wave 3-comb
   ISYM   =      2    0-nonsym 1-usesym 2-fastsym
   LCORR  =      T    Harris-Foulkes like correction to forces

   POTIM  = 0.5000    time-step for ionic-motion
   TEIN   =    0.0    initial temperature
   TEBEG  =    0.0;   TEEND  =   0.0 temperature during run
   SMASS  =  -3.00    Nose mass-parameter (am)
   estimated Nose-frequenzy (Omega)   =  0.10E-29 period in steps =****** mass=  -0.109E-26a.u.
   SCALEE = 1.0000    scale energy and forces
   NPACO  =    256;   APACO  = 16.0  distance and # of slots for P.C.
   PSTRESS=    0.0 pullay stress

  Mass of Ions in am
   POMASS =  55.85 72.61 28.09127.60
  Ionic Valenz
   ZVAL   =   8.00  4.00  4.00  6.00
  Atomic Wigner-Seitz radii
  virtual crystal weights
   VCA    =   1.00  1.00  1.00  1.00
   NELECT =      60.0000    total number of electrons
   NUPDOWN=      -1.0000    fix difference up-down

 DOS related values:
   EMIN   =  10.00;   EMAX   =-10.00  energy-range for DOS
   EFERMI =   0.00
   ISMEAR =    -5;   SIGMA  =   0.05  broadening in eV -4-tet -1-fermi 0-gaus

 Electronic relaxation 2 (details)
   IALGO  =     38    algorithm
   LDIAG  =      T    sub-space diagonalisation (order eigenvalues)
   LSUBROT=      F    optimize rotation matrix (better conditioning)
   TURBO    =      0    0=normal 1=particle mesh
   IRESTART =      0    0=no restart 2=restart with 2 vectors
   NREBOOT  =      0    no. of reboots
   NMIN     =      0    reboot dimension
   EREF     =   0.00    reference energy to select bands
   IMIX   =      4    mixing-type and parameters
     AMIX     =   0.40;   BMIX     =  1.00
     AMIX_MAG =   1.60;   BMIX_MAG =  1.00
     AMIN     =   0.01
     WC   =   100.;   INIMIX=   1;  MIXPRE=   1;  MAXMIX= -45

 Intra band minimization:
   WEIMIN = 0.0010     energy-eigenvalue tresh-hold
   EBREAK =  0.52E-06  absolut break condition
[...]
         0         1         2         3         4         5         6         7         8         9
 total charge-density along one line

[...]

------------------------ aborting loop because EDIFF is reached ----------------------------------------

 total charge

# of ion       s       p       d       tot
    1        0.319   0.324   6.241   6.884
    2        0.319   0.324   6.241   6.884
    3        1.170   1.146   0.072   2.388
    4        0.793   0.785   0.000   1.579
    5        1.398   1.908   0.035   3.341
    6        1.392   1.924   0.035   3.350
    7        1.396   1.908   0.035   3.339
    8        1.401   1.912   0.034   3.347
    9        1.393   1.924   0.034   3.352
   10        1.398   1.911   0.035   3.344
tot         10.979  14.066  12.762  37.807

 magnetization (x)

[...]

  FORCE on cell =-STRESS in cart. coord.  units (eV):
  Direction    XX          YY          ZZ          XY          YZ          ZX
  Alpha Z    15.78553    15.78553    15.78553
  Ewald    8666.95156  8666.94951-10328.88300    -0.00153    -0.00045    -0.00082
  Hartree  9159.76222  9159.76290 -8823.02172    -0.00019     0.00007     0.00011
  E(xc)    -247.51828  -247.51835  -246.38340     0.00009     0.00003     0.00001
  Local  -18677.77260-18677.77204 18281.36960     0.00148     0.00029     0.00056
  n-local   656.86005   656.73941   671.19832    -0.24215     1.13594     0.90228
  augment   -84.32464   -84.32444   -96.04577    -0.00004    -0.00012     0.00010
  Kinetic   506.41070   501.22295   517.81938    -2.94806     0.53248     0.05157
  Fock        0.00000     0.00000     0.00000     0.00000     0.00000     0.00000
  Total      -6.50000    -6.50000    -8.16107     0.00000     0.00000     0.00000
  in kB     -10.74914   -10.74914   -13.49608     0.00000     0.00000     0.00000

 VOLUME and BASIS-vectors are now :
  energy-cutoff  :      520.00
  volume of cell :      968.84
      direct lattice vectors                 reciprocal lattice vectors
     6.907777000 -0.000000000  0.000000000     0.144764372 -0.083579742  0.000000000
     3.453888000  5.982310000  0.000000000     0.000000000  0.167159509 -0.000000000
     0.000000000  0.000000000 23.444588000    -0.000000000  0.000000000  0.042653767

[...]

 FORCES acting on ions
    electron-ion (+dipol)            ewald-force                    non-local-force                 convergence-correction
   0.165E-03 0.638E-04 0.812E+00   0.461E-03 0.278E-03 -.899E+00   0.000E+00 0.000E+00 0.480E-01   -.929E-06 -.527E-06 -.311E-02
   -.146E-03 -.894E-04 -.978E+00   -.461E-03 -.278E-03 0.899E+00   -.694E-17 0.000E+00 0.383E-01   0.791E-06 0.454E-06 -.346E-02
   -.344E-04 -.187E-04 0.174E+03   -.141E-03 -.779E-04 -.172E+03   -.694E-17 0.000E+00 -.153E+01   0.109E-06 0.580E-07 -.666E-03
   0.280E-04 0.202E-04 -.175E+03   0.141E-03 0.779E-04 0.172E+03   -.139E-16 -.139E-16 0.298E+01   -.115E-06 -.534E-07 -.601E-03
   -.175E+02 0.170E+00 -.380E+03   0.139E+02 -.154E+00 0.384E+03   0.378E+01 -.201E-01 -.513E+01   0.229E-02 -.872E-02 0.514E-03
   0.888E+01 0.150E+02 -.380E+03   -.706E+01 -.119E+02 0.384E+03   -.191E+01 -.327E+01 -.513E+01   -.869E-02 0.237E-02 0.514E-03
   0.858E+01 -.152E+02 -.380E+03   -.679E+01 0.121E+02 0.384E+03   -.187E+01 0.329E+01 -.513E+01   0.640E-02 0.634E-02 0.515E-03
   0.175E+02 -.147E+00 0.380E+03   -.139E+02 0.154E+00 -.384E+03   -.319E+01 0.705E-02 0.506E+01   -.167E-02 -.884E-02 -.203E-02
   -.887E+01 -.151E+02 0.380E+03   0.706E+01 0.119E+02 -.384E+03   0.160E+01 0.276E+01 0.506E+01   -.683E-02 0.586E-02 -.203E-02
   -.862E+01 0.152E+02 0.380E+03   0.679E+01 -.121E+02 -.384E+03   0.159E+01 -.276E+01 0.506E+01   0.849E-02 0.298E-02 -.203E-02
   0.450E-04 0.125E-04 -.131E+01   0.888E-15 0.178E-14 -.171E-12   -.444E-15 -.888E-15 0.132E+01   -.138E-06 -.657E-07 -.124E-01

 POSITION                                       TOTAL-FORCE (eV/Angst)
      3.45388      1.99410     11.72054        -0.000000      0.000000     -0.043065
      6.90778      3.98821     11.72405        -0.000000     -0.000000     -0.043928
      0.00000      0.00000     10.50824        -0.000000      0.000000      0.386554
      0.00000      0.00000     12.93635        -0.000000      0.000000     -0.049968
      4.32819      0.00251     13.45138         0.180007     -0.012085     -0.772940
      1.29198      2.23274     13.45138        -0.100470     -0.149848     -0.772940
      4.74152      3.74706     13.45138        -0.079538      0.161933     -0.772940
      6.03348      5.97980      9.99321         0.448003      0.004622      0.689743
      9.06969      3.74957      9.99321        -0.219999     -0.390293      0.689743
      5.62015      2.23525      9.99321        -0.228004      0.385672      0.689743
    total drift:                                0.000045      0.000012      0.000890

  FREE ENERGIE OF THE ION-ELECTRON SYSTEM (eV)
  free  energy   TOTEN  =       -37.85664125 eV

  energy  without entropy=      -37.85664125  energy(sigma->0) =      -37.85664125

[...]

 d Force =-0.2710883E-03[-0.833E-03, 0.291E-03]  d Energy = 0.3636645E+00-0.364E+00
 d Force =-0.4116180E+00[-0.425E+00,-0.399E+00]  d Ewald  =-0.1389538E+03 0.139E+03

 Steepest descent step on ions:
 trial-energy change:   -0.363665  1 .order   -0.323453   -0.729263    0.082357
  (g-gl).g = 0.729E+00      g.g   = 0.729E+00  gl.gl    = 0.000E+00
 g(Force)  = 0.303E-03   g(Stress)= 0.729E+00 ortho     = 0.000E+00
 gamma     =   0.00000
 trial     =   1.00000
 opt step  =   0.92033  (harmonic =   0.89853) maximal distance =0.00000000
 next E    =   -38.223566   (d E  =  -0.36693)

[...]

 d Force = 0.6398994E-04[ 0.586E-04, 0.693E-04]  d Energy = 0.2658034E-02-0.259E-02
 d Force = 0.3524329E-01[ 0.352E-01, 0.353E-01]  d Ewald  = 0.1119074E+02-0.112E+02

[...]

 Conjugate gradient step on ions:
 trial-energy change:   -0.072799  1 .order   -0.073700   -0.097387   -0.050014
  (g-gl).g = 0.928E-01      g.g   = 0.983E-01  gl.gl    = 0.729E+00
 g(Force)  = 0.667E-02   g(Stress)= 0.916E-01 ortho     = 0.547E-02
 gamma     =   0.12725
 trial     =   0.98407
 opt step  =   2.43084  (harmonic =   2.02297) maximal distance =0.04243728
 next E    =   -38.329665   (d E  =  -0.10670)

[...]

 d Force =-0.9673522E-02[-0.891E-02,-0.104E-01]  d Energy = 0.7394785E-02-0.171E-01
 d Force =-0.1479697E+01[-0.148E+01,-0.148E+01]  d Ewald  =-0.1422844E+03 0.141E+03

[...]

 Conjugate gradient step on ions:
 trial-energy change:   -0.042157  1 .order   -0.043629   -0.077194   -0.010065
  (g-gl).g = 0.692E-01      g.g   = 0.761E-01  gl.gl    = 0.983E-01
 g(Force)  = 0.588E-01   g(Stress)= 0.173E-01 ortho     =-0.707E-02
 gamma     =   0.70414
 trial     =   1.08517
 opt step  =   1.27771  (harmonic =   1.24787) maximal distance =0.08373580
 next E    =   -38.363090   (d E  =  -0.04304)

[...]

 d Force = 0.4233108E-02[ 0.352E-02, 0.494E-02]  d Energy = 0.7622468E-03 0.347E-02
 d Force = 0.2359029E+01[ 0.236E+01, 0.236E+01]  d Ewald  = 0.3775935E+02-0.354E+02

[...]

 d Force = 0.4086005E-02[-0.191E-02, 0.101E-01]  d Energy = 0.9842627E-02-0.576E-02
 d Force = 0.6854696E+01[ 0.695E+01, 0.676E+01]  d Ewald  =-0.3618978E+02 0.430E+02

 Conjugate gradient step on ions:
 trial-energy change:   -0.009843  1 .order   -0.012599   -0.027127    0.001928
  (g-gl).g = 0.218E-01      g.g   = 0.240E-01  gl.gl    = 0.761E-01
 g(Force)  = 0.376E-02   g(Stress)= 0.203E-01 ortho     = 0.340E-03
 gamma     =   0.28647
 trial     =   1.12368
 opt step  =   0.97615  (harmonic =   1.04910) maximal distance =0.03145855
 next E    =   -38.372943   (d E  =  -0.00998)

[...]

 eigenvalue-minimisations  :  1216
 total energy-change (2. order) :-0.4326992E-04  (-0.1649243E-03)
 number of electron      60.0000003 magnetization       1.9987056
 augmentation part        0.4232650 magnetization       1.8283705

 Broyden mixing:
  rms(total) = 0.10581E-01    rms(broyden)= 0.10580E-01
  rms(prec ) = 0.11962E-01
  weight for this iteration     100.00

 eigenvalues of (default mixing * dielectric matrix)
  average eigenvalue GAMMA=   0.6324
  1.3837  0.2424  0.2712

[...]

--------------------------------------- Iteration     10(   5)  ---------------------------------------

[...]

 eigenvalue-minimisations  :   960
 total energy-change (2. order) : 0.2446439E-04  (-0.6244957E-04)
 number of electron      60.0000003 magnetization       1.9987056
 augmentation part        0.4232650 magnetization       1.8283705

 Free energy of the ion-electron system (eV)
  alpha Z        PSCENC =        17.78961263
  Ewald energy   TEWEN  =      6281.29448089
  -Hartree energ DENC   =     -8791.26436895
  -exchange      EXHF   =         0.00000000
  -V(xc)+E(xc)   XCENC  =      -185.05545220
  PAW double counting   =      1764.86986576    -1506.57332610
  entropy T*S    EENTRO =         0.00000000
  eigenvalues    EBANDS =      -369.29556660
  atomic energy  EATOM  =      2749.86080559
  Solvation  Ediel_sol  =         0.00000000
  free energy    TOTEN  =       -38.37394900 eV

  energy without entropy =      -38.37394900  energy(sigma->0) =      -38.37394900

 average (electrostatic) potential at core
  the test charge radii are     1.0103  1.1631  0.9892  1.1897
  (the norm of the test charge is              1.0000)
       1 -50.6641       2 -50.6559       3 -38.5151       4 -91.6680       5 -96.2146
       6 -96.2145       7 -96.2145       8 -96.2120       9 -96.2120      10 -96.2119

 E-fermi :  -1.7302     XC(G=0):  -3.4849     alpha+bet : -3.3828

[...]

 spin component 2

[...]

 k-point     5 :      -0.4000    0.2000    0.0000
  band No.  band energies     occupation
      1     -13.9493      1.00000
      2     -13.5560      1.00000
      3     -13.1713      1.00000
      4     -13.0025      1.00000
      5     -12.7522      1.00000
      6     -12.6156      1.00000
      7      -9.8715      1.00000
      8      -8.2453      1.00000
      9      -6.4662      1.00000
     10      -5.9845      1.00000
     11      -5.8935      1.00000
     12      -5.4153      1.00000
     13      -5.1119      1.00000
     14      -4.8226      1.00000
     15      -4.6060      1.00000
     16      -4.3089      1.00000
     17      -4.3008      1.00000
     18      -4.1071      1.00000
     19      -4.0336      1.00000
     20      -3.7909      1.00000
     21      -3.6878      1.00000
     22      -3.1436      1.00000
     23      -3.0433      1.00000
     24      -2.8308      1.00000
     25      -2.6302      1.00000
     26      -2.2714      1.00000
     27      -1.9771      1.00000
     28      -1.8821      1.00000
     29      -1.7692      1.00000
     30      -1.4407      0.00000
     31      -1.4159      0.00000
     32      -0.7133      0.00000
     33      -0.5203      0.00000
     34      -0.3800      0.00000
     35      -0.1089      0.00000
     36      -0.0059      0.00000
     37       0.4827      0.00000
     38       1.0188      0.00000
     39       1.4114      0.00000
     40       1.8160      0.00000
     41       2.0378      0.00000
     42       2.2779      0.00000
     43       3.1046      0.00000
     44       3.2395      0.00000
     45       3.2616      0.00000
     46       3.4446      0.00000
     47       3.5184      0.00000
     48       4.1903      0.00000

[...]

 soft charge-density along one line, spin component           2
         0         1         2         3         4         5         6         7         8         9
 total charge-density along one line

------------------------ aborting loop because EDIFF is reached ----------------------------------------

[...]

  FORCE on cell =-STRESS in cart. coord.  units (eV):
  Direction    XX          YY          ZZ          XY          YZ          ZX
  Alpha Z    17.78961    17.78961    17.78961
  Ewald    8000.13510  8000.13275 -9718.97681    -0.00172    -0.00051    -0.00093
  Hartree  8464.49932  8464.50006 -8139.23158    -0.00019     0.00007     0.00012
  E(xc)    -249.69001  -249.68997  -248.27169     0.00000     0.00002     0.00002
  Local  -17321.66507-17321.66437 16980.97586     0.00162     0.00033     0.00062
  n-local   663.01151   662.62075   675.63123    -0.05228     1.11676     1.35583
  augment   -83.90484   -83.90475   -96.69098     0.00011     0.00000     0.00005
  Kinetic   512.12923   508.66147   528.80939    -2.57538     1.02831     1.37059
  Fock        0.00000     0.00000     0.00000     0.00000     0.00000     0.00000
  Total       0.37521     0.37521     0.03502     0.00000     0.00000     0.00000
  in kB       0.69926     0.69926     0.06526     0.00000     0.00000     0.00000

 VOLUME and BASIS-vectors are now :
  energy-cutoff  :      520.00
  volume of cell :      859.69
      direct lattice vectors                 reciprocal lattice vectors
     6.814018910 -0.000000156 -0.000000000     0.146756268 -0.084729769  0.000000000
     3.407009113  5.901113050 -0.000000000     0.000000004  0.169459554  0.000000000
    -0.000000000 -0.000000000 21.379877796     0.000000000  0.000000000  0.046772952

  length of vectors
     6.814018910  6.814018369 21.379877796     0.169459541  0.169459554  0.046772952

 FORCES acting on ions
    electron-ion (+dipol)            ewald-force                    non-local-force                 convergence-correction
   0.868E-04 0.252E-04 0.462E+01   0.514E-03 0.309E-03 -.483E+01   -.185E-17 -.183E-17 0.190E+00   -.874E-06 0.238E-06 0.374E-02
   -.814E-04 -.422E-04 0.229E+01   -.521E-03 -.313E-03 -.247E+01   0.164E-17 -.845E-19 0.171E+00   -.351E-06 0.276E-06 0.324E-02
   -.396E-04 -.580E-05 0.176E+03   -.143E-03 -.793E-04 -.174E+03   -.555E-17 0.119E-17 -.239E+01   -.356E-07 -.320E-07 0.542E-02
   0.423E-04 0.106E-04 -.195E+03   0.155E-03 0.856E-04 0.192E+03   -.229E-16 -.157E-16 0.362E+01   -.233E-07 -.325E-07 -.557E-02
   -.211E+02 0.150E+00 -.379E+03   0.167E+02 -.876E-01 0.383E+03   0.416E+01 -.141E-01 -.474E+01   0.147E-01 -.532E-01 0.423E-02
   0.107E+02 0.182E+02 -.379E+03   -.843E+01 -.144E+02 0.383E+03   -.209E+01 -.360E+01 -.474E+01   -.535E-01 0.138E-01 0.423E-02
   0.104E+02 -.183E+02 -.379E+03   -.828E+01 0.145E+02 0.383E+03   -.207E+01 0.361E+01 -.474E+01   0.387E-01 0.394E-01 0.423E-02
   0.236E+02 -.454E-01 0.382E+03   -.194E+02 0.917E-01 -.387E+03   -.341E+01 0.177E-01 0.492E+01   -.159E-01 -.541E-01 -.178E-02
   -.118E+02 -.204E+02 0.382E+03   0.980E+01 0.168E+02 -.387E+03   0.172E+01 0.295E+01 0.492E+01   -.389E-01 0.408E-01 -.178E-02
   -.117E+02 0.204E+02 0.382E+03   0.964E+01 -.169E+02 -.387E+03   0.169E+01 -.297E+01 0.492E+01   0.548E-01 0.133E-01 -.178E-02
   -.262E-04 0.780E-04 -.215E+01   -.711E-14 -.711E-14 -.114E-12   0.666E-15 0.888E-15 0.212E+01   -.143E-05 0.365E-06 0.142E-01

 POSITION                                       TOTAL-FORCE (eV/Angst)
      3.40701      1.96704     10.67823        -0.000000      0.000000     -0.008932
      6.81402      3.93408     10.68339        -0.000000      0.000000     -0.004753
     -0.00000     -0.00000      9.58280        -0.000000     -0.000000      0.077927
     -0.00000     -0.00000     11.94185        -0.000000      0.000000     -0.012965
      4.26944      0.00248     12.26675        -0.207721     -0.004439     -0.005696
      1.27444      2.20244     12.26675         0.100016      0.182111     -0.005696
      4.67716      3.69620     12.26675         0.107705     -0.177672     -0.005696
      5.95159      5.89863      9.11313         0.694149      0.009414     -0.011396
      8.94659      3.69868      9.11313        -0.338922     -0.605857     -0.011396
      5.54387      2.20491      9.11313        -0.355227      0.596443     -0.011396
    total drift:                               -0.000028      0.000078     -0.014058

  FREE ENERGIE OF THE ION-ELECTRON SYSTEM (eV)
  free  energy   TOTEN  =       -38.37394900 eV

  energy  without entropy=      -38.37394900  energy(sigma->0) =      -38.37394900

 d Force = 0.1555131E-03[ 0.594E-04, 0.252E-03]  d Energy = 0.1138880E-02-0.983E-03
 d Force =-0.9151626E+00[-0.914E+00,-0.917E+00]  d Ewald  = 0.4768268E+01-0.568E+01

 reached required accuracy - stopping structural energy minimisation

 total charge

[...]

 magnetization (x)

# of ion       s       p       d       tot
    1        0.012   0.014   1.177   1.202
    2        0.012   0.014   1.179   1.205
    3       -0.004   0.002  -0.001  -0.002
    4       -0.003  -0.001   0.000  -0.004
    5       -0.001  -0.052  -0.001  -0.054
    6       -0.002  -0.032  -0.001  -0.034
    7       -0.001  -0.047  -0.001  -0.049
    8       -0.001  -0.056  -0.001  -0.058
    9       -0.002  -0.036  -0.001  -0.038
   10       -0.001  -0.052  -0.001  -0.054
tot          0.009  -0.245   2.350   2.114

 BZINTS: Fermi energy: -1.730164; 60.000000 electrons
         Band energy:-369.295567;  BLOECHL correction:  0.000000