 vasp.5.4.4.18Apr17-6-g9f103f2a35 (build May  1 2020 15:48:39) complex
 executed on             LinuxGNU date 2020.07.05  07:58:42

 INCAR:
 POTCAR:   PAW_PBE Fe 06Sep2000
 POTCAR:   PAW_PBE Si 05Jan2001
 POTCAR:   PAW_PBE Te 08Apr2002

 POTCAR:   PAW_PBE Fe 06Sep2000
   VRHFIN =Fe:  d7 s1

   TITEL  = PAW_PBE Fe 06Sep2000
   POMASS =   55.847; ZVAL   =    8.000    mass and valenz
   ENMAX  =  267.883; ENMIN  =  200.912 eV
   QCUT   =   -4.437; QGAM   =    8.874    optimization parameters

   Description
     l     E      TYP  RCUT    TYP  RCUT
     2   .000     23  2.300
     2   .000     23  2.300
     0   .000     23  2.300
     0   .000     23  2.300
     1  -.200     23  2.300
     1   .000     23  2.300
     3   .000      7   .000

 POTCAR:   PAW_PBE Si 05Jan2001
   VRHFIN =Si: s2p2

   TITEL  = PAW_PBE Si 05Jan2001
   POMASS =   28.085; ZVAL   =    4.000    mass and valenz
   ENMAX  =  245.345; ENMIN  =  184.009 eV
   QCUT   =   -4.246; QGAM   =    8.493    optimization parameters

[...]

 POTCAR:   PAW_PBE Te 08Apr2002
   VRHFIN =Te: s2p4

   TITEL  = PAW_PBE Te 08Apr2002
   POMASS =  127.600; ZVAL   =    6.000    mass and valenz
   ENMAX  =  174.982; ENMIN  =  131.236 eV
   QCUT   =   -3.586; QGAM   =    7.172    optimization parameters

   Description
     l     E      TYP  RCUT    TYP  RCUT
     0   .000     23  2.300
     0   .000     23  2.300
     1   .000     23  2.300
     1   .000     23  2.300
     2   .000     23  2.300
     3  -.100     23  2.300

 Optimization of the real space projectors (new method)

 maximal supplied QI-value         = 16.25
 optimisation between [QCUT,QGAM] = [ 11.54, 23.24] = [ 37.28,151.24] Ry
 Optimized for a Real-space Cutoff    1.53 Angstroem

   l    n(q)    QCUT    max X(q) W(low)/X(q) W(high)/X(q)  e(spline)
   2     10    11.539     4.378    0.86E-05    0.15E-04    0.46E-07
   2     10    11.539    23.237    0.11E-03    0.14E-03    0.22E-06
   0     11    11.539    17.641    0.19E-04    0.14E-05    0.18E-07
   0     11    11.539    50.908    0.43E-04    0.16E-04    0.30E-06
   1     10    11.539     6.148    0.11E-04    0.38E-05    0.26E-07
   1     10    11.539     8.345    0.44E-04    0.25E-04    0.11E-06
 Optimization of the real space projectors (new method)

[...]

   l    n(q)    QCUT    max X(q) W(low)/X(q) W(high)/X(q)  e(spline)
   0      8    11.508     8.708    0.18E-04    0.44E-05    0.47E-08
   0      8    11.508   106.241    0.70E-04    0.15E-03    0.51E-07
   1      8    11.508     5.901    0.63E-05    0.23E-04    0.21E-07
   1      8    11.508    73.241    0.15E-03    0.36E-04    0.79E-07
 Optimization of the real space projectors (new method)

 maximal supplied QI-value         = 16.25
 optimisation between [QCUT,QGAM] = [ 11.54, 23.24] = [ 37.28,151.24] Ry
 Optimized for a Real-space Cutoff    1.36 Angstroem

   l    n(q)    QCUT    max X(q) W(low)/X(q) W(high)/X(q)  e(spline)
   0      9    11.539     7.090    0.13E-04    0.25E-05    0.51E-08
   0      9    11.539   101.654    0.53E-04    0.69E-04    0.12E-06
   1      9    11.539     5.276    0.20E-04    0.98E-05    0.24E-07
   1      9    11.539    81.891    0.24E-03    0.13E-04    0.15E-06
   2      9    11.539     5.599    0.30E-04    0.97E-04    0.54E-07

 PAW_PBE Fe 06Sep2000                   :
 PAW_PBE Si 05Jan2001                   :
 PAW_PBE Te 08Apr2002                   :

 POSCAR: Fe2 Si2 Te6
  positions in direct lattice
 exchange correlation table for  LEXCH =       42
   RHO(1)=    0.500       N(1)  =     2000
   RHO(2)=  100.500       N(2)  =     4000

 ion  position               nearest neighbor table
   1  0.333  0.333  0.500-   6 2.78   5 2.78   7 2.78   8 2.78  10 2.78   9 2.78
   2  0.667  0.667  0.500-   9 2.78   8 2.78  10 2.78   5 2.78   7 2.78   6 2.78
   3  0.000  0.000  0.448-   4 2.43   8 2.63  10 2.63   9 2.63
   4  0.000  0.000  0.552-   3 2.43   5 2.63   7 2.63   6 2.63
   5  0.626  0.000  0.574-   4 2.63   1 2.78   2 2.78
   6  0.000  0.373  0.574-   4 2.63   1 2.78   2 2.78
   7  0.373  0.626  0.574-   4 2.63   1 2.78   2 2.78
   8  0.374  1.000  0.426-   3 2.63   2 2.78   1 2.78
   9  1.000  0.627  0.426-   3 2.63   2 2.78   1 2.78
  10  0.627  0.374  0.426-   3 2.63   2 2.78   1 2.78

  LATTYP: Found a hexagonal cell.
 ALAT       =     6.9077769333
 C/A-ratio  =     3.3939410937

  Lattice vectors:

 A1 = (   3.4538890000,  -5.9823100000,   0.0000000000)
 A2 = (  -6.9077770000,   0.0000000000,   0.0000000000)
 A3 = (   0.0000000000,   0.0000000000, -23.4445880000)

Analysis of symmetry for initial positions (statically):
 Subroutine PRICEL returns:
 Original cell was already a primitive cell.

 Routine SETGRP: Setting up the symmetry group for a
 hexagonal supercell.

 Subroutine GETGRP returns: Found  6 space group operations
 (whereof  6 operations were pure point group operations)
 out of a pool of 24 trial point group operations.

The static configuration has the point symmetry S_6 .

Analysis of symmetry for dynamics (positions and initial velocities):
 Subroutine PRICEL returns:
 Original cell was already a primitive cell.

[...]

The dynamic configuration has the point symmetry S_6 .

Analysis of constrained symmetry for selective dynamics:
 Subroutine PRICEL returns:
 Original cell was already a primitive cell.

[...]

The constrained configuration has the point symmetry S_6 .

Analysis of structural, dynamic, and magnetic symmetry:
 Subroutine PRICEL returns:
 Original cell was already a primitive cell.

 Routine SETGRP: Setting up the symmetry group for a
 hexagonal supercell.

 Subroutine GETGRP returns: Found  6 space group operations
 (whereof  6 operations were pure point group operations)
 out of a pool of 24 trial point group operations.

The magnetic configuration has the point symmetry S_6 .

 Subroutine INISYM returns: Found  6 space group operations
 (whereof  6 operations are pure point group operations),
 and found     1 'primitive' translations

 KPOINTS: Kpoints from vasprun.xml

Automatic generation of k-mesh.
Space group operators:
 irot       det(A)        alpha          n_x          n_y          n_z        tau_x        tau_y        tau_z
    1     1.000000     0.000000     1.000000     0.000000     0.000000     0.000000     0.000000     0.000000
    2    -1.000000     0.000000     1.000000     0.000000     0.000000     0.000000     0.000000     0.000000
    3     1.000000   120.000000     0.000000     0.000000     1.000000     0.000000     0.000000     0.000000
    4    -1.000000   120.000000     0.000000     0.000000     1.000000     0.000000     0.000000     0.000000
    5     1.000000   120.000000     0.000000     0.000000    -1.000000     0.000000     0.000000     0.000000
    6    -1.000000   120.000000     0.000000     0.000000    -1.000000     0.000000     0.000000     0.000000

 Subroutine IBZKPT returns following result:

 Found      5 irreducible k-points:

 Following reciprocal coordinates:
            Coordinates               Weight
  0.000000  0.000000  0.000000      1.000000
  0.200000  0.000000  0.000000      6.000000
  0.400000  0.000000  0.000000      6.000000
  0.400000  0.200000  0.000000      6.000000
 -0.400000  0.200000  0.000000      6.000000

 Following cartesian coordinates:
            Coordinates               Weight
  0.000000  0.000000  0.000000      1.000000
  0.028953 -0.016716  0.000000      6.000000
  0.057906 -0.033432  0.000000      6.000000
  0.057906  0.000000  0.000000      6.000000
 -0.057906  0.066864  0.000000      6.000000

 TETIRR: Found     15 inequivalent tetrahedra from      150

 SYSTEM =  unknown system
 POSCAR =  Fe2 Si2 Te6

 Startparameter for this run:
   NWRITE =      2    write-flag & timer
   PREC   = accura    normal or accurate (medium, high low for compatibility)
   ISTART =      0    job   : 0-new  1-cont  2-samecut
   ICHARG =      2    charge: 1-file 2-atom 10-const
   ISPIN  =      2    spin polarized calculation?
   LNONCOLLINEAR =      F non collinear calculations
   LSORBIT =      F    spin-orbit coupling
   INIWAV =      1    electr: 0-lowe 1-rand  2-diag
   LASPH  =      F    aspherical Exc in radial PAW
   METAGGA=      F    non-selfconsistent MetaGGA calc.

 Electronic Relaxation 1
   ENCUT  =  520.0 eV  38.22 Ry    6.18 a.u.  12.84 12.84 43.59*2*pi/ulx,y,z
   ENINI  =  520.0     initial cutoff
   ENAUG  =  511.4 eV  augmentation charge cutoff
   NELM   =    400;   NELMIN=  2; NELMDL=  0     # of ELM steps
   EDIFF  = 0.1E-03   stopping-criterion for ELM
   LREAL  =      T    real-space projection
   NLSPLINE    = F    spline interpolate recip. space projectors
   LCOMPAT=      F    compatible to vasp.4.4
   GGA_COMPAT  = T    GGA compatible to vasp.4.4-vasp.4.6
   LMAXPAW     = -100 max onsite density
   LMAXMIX     =    2 max onsite mixed and CHGCAR
   VOSKOWN=      0    Vosko Wilk Nusair interpolation
   ROPT   =   -0.00025  -0.00025  -0.00025
 Ionic relaxation
   EDIFFG = 0.1E-02   stopping-criterion for IOM
   NSW    =     99    number of steps for IOM
   NBLOCK =      1;   KBLOCK =     99    inner block; outer block
   IBRION =      2    ionic relax: 0-MD 1-quasi-New 2-CG
   NFREE  =      1    steps in history (QN), initial steepest desc. (CG)
   ISIF   =      3    stress and relaxation
   IWAVPR =     11    prediction:  0-non 1-charg 2-wave 3-comb
   ISYM   =      2    0-nonsym 1-usesym 2-fastsym
   LCORR  =      T    Harris-Foulkes like correction to forces

   POTIM  = 0.5000    time-step for ionic-motion
   TEIN   =    0.0    initial temperature
   TEBEG  =    0.0;   TEEND  =   0.0 temperature during run
   SMASS  =  -3.00    Nose mass-parameter (am)
   estimated Nose-frequenzy (Omega)   =  0.10E-29 period in steps =****** mass=  -0.109E-26a.u.
   SCALEE = 1.0000    scale energy and forces
   NPACO  =    256;   APACO  = 16.0  distance and # of slots for P.C.
   PSTRESS=    0.0 pullay stress

  Mass of Ions in am
   POMASS =  55.85 28.09127.60
  Ionic Valenz
   ZVAL   =   8.00  4.00  6.00
  Atomic Wigner-Seitz radii
  virtual crystal weights
   VCA    =   1.00  1.00  1.00
   NELECT =      60.0000    total number of electrons
   NUPDOWN=      -1.0000    fix difference up-down

 DOS related values:
   EMIN   =  10.00;   EMAX   =-10.00  energy-range for DOS
   EFERMI =   0.00
   ISMEAR =    -5;   SIGMA  =   0.05  broadening in eV -4-tet -1-fermi 0-gaus

 Electronic relaxation 2 (details)
   IALGO  =     38    algorithm
   LDIAG  =      T    sub-space diagonalisation (order eigenvalues)
   LSUBROT=      F    optimize rotation matrix (better conditioning)
   TURBO    =      0    0=normal 1=particle mesh
   IRESTART =      0    0=no restart 2=restart with 2 vectors
   NREBOOT  =      0    no. of reboots
   NMIN     =      0    reboot dimension
   EREF     =   0.00    reference energy to select bands
   IMIX   =      4    mixing-type and parameters
     AMIX     =   0.40;   BMIX     =  1.00
     AMIX_MAG =   1.60;   BMIX_MAG =  1.00
     AMIN     =   0.01
     WC   =   100.;   INIMIX=   1;  MIXPRE=   1;  MAXMIX= -45

 Intra band minimization:
   WEIMIN = 0.0010     energy-eigenvalue tresh-hold
   EBREAK =  0.52E-06  absolut break condition
   DEPER  =   0.30     relativ break condition

   TIME   =   0.40     timestep for ELM

[...]
     47       3.0999      0.00000
     48       3.0999      0.00000

[...]

 soft charge-density along one line, spin component           1
         0         1         2         3         4         5         6         7         8         9
 total charge-density along one line

[...]

------------------------ aborting loop because EDIFF is reached ----------------------------------------

 total charge

# of ion       s       p       d       tot
    1        0.316   0.321   6.253   6.890
    2        0.316   0.321   6.253   6.890
    3        0.789   0.785   0.000   1.575
    4        0.789   0.785   0.000   1.575
    5        1.397   1.909   0.034   3.341
    6        1.391   1.921   0.035   3.347
    7        1.395   1.910   0.035   3.340
    8        1.397   1.909   0.034   3.341
    9        1.391   1.921   0.035   3.347
   10        1.395   1.910   0.035   3.340
tot         10.577  13.695  12.713  36.984

 magnetization (x)

[...]

  FORCE on cell =-STRESS in cart. coord.  units (eV):
  Direction    XX          YY          ZZ          XY          YZ          ZX
  Alpha Z    13.34751    13.34751    13.34751
  Ewald    8666.95156  8666.94951-10328.88300    -0.00153    -0.00045    -0.00082
  Hartree  9162.81906  9162.81974 -8825.96328    -0.00019     0.00007     0.00011
  E(xc)    -245.92449  -245.92454  -244.66543     0.00009     0.00004     0.00001
  Local  -18689.88933-18689.88876 18276.53812     0.00149     0.00030     0.00056
  n-local   674.31055   674.04452   689.27723    -0.32416     1.17475     1.09579
  augment   -91.39602   -91.39582  -103.85955    -0.00003    -0.00017     0.00014
  Kinetic   503.11825   498.74647   513.58526    -2.72283     0.95841     0.68782
  Fock        0.00000     0.00000     0.00000     0.00000     0.00000     0.00000
  Total      -8.98214    -8.98214   -10.62315     0.00000     0.00000    -0.00000
  in kB     -14.85390   -14.85390   -17.56766     0.00000     0.00000    -0.00000

 VOLUME and BASIS-vectors are now :
  energy-cutoff  :      520.00
  volume of cell :      968.84
      direct lattice vectors                 reciprocal lattice vectors
     6.907777000 -0.000000000  0.000000000     0.144764372 -0.083579742  0.000000000
     3.453888000  5.982310000  0.000000000     0.000000000  0.167159509 -0.000000000
     0.000000000  0.000000000 23.444588000    -0.000000000  0.000000000  0.042653767

[...]

 FORCES acting on ions
    electron-ion (+dipol)            ewald-force                    non-local-force                 convergence-correction
   0.169E-03 0.887E-04 0.895E+00   0.461E-03 0.278E-03 -.899E+00   0.347E-17 0.173E-17 0.509E-02   -.262E-06 -.153E-06 -.131E-04
   -.169E-03 -.887E-04 -.895E+00   -.461E-03 -.278E-03 0.899E+00   -.173E-17 -.173E-17 -.509E-02   0.262E-06 0.153E-06 0.131E-04
   -.410E-04 -.781E-05 0.176E+03   -.141E-03 -.779E-04 -.172E+03   -.208E-16 0.000E+00 -.288E+01   -.130E-08 -.486E-08 -.134E-02
   0.410E-04 0.781E-05 -.176E+03   0.141E-03 0.779E-04 0.172E+03   0.347E-17 0.000E+00 0.288E+01   0.130E-08 0.486E-08 0.134E-02
   -.176E+02 0.159E+00 -.379E+03   0.139E+02 -.154E+00 0.384E+03   0.383E+01 -.145E-01 -.530E+01   -.370E-03 -.571E-05 0.246E-02
   0.892E+01 0.151E+02 -.379E+03   -.706E+01 -.119E+02 0.384E+03   -.193E+01 -.331E+01 -.530E+01   0.180E-03 0.323E-03 0.246E-02
   0.864E+01 -.153E+02 -.379E+03   -.679E+01 0.121E+02 0.384E+03   -.190E+01 0.333E+01 -.530E+01   0.190E-03 -.317E-03 0.246E-02
   0.176E+02 -.159E+00 0.379E+03   -.139E+02 0.154E+00 -.384E+03   -.383E+01 0.145E-01 0.530E+01   0.370E-03 0.571E-05 -.246E-02
   -.892E+01 -.151E+02 0.379E+03   0.706E+01 0.119E+02 -.384E+03   0.193E+01 0.331E+01 0.530E+01   -.180E-03 -.323E-03 -.246E-02
   -.864E+01 0.153E+02 0.379E+03   0.679E+01 -.121E+02 -.384E+03   0.190E+01 -.333E+01 0.530E+01   -.190E-03 0.317E-03 -.246E-02
   -.684E-10 0.193E-09 0.550E-09   0.888E-15 0.178E-14 -.171E-12   0.222E-15 0.000E+00 0.178E-14   0.185E-13 -.745E-14 0.108E-10

 POSITION                                       TOTAL-FORCE (eV/Angst)
      3.45388      1.99410     11.72054        -0.000000     -0.000000      0.000666
      6.90778      3.98821     11.72405        -0.000000     -0.000000     -0.000666
      0.00000      0.00000     10.50824        -0.000000     -0.000000      0.709722
      0.00000      0.00000     12.93635        -0.000000     -0.000000     -0.709722
      4.32819      0.00251     13.45138         0.119958     -0.008944     -0.854936
      1.29198      2.23274     13.45138        -0.067725     -0.099414     -0.854936
      4.74152      3.74706     13.45138        -0.052233      0.108359     -0.854936
      6.03348      5.97980      9.99321        -0.119958      0.008944      0.854936
      9.06969      3.74957      9.99321         0.067725      0.099414      0.854936
      5.62015      2.23525      9.99321         0.052233     -0.108359      0.854936
    total drift:                               -0.000000      0.000000      0.000000

  FREE ENERGIE OF THE ION-ELECTRON SYSTEM (eV)
  free  energy   TOTEN  =       -38.87439623 eV

  energy  without entropy=      -38.87439623  energy(sigma->0) =      -38.87439623

[...]

 d Force = 0.5575652E-02[-0.350E-01, 0.461E-01]  d Energy = 0.5685813E+00-0.563E+00
 d Force =-0.1165198E+02[-0.121E+02,-0.112E+02]  d Ewald  =-0.2400954E+03 0.228E+03

 Steepest descent step on ions:
 trial-energy change:   -0.568581  1 .order   -0.526145   -1.371456    0.319167
  (g-gl).g = 0.137E+01      g.g   = 0.137E+01  gl.gl    = 0.000E+00
 g(Force)  = 0.486E-01   g(Stress)= 0.132E+01 ortho     = 0.000E+00
 gamma     =   0.00000
 trial     =   1.00000
 opt step  =   0.83224  (harmonic =   0.81121) maximal distance =0.02849496
 next E    =   -39.469549   (d E  =  -0.59515)

[...]

 d Force = 0.4768975E-02[ 0.330E-02, 0.624E-02]  d Energy = 0.3378213E-01-0.290E-01
 d Force = 0.2147860E+01[ 0.213E+01, 0.216E+01]  d Ewald  = 0.4131400E+02-0.392E+02

[...]

 Conjugate gradient step on ions:
 trial-energy change:   -0.041474  1 .order   -0.041765   -0.047212   -0.036317
  (g-gl).g = 0.100E+00      g.g   = 0.523E-01  gl.gl    = 0.137E+01
 g(Force)  = 0.782E-02   g(Stress)= 0.445E-01 ortho     =-0.477E-01
 gamma     =   0.07291
 trial     =   0.96645
 opt step  =   3.86579  (harmonic =   4.18772) maximal distance =0.04345060
 next E    =   -39.579048   (d E  =  -0.10229)

[...]

 d Force = 0.3556090E-01[ 0.468E-01, 0.244E-01]  d Energy = 0.2716792E-01 0.839E-02
 d Force = 0.1144760E+02[ 0.114E+02, 0.115E+02]  d Ewald  = 0.6407827E+03-0.629E+03

[...]

 d Force =-0.1418177E-01[-0.131E-01,-0.153E-01]  d Energy = 0.6338212E-02-0.205E-01
 d Force =-0.3727190E+01[-0.373E+01,-0.372E+01]  d Ewald  =-0.1951787E+03 0.191E+03

[...]

 d Force = 0.1885772E-01[-0.114E-01, 0.491E-01]  d Energy = 0.1651225E-01 0.235E-02
 d Force = 0.1401974E+02[ 0.141E+02, 0.140E+02]  d Ewald  = 0.1116506E+03-0.976E+02

[...]

 d Force = 0.1220997E-02[ 0.159E-03, 0.228E-02]  d Energy = 0.1296467E-02-0.755E-04
 d Force =-0.2820254E+01[-0.282E+01,-0.282E+01]  d Ewald  =-0.2219870E+02 0.194E+02

[...]

 d Force =-0.2094300E-04[-0.314E-04,-0.105E-04]  d Energy = 0.3993368E-03-0.420E-03
 d Force = 0.1980194E+00[ 0.198E+00, 0.198E+00]  d Ewald  =-0.1832640E+02 0.185E+02

 Conjugate gradient step on ions:
 trial-energy change:   -0.000399  1 .order   -0.000324   -0.000702    0.000054
  (g-gl).g = 0.123E-02      g.g   = 0.818E-03  gl.gl    = 0.452E-01
 g(Force)  = 0.110E-04   g(Stress)= 0.807E-03 ortho     =-0.243E-02
 gamma     =   0.02724
 trial     =   0.93445
 opt step  =   0.86734  (harmonic =   0.86734) maximal distance =0.00049904
 next E    =   -39.569875   (d E  =  -0.00033)

[...]

 eigenvalue-minimisations  :   800
 total energy-change (2. order) : 0.1123983E-03  (-0.3742290E-04)
 number of electron      59.9999996 magnetization       1.9999997
 augmentation part        0.8435415 magnetization       1.8093425

 Broyden mixing:
  rms(total) = 0.10437E-02    rms(broyden)= 0.10419E-02
  rms(prec ) = 0.11609E-02
  weight for this iteration     100.00

 eigenvalues of (default mixing * dielectric matrix)
  average eigenvalue GAMMA=   0.6866
  1.1405  0.2326

[...]

--------------------------------------- Iteration     10(   4)  ---------------------------------------

[...]

 eigenvalue-minimisations  :   640
 total energy-change (2. order) :-0.2184769E-04  (-0.2169528E-05)
 number of electron      59.9999996 magnetization       1.9999997
 augmentation part        0.8435415 magnetization       1.8093425

 Free energy of the ion-electron system (eV)
  alpha Z        PSCENC =        15.28197928
  Ewald energy   TEWEN  =      6465.83821637
  -Hartree energ DENC   =     -8977.22528654
  -exchange      EXHF   =         0.00000000
  -V(xc)+E(xc)   XCENC  =      -186.85937639
  PAW double counting   =      1755.50072723    -1493.55749385
  entropy T*S    EENTRO =         0.00000000
  eigenvalues    EBANDS =      -365.91549732
  atomic energy  EATOM  =      2747.36670921
  Solvation  Ediel_sol  =         0.00000000
  free energy    TOTEN  =       -39.57002201 eV

  energy without entropy =      -39.57002201  energy(sigma->0) =      -39.57002201

 average (electrostatic) potential at core
  the test charge radii are     1.0103  0.9892  1.1897
  (the norm of the test charge is              1.0000)
       1 -50.5942       2 -50.5942       3 -91.5110       4 -91.5110       5 -96.1391
       6 -96.1391       7 -96.1391       8 -96.1391       9 -96.1391      10 -96.1391

 E-fermi :  -1.6613     XC(G=0):  -3.6751     alpha+bet : -3.4752

[...]

 spin component 2

[...]

 k-point     5 :      -0.4000    0.2000    0.0000
  band No.  band energies     occupation
      1     -13.7960      1.00000
      2     -13.5429      1.00000
      3     -13.1217      1.00000
      4     -12.9133      1.00000
      5     -12.7318      1.00000
      6     -12.5755      1.00000
      7      -9.5541      1.00000
      8      -7.9480      1.00000
      9      -6.4686      1.00000
     10      -5.9689      1.00000
     11      -5.8989      1.00000
     12      -5.4225      1.00000
     13      -5.1200      1.00000
     14      -4.8545      1.00000
     15      -4.5684      1.00000
     16      -4.2991      1.00000
     17      -4.2494      1.00000
     18      -4.0539      1.00000
     19      -3.9921      1.00000
     20      -3.7329      1.00000
     21      -3.6297      1.00000
     22      -3.0939      1.00000
     23      -2.9554      1.00000
     24      -2.7997      1.00000
     25      -2.5944      1.00000
     26      -2.2531      1.00000
     27      -1.9241      1.00000
     28      -1.8259      1.00000
     29      -1.6898      1.00000
     30      -1.4036      0.00000
     31      -1.3748      0.00000
     32      -0.5511      0.00000
     33      -0.4569      0.00000
     34      -0.2362      0.00000
     35       0.0815      0.00000
     36       0.0944      0.00000
     37       0.6565      0.00000
     38       0.9953      0.00000
     39       1.4347      0.00000
     40       1.8336      0.00000
     41       2.0651      0.00000
     42       2.3673      0.00000
     43       3.1372      0.00000
     44       3.1786      0.00000
     45       3.2671      0.00000
     46       3.3614      0.00000
     47       3.4773      0.00000
     48       4.0249      0.00000

[...]

 soft charge-density along one line, spin component           2
         0         1         2         3         4         5         6         7         8         9
 total charge-density along one line

------------------------ aborting loop because EDIFF is reached ----------------------------------------

[...]

  FORCE on cell =-STRESS in cart. coord.  units (eV):
  Direction    XX          YY          ZZ          XY          YZ          ZX
  Alpha Z    15.28198    15.28198    15.28198
  Ewald    8194.88725  8194.88492 -9923.93760    -0.00171    -0.00051    -0.00094
  Hartree  8656.09261  8656.09334 -8334.85883    -0.00019     0.00007     0.00012
  E(xc)    -248.78701  -248.78703  -247.35789     0.00006     0.00003     0.00001
  Local  -17718.24851-17718.24780 17371.67043     0.00160     0.00033     0.00062
  n-local   682.92910   682.31956   696.78585    -0.16321     1.24036     1.43451
  augment   -91.12150   -91.12133  -104.27252     0.00002     0.00002     0.00004
  Kinetic   511.16963   507.52715   526.72828    -2.71563     0.98195     1.31125
  Fock        0.00000     0.00000     0.00000     0.00000     0.00000     0.00000
  Total       0.07717     0.07717     0.03969     0.00000     0.00000     0.00000
  in kB       0.14612     0.14612     0.07515     0.00000     0.00000     0.00000

 VOLUME and BASIS-vectors are now :
  energy-cutoff  :      520.00
  volume of cell :      846.20
      direct lattice vectors                 reciprocal lattice vectors
     6.752266403 -0.000000245 -0.000000000     0.148098419 -0.085504662  0.000000000
     3.376132950  5.847633777 -0.000000000     0.000000006  0.171009338 -0.000000000
    -0.000000000  0.000000000 21.430917248     0.000000000 -0.000000000  0.046661559

  length of vectors
     6.752266403  6.752265878 21.430917248     0.171009324  0.171009338  0.046661559

 FORCES acting on ions
    electron-ion (+dipol)            ewald-force                    non-local-force                 convergence-correction
   0.216E-03 0.121E-03 0.118E+01   0.521E-03 0.313E-03 -.119E+01   0.264E-18 0.651E-18 0.108E-01   0.457E-08 0.256E-07 -.428E-04
   -.216E-03 -.121E-03 -.118E+01   -.521E-03 -.313E-03 0.119E+01   0.278E-18 -.651E-18 -.108E-01   -.457E-08 -.256E-07 0.428E-04
   -.315E-04 -.249E-04 0.189E+03   -.150E-03 -.829E-04 -.184E+03   -.177E-16 -.211E-16 -.474E+01   0.126E-08 0.189E-08 -.262E-02
   0.315E-04 0.249E-04 -.189E+03   0.150E-03 0.829E-04 0.184E+03   0.212E-16 0.211E-16 0.474E+01   -.126E-08 -.189E-08 0.262E-02
   -.220E+02 0.991E-01 -.390E+03   0.178E+02 -.911E-01 0.395E+03   0.399E+01 -.181E-01 -.481E+01   0.212E-02 -.327E-05 0.700E-02
   0.111E+02 0.190E+02 -.390E+03   -.900E+01 -.154E+02 0.395E+03   -.201E+01 -.345E+01 -.481E+01   -.106E-02 -.183E-02 0.700E-02
   0.109E+02 -.191E+02 -.390E+03   -.884E+01 0.155E+02 0.395E+03   -.198E+01 0.346E+01 -.481E+01   -.106E-02 0.183E-02 0.700E-02
   0.220E+02 -.991E-01 0.390E+03   -.178E+02 0.911E-01 -.395E+03   -.399E+01 0.181E-01 0.481E+01   -.212E-02 0.327E-05 -.700E-02
   -.111E+02 -.190E+02 0.390E+03   0.900E+01 0.154E+02 -.395E+03   0.201E+01 0.345E+01 0.481E+01   0.106E-02 0.183E-02 -.700E-02
   -.109E+02 0.191E+02 0.390E+03   0.884E+01 -.155E+02 -.395E+03   0.198E+01 -.346E+01 0.481E+01   0.106E-02 -.183E-02 -.700E-02
   -.268E-09 -.337E-09 0.664E-11   0.711E-14 0.355E-14 -.568E-13   0.000E+00 0.000E+00 -.178E-14   0.118E-12 0.175E-12 0.620E-11

 POSITION                                       TOTAL-FORCE (eV/Angst)
      3.37613      1.94921     10.71290        -0.000000     -0.000000     -0.002232
      6.75227      3.89842     10.71802        -0.000000     -0.000000      0.002232
     -0.00000      0.00000      9.56860        -0.000000     -0.000000      0.028768
     -0.00000      0.00000     11.86231        -0.000000     -0.000000     -0.028768
      4.23075      0.00246     12.29603        -0.146645     -0.009557      0.010473
      1.26289      2.18248     12.29603         0.065046      0.131777      0.010473
      4.63477      3.66271     12.29603         0.081599     -0.122220      0.010473
      5.89765      5.84518      9.13489         0.146645      0.009557     -0.010473
      8.86551      3.66516      9.13489        -0.065046     -0.131777     -0.010473
      5.49363      2.18493      9.13489        -0.081599      0.122220     -0.010473
    total drift:                               -0.000000     -0.000000      0.000000

  FREE ENERGIE OF THE ION-ELECTRON SYSTEM (eV)
  free  energy   TOTEN  =       -39.57002201 eV

  energy  without entropy=      -39.57002201  energy(sigma->0) =      -39.57002201

 d Force = 0.2218813E-05[ 0.218E-05, 0.226E-05]  d Energy = 0.7387566E-04-0.717E-04
 d Force =-0.1423908E-01[-0.142E-01,-0.142E-01]  d Ewald  = 0.1318381E+01-0.133E+01

 reached required accuracy - stopping structural energy minimisation

 total charge

[...]

 magnetization (x)

# of ion       s       p       d       tot
    1        0.012   0.014   1.167   1.193
    2        0.012   0.014   1.167   1.193
    3       -0.003  -0.000   0.000  -0.003
    4       -0.003  -0.000   0.000  -0.003
    5       -0.001  -0.051  -0.001  -0.053
    6       -0.002  -0.031  -0.001  -0.034
    7       -0.001  -0.047  -0.001  -0.049
    8       -0.001  -0.051  -0.001  -0.053
    9       -0.002  -0.031  -0.001  -0.034
   10       -0.001  -0.047  -0.001  -0.049
tot          0.008  -0.230   2.328   2.107

 BZINTS: Fermi energy: -1.661260; 60.000000 electrons
         Band energy:-365.915497;  BLOECHL correction:  0.000000