 vasp.5.4.4.18Apr17-6-g9f103f2a35 (build May  1 2020 15:48:39) complex
 executed on             LinuxGNU date 2020.06.15  10:53:29

 INCAR:
 POTCAR:   PAW_PBE Cr 06Sep2000
 POTCAR:   PAW_PBE Si 05Jan2001
 POTCAR:    PAW_PBE P 17Jan2003
 POTCAR:   PAW_PBE Te 08Apr2002

 POTCAR:   PAW_PBE Cr 06Sep2000
   VRHFIN =Cr : d5 s1

   TITEL  = PAW_PBE Cr 06Sep2000
   POMASS =   51.996; ZVAL   =    6.000    mass and valenz
   ENMAX  =  227.082; ENMIN  =  170.311 eV
   QCUT   =   -4.085; QGAM   =    8.171    optimization parameters

   Description
     l     E      TYP  RCUT    TYP  RCUT
     2   .000     23  2.500
     2   .000     23  2.500
     0   .000     23  2.500
     0   .000     23  2.500
     1  -.400     23  2.500
     1  2.000     23  2.500
     3   .000      7   .000

 POTCAR:   PAW_PBE Si 05Jan2001
   VRHFIN =Si: s2p2

   TITEL  = PAW_PBE Si 05Jan2001
   POMASS =   28.085; ZVAL   =    4.000    mass and valenz
   ENMAX  =  245.345; ENMIN  =  184.009 eV
   QCUT   =   -4.246; QGAM   =    8.493    optimization parameters

[...]

 POTCAR:    PAW_PBE P 17Jan2003
   VRHFIN =P : s2p3

   TITEL  = PAW_PBE P 17Jan2003
   POMASS =   30.974; ZVAL   =    5.000    mass and valenz
   ENMAX  =  270.000; ENMIN  =  191.280 eV
   QCUT   =   -4.330; QGAM   =    8.659    optimization parameters

[...]

 POTCAR:   PAW_PBE Te 08Apr2002
   VRHFIN =Te: s2p4

   TITEL  = PAW_PBE Te 08Apr2002
   POMASS =  127.600; ZVAL   =    6.000    mass and valenz
   ENMAX  =  174.982; ENMIN  =  131.236 eV
   QCUT   =   -3.586; QGAM   =    7.172    optimization parameters

   Description
     l     E      TYP  RCUT    TYP  RCUT
     0   .000     23  2.300
     0   .000     23  2.300
     1   .000     23  2.300
     1   .000     23  2.300
     2   .000     23  2.300
     3  -.100     23  2.300

 Optimization of the real space projectors (new method)

 maximal supplied QI-value         = 15.12
 optimisation between [QCUT,QGAM] = [ 11.64, 23.28] = [ 37.95,151.78] Ry
 Optimized for a Real-space Cutoff    1.49 Angstroem

   l    n(q)    QCUT    max X(q) W(low)/X(q) W(high)/X(q)  e(spline)
   2      9    11.641     4.777    0.25E-04    0.21E-05    0.63E-07
   2      9    11.641    31.132    0.13E-03    0.22E-03    0.64E-06
   0     10    11.641    20.416    0.11E-04    0.74E-05    0.19E-07
   0     10    11.641    45.408    0.10E-03    0.85E-04    0.30E-06
   1     10    11.641     7.848    0.22E-04    0.23E-04    0.56E-07
   1     10    11.641     9.895    0.85E-04    0.54E-04    0.16E-06
 Optimization of the real space projectors (new method)

[...]

   l    n(q)    QCUT    max X(q) W(low)/X(q) W(high)/X(q)  e(spline)
   0      8    11.508     6.651    0.19E-04    0.31E-05    0.49E-08
   0      8    11.508    90.285    0.95E-04    0.17E-03    0.51E-07
   1      8    11.508     4.328    0.14E-04    0.32E-04    0.22E-07
   1      8    11.508    54.583    0.16E-03    0.71E-04    0.89E-07
 Optimization of the real space projectors (new method)

 maximal supplied QI-value         = 16.25
 optimisation between [QCUT,QGAM] = [ 11.54, 23.24] = [ 37.28,151.24] Ry
 Optimized for a Real-space Cutoff    1.36 Angstroem

   l    n(q)    QCUT    max X(q) W(low)/X(q) W(high)/X(q)  e(spline)
   0      9    11.539     7.090    0.13E-04    0.25E-05    0.51E-08
   0      9    11.539   101.654    0.53E-04    0.69E-04    0.12E-06
   1      9    11.539     5.276    0.20E-04    0.98E-05    0.24E-07
   1      9    11.539    81.891    0.24E-03    0.13E-04    0.15E-06
   2      9    11.539     5.599    0.30E-04    0.97E-04    0.54E-07

 PAW_PBE Cr 06Sep2000                   :
 PAW_PBE Si 05Jan2001                   :
  PAW_PBE P 17Jan2003                   :
 PAW_PBE Te 08Apr2002                   :

 POSCAR: Cr2 Si P Te6
  positions in direct lattice
  velocities in cartesian coordinates
 exchange correlation table for  LEXCH =       42
   RHO(1)=    0.500       N(1)  =     2000
   RHO(2)=  100.500       N(2)  =     4000

 ion  position               nearest neighbor table
   1  0.333  0.333  0.500-   6 2.78   5 2.78   7 2.78   8 2.78  10 2.78   9 2.78
   2  0.667  0.667  0.500-   9 2.78   8 2.78  10 2.78   5 2.78   7 2.78   6 2.78
   3  0.000  0.000  0.448-   4 2.43   8 2.63  10 2.63   9 2.63
   4  0.000  0.000  0.552-   3 2.43   5 2.63   7 2.63   6 2.63
   5  0.626  0.000  0.574-   4 2.63   1 2.78   2 2.78
   6  0.000  0.373  0.574-   4 2.63   1 2.78   2 2.78
   7  0.373  0.626  0.574-   4 2.63   1 2.78   2 2.78
   8  0.374  1.000  0.426-   3 2.63   2 2.78   1 2.78
   9  1.000  0.627  0.426-   3 2.63   2 2.78   1 2.78
  10  0.627  0.374  0.426-   3 2.63   2 2.78   1 2.78

  LATTYP: Found a hexagonal cell.
 ALAT       =     6.9077769333
 C/A-ratio  =     3.3939410937

  Lattice vectors:

 A1 = (   3.4538890000,  -5.9823100000,   0.0000000000)
 A2 = (  -6.9077770000,   0.0000000000,   0.0000000000)
 A3 = (   0.0000000000,   0.0000000000, -23.4445880000)

Analysis of symmetry for initial positions (statically):
 Subroutine PRICEL returns:
 Original cell was already a primitive cell.

 Routine SETGRP: Setting up the symmetry group for a
 hexagonal supercell.

 Subroutine GETGRP returns: Found  3 space group operations
 (whereof  3 operations were pure point group operations)
 out of a pool of 24 trial point group operations.

The static configuration has the point symmetry C_3 .

Analysis of symmetry for dynamics (positions and initial velocities):
 Subroutine PRICEL returns:
 Original cell was already a primitive cell.

[...]

The dynamic configuration has the point symmetry C_3 .

Analysis of structural, dynamic, and magnetic symmetry:
 Subroutine PRICEL returns:
 Original cell was already a primitive cell.

 Routine SETGRP: Setting up the symmetry group for a
 hexagonal supercell.

 Subroutine GETGRP returns: Found  3 space group operations
 (whereof  3 operations were pure point group operations)
 out of a pool of 24 trial point group operations.

The magnetic configuration has the point symmetry C_3 .

 Subroutine INISYM returns: Found  3 space group operations
 (whereof  3 operations are pure point group operations),
 and found     1 'primitive' translations

 KPOINTS: Kpoints from vasprun.xml

Automatic generation of k-mesh.
Space group operators:
 irot       det(A)        alpha          n_x          n_y          n_z        tau_x        tau_y        tau_z
    1     1.000000     0.000000     1.000000     0.000000     0.000000     0.000000     0.000000     0.000000
    2     1.000000   120.000000     0.000000     0.000000     1.000000     0.000000     0.000000     0.000000
    3     1.000000   120.000000     0.000000     0.000000    -1.000000     0.000000     0.000000     0.000000

 Subroutine IBZKPT returns following result:

 Found      5 irreducible k-points:

 Following reciprocal coordinates:
            Coordinates               Weight
  0.000000  0.000000  0.000000      1.000000
  0.200000  0.000000  0.000000      6.000000
  0.400000  0.000000  0.000000      6.000000
  0.400000  0.200000  0.000000      6.000000
 -0.400000  0.200000  0.000000      6.000000

 Following cartesian coordinates:
            Coordinates               Weight
  0.000000  0.000000  0.000000      1.000000
  0.028953 -0.016716  0.000000      6.000000
  0.057906 -0.033432  0.000000      6.000000
  0.057906  0.000000  0.000000      6.000000
 -0.057906  0.066864  0.000000      6.000000

 TETIRR: Found     15 inequivalent tetrahedra from      150

 SYSTEM =  unknown system
 POSCAR =  Cr2 Si P Te6

 Startparameter for this run:
   NWRITE =      2    write-flag & timer
   PREC   = accura    normal or accurate (medium, high low for compatibility)
   ISTART =      0    job   : 0-new  1-cont  2-samecut
   ICHARG =      2    charge: 1-file 2-atom 10-const
   ISPIN  =      2    spin polarized calculation?
   LNONCOLLINEAR =      F non collinear calculations
   LSORBIT =      F    spin-orbit coupling
   INIWAV =      1    electr: 0-lowe 1-rand  2-diag
   LASPH  =      F    aspherical Exc in radial PAW
   METAGGA=      F    non-selfconsistent MetaGGA calc.

 Electronic Relaxation 1
   ENCUT  =  520.0 eV  38.22 Ry    6.18 a.u.  12.84 12.84 43.59*2*pi/ulx,y,z
   ENINI  =  520.0     initial cutoff
   ENAUG  =  402.1 eV  augmentation charge cutoff
   NELM   =    400;   NELMIN=  2; NELMDL=  0     # of ELM steps
   EDIFF  = 0.1E-03   stopping-criterion for ELM
   LREAL  =      T    real-space projection
   NLSPLINE    = F    spline interpolate recip. space projectors
   LCOMPAT=      F    compatible to vasp.4.4
   GGA_COMPAT  = T    GGA compatible to vasp.4.4-vasp.4.6
   LMAXPAW     = -100 max onsite density
   LMAXMIX     =    2 max onsite mixed and CHGCAR
   VOSKOWN=      0    Vosko Wilk Nusair interpolation
   ROPT   =   -0.00025  -0.00025  -0.00025  -0.00025
 Ionic relaxation
   EDIFFG = 0.1E-02   stopping-criterion for IOM
   NSW    =     99    number of steps for IOM
   NBLOCK =      1;   KBLOCK =     99    inner block; outer block
   IBRION =      2    ionic relax: 0-MD 1-quasi-New 2-CG
   NFREE  =      1    steps in history (QN), initial steepest desc. (CG)
   ISIF   =      3    stress and relaxation
   IWAVPR =     11    prediction:  0-non 1-charg 2-wave 3-comb
   ISYM   =      2    0-nonsym 1-usesym 2-fastsym
   LCORR  =      T    Harris-Foulkes like correction to forces

   POTIM  = 0.5000    time-step for ionic-motion
   TEIN   =    0.0    initial temperature
   TEBEG  =    0.0;   TEEND  =   0.0 temperature during run
   SMASS  =  -3.00    Nose mass-parameter (am)
   estimated Nose-frequenzy (Omega)   =  0.10E-29 period in steps =****** mass=  -0.109E-26a.u.
   SCALEE = 1.0000    scale energy and forces
   NPACO  =    256;   APACO  = 16.0  distance and # of slots for P.C.
   PSTRESS=    0.0 pullay stress

  Mass of Ions in am
   POMASS =  52.00 28.09 30.97127.60
  Ionic Valenz
   ZVAL   =   6.00  4.00  5.00  6.00
  Atomic Wigner-Seitz radii
  virtual crystal weights
   VCA    =   1.00  1.00  1.00  1.00
   NELECT =      57.0000    total number of electrons
   NUPDOWN=      -1.0000    fix difference up-down

 DOS related values:
   EMIN   =  10.00;   EMAX   =-10.00  energy-range for DOS
   EFERMI =   0.00
   ISMEAR =    -5;   SIGMA  =   0.05  broadening in eV -4-tet -1-fermi 0-gaus

 Electronic relaxation 2 (details)
   IALGO  =     38    algorithm
   LDIAG  =      T    sub-space diagonalisation (order eigenvalues)
   LSUBROT=      F    optimize rotation matrix (better conditioning)
   TURBO    =      0    0=normal 1=particle mesh
   IRESTART =      0    0=no restart 2=restart with 2 vectors
   NREBOOT  =      0    no. of reboots
   NMIN     =      0    reboot dimension
   EREF     =   0.00    reference energy to select bands
   IMIX   =      4    mixing-type and parameters
     AMIX     =   0.40;   BMIX     =  1.00
     AMIX_MAG =   1.60;   BMIX_MAG =  1.00
     AMIN     =   0.01
     WC   =   100.;   INIMIX=   1;  MIXPRE=   1;  MAXMIX= -45

 Intra band minimization:
   WEIMIN = 0.0010     energy-eigenvalue tresh-hold
   EBREAK =  0.52E-06  absolut break condition
   DEPER  =   0.30     relativ break condition

   TIME   =   0.40     timestep for ELM

  volume/ion in A,a.u.               =      96.88       653.80
[...]
     6.907777000 -0.000000000  0.000000000     0.144764372 -0.083579742  0.000000000
     3.453888000  5.982310000  0.000000000     0.000000000  0.167159509 -0.000000000
     0.000000000  0.000000000 23.444588000    -0.000000000  0.000000000  0.042653767

[...]

 FORCES acting on ions
    electron-ion (+dipol)            ewald-force                    non-local-force                 convergence-correction
   -.271E-04 -.145E-04 0.605E+01   0.314E-03 0.187E-03 -.600E+01   0.000E+00 0.000E+00 0.907E-01   -.213E-05 -.122E-05 0.138E-01
   0.250E-04 0.229E-04 0.476E+01   -.314E-03 -.187E-03 -.471E+01   0.139E-16 0.000E+00 0.934E-01   0.209E-05 0.120E-05 0.869E-02
   -.319E-04 -.212E-04 0.171E+03   -.141E-03 -.779E-04 -.170E+03   0.139E-16 0.000E+00 0.355E+00   0.550E-06 0.277E-06 -.905E-02
   0.386E-04 0.203E-04 -.196E+03   0.176E-03 0.973E-04 0.197E+03   0.347E-17 0.226E-16 -.163E+01   -.784E-06 -.424E-06 0.267E-01
   0.263E+00 0.153E+00 -.342E+03   -.353E+01 -.143E+00 0.346E+03   0.333E+01 -.126E-01 -.467E+01   0.292E-02 -.540E-02 0.458E-01
   0.545E-03 -.306E+00 -.342E+03   0.164E+01 0.313E+01 0.346E+03   -.167E+01 -.288E+01 -.467E+01   -.614E-02 0.175E-03 0.458E-01
   -.266E+00 0.151E+00 -.342E+03   0.189E+01 -.298E+01 0.346E+03   -.165E+01 0.289E+01 -.467E+01   0.322E-02 0.523E-02 0.458E-01
   0.664E+01 -.146E+00 0.347E+03   -.308E+01 0.150E+00 -.352E+03   -.404E+01 0.150E-01 0.462E+01   -.294E-02 -.108E-01 -.288E-01
   -.345E+01 -.568E+01 0.347E+03   0.167E+01 0.259E+01 -.352E+03   0.203E+01 0.349E+01 0.462E+01   -.785E-02 0.793E-02 -.288E-01
   -.319E+01 0.582E+01 0.347E+03   0.141E+01 -.274E+01 -.352E+03   0.201E+01 -.350E+01 0.462E+01   0.108E-01 0.284E-02 -.288E-01
   0.166E-04 0.759E-05 0.115E+01   0.142E-13 0.533E-14 0.568E-13   0.178E-14 -.444E-15 -.124E+01   -.147E-06 -.923E-08 0.911E-01

 POSITION                                       TOTAL-FORCE (eV/Angst)
      3.45388      1.99410     11.72054         0.000000     -0.000000      0.156038
      6.90778      3.98821     11.72405         0.000000      0.000000      0.160206
      0.00000      0.00000     10.50824         0.000000      0.000000      0.996993
      0.00000      0.00000     12.93635        -0.000000      0.000000     -0.706373
      4.32819      0.00251     13.45138         0.066005     -0.006911     -0.330698
      1.29198      2.23274     13.45138        -0.038988     -0.053706     -0.330698
      4.74152      3.74706     13.45138        -0.027017      0.060617     -0.330698
      6.03348      5.97980      9.99321        -0.483428      0.008295      0.128410
      9.06969      3.74957      9.99321         0.248898      0.414513      0.128410
      5.62015      2.23525      9.99321         0.234530     -0.422809      0.128410
    total drift:                                0.000016      0.000008     -0.000863

  FREE ENERGIE OF THE ION-ELECTRON SYSTEM (eV)
  free  energy   TOTEN  =       -43.56048876 eV

  energy  without entropy=      -43.56048876  energy(sigma->0) =      -43.56048876

[...]

 d Force = 0.7612620E-01[ 0.278E-01, 0.124E+00]  d Energy = 0.1605777E+00-0.845E-01
 d Force =-0.3795161E+02[-0.388E+02,-0.371E+02]  d Ewald  =-0.1669234E+03 0.129E+03

 Steepest descent step on ions:
 trial-energy change:   -0.160578  1 .order   -0.152805   -0.392840    0.087230
  (g-gl).g = 0.393E+00      g.g   = 0.393E+00  gl.gl    = 0.000E+00
 g(Force)  = 0.127E+00   g(Stress)= 0.266E+00 ortho     = 0.000E+00
 gamma     =   0.00000
 trial     =   1.00000
 opt step  =   0.83188  (harmonic =   0.81830) maximal distance =0.04001159
 next E    =   -43.728362   (d E  =  -0.16787)

[...]

 d Force =-0.6516172E-02[-0.825E-02,-0.478E-02]  d Energy = 0.7982386E-02-0.145E-01
 d Force = 0.6658410E+01[ 0.663E+01, 0.668E+01]  d Ewald  = 0.2868756E+02-0.220E+02

[...]

 d Force = 0.2757590E-01[ 0.162E-01, 0.390E-01]  d Energy = 0.3074473E-01-0.317E-02
 d Force = 0.7562598E+00[ 0.762E+00, 0.751E+00]  d Ewald  = 0.4639002E+02-0.456E+02

 Conjugate gradient step on ions:
 trial-energy change:   -0.030745  1 .order   -0.031088   -0.043991   -0.018185
  (g-gl).g = 0.487E-01      g.g   = 0.459E-01  gl.gl    = 0.393E+00
 g(Force)  = 0.343E-01   g(Stress)= 0.116E-01 ortho     =-0.287E-02
 gamma     =   0.12408
 trial     =   0.96638
 opt step  =   1.64740  (harmonic =   1.64740) maximal distance =0.05047658
 next E    =   -43.766545   (d E  =  -0.03750)

[...]

 d Force = 0.5190699E-02[-0.994E-03, 0.114E-01]  d Energy = 0.5466018E-02-0.275E-03
 d Force = 0.5382891E+00[ 0.540E+00, 0.537E+00]  d Ewald  = 0.3246762E+02-0.319E+02

[...]

 d Force = 0.1874283E-01[ 0.113E-01, 0.262E-01]  d Energy = 0.1989026E-01-0.115E-02
 d Force = 0.8927372E+01[ 0.891E+01, 0.895E+01]  d Ewald  =-0.3514429E+01 0.124E+02

[...]

 d Force = 0.3864051E-02[ 0.218E-02, 0.555E-02]  d Energy = 0.2536172E-02 0.133E-02
 d Force = 0.4380074E+01[ 0.438E+01, 0.439E+01]  d Ewald  =-0.1708724E+01 0.609E+01

[...]

 Conjugate gradient step on ions:
 trial-energy change:   -0.010356  1 .order   -0.010251   -0.013943   -0.006558
  (g-gl).g = 0.946E-02      g.g   = 0.113E-01  gl.gl    = 0.280E-01
 g(Force)  = 0.773E-02   g(Stress)= 0.360E-02 ortho     = 0.531E-03
 gamma     =   0.33737
 trial     =   1.21136
 opt step  =   2.28702  (harmonic =   2.28702) maximal distance =0.03407026
 next E    =   -43.800848   (d E  =  -0.01316)

[...]

 d Force = 0.4168843E-02[ 0.398E-02, 0.436E-02]  d Energy = 0.5216122E-02-0.105E-02
 d Force =-0.1847461E+01[-0.183E+01,-0.187E+01]  d Ewald  = 0.1574059E+02-0.176E+02

[...]

 d Force = 0.1092479E-01[ 0.449E-02, 0.174E-01]  d Energy = 0.1033660E-01 0.588E-03
 d Force =-0.9337446E+01[-0.856E+01,-0.101E+02]  d Ewald  = 0.9491541E+02-0.104E+03

[...]

 d Force = 0.3932235E-02[ 0.301E-02, 0.485E-02]  d Energy = 0.6117923E-01-0.572E-01
 d Force = 0.5121614E+01[ 0.516E+01, 0.508E+01]  d Ewald  = 0.6254503E+01-0.113E+01

[...]

 d Force = 0.2661112E-03[-0.550E-02, 0.603E-02]  d Energy =-0.7123146E-01 0.715E-01
 d Force = 0.1049598E+02[ 0.107E+02, 0.103E+02]  d Ewald  = 0.1278654E+02-0.229E+01

[...]

 d Force = 0.1207742E-02[-0.139E-02, 0.380E-02]  d Energy = 0.4436920E-01-0.432E-01
 d Force =-0.7295356E+01[-0.722E+01,-0.737E+01]  d Ewald  =-0.8919152E+01 0.162E+01

[...]

 d Force = 0.1782834E-02[ 0.289E-03, 0.328E-02]  d Energy =-0.8528349E-01 0.871E-01
 d Force = 0.9486500E-01[ 0.128E+00, 0.618E-01]  d Ewald  =-0.5932240E+02 0.594E+02

 Conjugate gradient step on ions:
 trial-energy change:    0.085283  1 .order   -0.005493   -0.007911   -0.003076
  (g-gl).g = 0.102E-01      g.g   = 0.943E-02  gl.gl    = 0.184E-01
 g(Force)  = 0.257E-02   g(Stress)= 0.686E-02 ortho     =-0.172E-02
 gamma     =   0.55656
 trial     =   0.93347
 opt step  =   1.52731  (harmonic =   1.52731) maximal distance =0.02409001
 next E    =   -43.877399   (d E  =  -0.00647)

[...]

 d Force = 0.6992414E-04[-0.451E-04, 0.185E-03]  d Energy = 0.5648721E-01-0.564E-01
 d Force = 0.9491239E-01[ 0.108E+00, 0.815E-01]  d Ewald  =-0.3798122E+02 0.381E+02

[...]

 eigenvalues of (default mixing * dielectric matrix)
  average eigenvalue GAMMA=   0.9429
  1.8385  0.3591  0.8915  0.6823

[...]

 d Force = 0.1811692E-02[ 0.258E-03, 0.337E-02]  d Energy = 0.2322955E-02-0.511E-03
 d Force =-0.5730753E+01[-0.574E+01,-0.572E+01]  d Ewald  =-0.1391978E+02 0.819E+01

 Conjugate gradient step on ions:
 trial-energy change:   -0.002323  1 .order   -0.002095   -0.004679    0.000488
  (g-gl).g = 0.104E-02      g.g   = 0.440E-02  gl.gl    = 0.943E-02
 g(Force)  = 0.321E-02   g(Stress)= 0.118E-02 ortho     = 0.468E-03
 gamma     =   0.11017
 trial     =   1.05224
 opt step  =   0.95279  (harmonic =   0.95279) maximal distance =0.00688195
 next E    =   -43.844250   (d E  =  -0.00212)

[...]

 eigenvalue-minimisations  :  1312
 total energy-change (2. order) :-0.1833648E-03  (-0.1901129E-03)
 number of electron      56.9999997 magnetization       5.4429138
 augmentation part       -2.6467641 magnetization       4.1082841

 Broyden mixing:
  rms(total) = 0.36000E-02    rms(broyden)= 0.35997E-02
  rms(prec ) = 0.40089E-02
  weight for this iteration     100.00

[...]

--------------------------------------- Iteration     20(   2)  ---------------------------------------

[...]

 eigenvalue-minimisations  :   832
 total energy-change (2. order) : 0.3197425E-04  (-0.1584825E-04)
 number of electron      56.9999997 magnetization       5.4429138
 augmentation part       -2.6467641 magnetization       4.1082841

 Free energy of the ion-electron system (eV)
  alpha Z        PSCENC =        11.75413073
  Ewald energy   TEWEN  =      6255.17182760
  -Hartree energ DENC   =     -8200.98263129
  -exchange      EXHF   =         0.00000000
  -V(xc)+E(xc)   XCENC  =      -217.97323564
  PAW double counting   =      1237.07758494     -929.55743833
  entropy T*S    EENTRO =         0.00000000
  eigenvalues    EBANDS =      -382.20229750
  atomic energy  EATOM  =      2182.86754148
  Solvation  Ediel_sol  =         0.00000000
  free energy    TOTEN  =       -43.84451802 eV

  energy without entropy =      -43.84451802  energy(sigma->0) =      -43.84451802

 average (electrostatic) potential at core
  the test charge radii are     1.1394  0.9892  0.9587  1.1897
  (the norm of the test charge is              1.0000)
       1 -50.4767       2 -50.4829       3 -92.2604       4 -91.4464       5 -96.4997
       6 -96.4997       7 -96.4996       8 -96.2480       9 -96.2479      10 -96.2479

 E-fermi :  -1.6661     XC(G=0):  -3.6594     alpha+bet : -3.2094

[...]

 spin component 2

[...]

 k-point     5 :      -0.4000    0.2000    0.0000
  band No.  band energies     occupation
      1     -14.6574      1.00000
      2     -13.6481      1.00000
      3     -13.4223      1.00000
      4     -13.3096      1.00000
      5     -12.9903      1.00000
      6     -12.8522      1.00000
      7     -11.2195      1.00000
      8      -8.7562      1.00000
      9      -6.7577      1.00000
     10      -6.3050      1.00000
     11      -6.2222      1.00000
     12      -5.7108      1.00000
     13      -5.5635      1.00000
     14      -5.1044      1.00000
     15      -4.8357      1.00000
     16      -4.6735      1.00000
     17      -4.5369      1.00000
     18      -4.1464      1.00000
     19      -4.0432      1.00000
     20      -3.9620      1.00000
     21      -3.6412      1.00000
     22      -3.4767      1.00000
     23      -3.2104      1.00000
     24      -3.0714      1.00000
     25      -3.0334      1.00000
     26      -2.4453      1.00000
     27      -1.1087      0.00000
     28      -0.9684      0.00000
     29      -0.8728      0.00000
     30      -0.3566      0.00000
     31      -0.3257      0.00000
     32      -0.2939      0.00000
     33       0.0334      0.00000
     34       0.0497      0.00000
     35       0.2842      0.00000
     36       0.5510      0.00000
     37       0.5759      0.00000
     38       0.9674      0.00000
     39       0.9982      0.00000
     40       1.4463      0.00000
     41       1.7794      0.00000
     42       1.8804      0.00000
     43       2.8899      0.00000
     44       3.0027      0.00000
     45       3.0235      0.00000
     46       3.1063      0.00000
     47       3.1380      0.00000
     48       3.4896      0.00000

[...]

 soft charge-density along one line, spin component           2
         0         1         2         3         4         5         6         7         8         9
 total charge-density along one line

------------------------ aborting loop because EDIFF is reached ----------------------------------------

[...]

  FORCE on cell =-STRESS in cart. coord.  units (eV):
  Direction    XX          YY          ZZ          XY          YZ          ZX
  Alpha Z    11.75413    11.75413    11.75413
  Ewald    7756.61166  7756.60938 -9258.05128    -0.00103    -0.00042    -0.00076
  Hartree  8065.00772  8065.00810 -7927.86752     0.00001     0.00005     0.00009
  E(xc)    -226.75488  -226.75488  -226.74806     0.00004     0.00002     0.00002
  Local  -16706.12955-16706.12854 16266.85163     0.00076     0.00026     0.00049
  n-local   738.24930   737.97361   755.11600    -0.17393     0.45295     0.55358
  augment  -115.83938  -115.83940  -123.30060     0.00004    -0.00003     0.00004
  Kinetic   481.16858   473.52095   502.32605    -5.05590     0.08018     0.04031
  Fock        0.00000     0.00000     0.00000     0.00000     0.00000     0.00000
  Total       0.10546     0.10546     0.08034     0.00000    -0.00000     0.00000
  in kB       0.18135     0.18135     0.13814     0.00000    -0.00000     0.00000

 VOLUME and BASIS-vectors are now :
  energy-cutoff  :      520.00
  volume of cell :      931.76
      direct lattice vectors                 reciprocal lattice vectors
     6.834933195 -0.000000237 -0.000000000     0.146307206 -0.084470505  0.000000000
     3.417466320  5.919225308 -0.000000000     0.000000006  0.168941023 -0.000000000
    -0.000000000  0.000000000 23.030505488     0.000000000  0.000000000  0.043420671

  length of vectors
     6.834933195  6.834932647 23.030505488     0.168941010  0.168941023  0.043420671

 FORCES acting on ions
    electron-ion (+dipol)            ewald-force                    non-local-force                 convergence-correction
   -.511E-04 -.278E-04 0.241E+02   0.319E-03 0.189E-03 -.242E+02   0.690E-17 0.500E-19 0.139E+00   0.257E-06 0.177E-06 -.103E-01
   0.473E-04 0.280E-04 0.247E+02   -.348E-03 -.205E-03 -.249E+02   -.359E-19 0.511E-19 0.142E+00   0.629E-07 0.692E-07 -.108E-01
   -.218E-04 -.168E-04 0.138E+03   -.114E-03 -.623E-04 -.137E+03   0.726E-17 -.460E-18 -.128E+01   -.575E-07 -.271E-07 -.439E-02
   0.433E-04 0.320E-04 -.241E+03   0.197E-03 0.110E-03 0.243E+03   0.353E-16 -.216E-16 -.222E+01   -.135E-06 -.789E-07 -.724E-02
   0.904E+00 -.464E-01 -.342E+03   -.430E+01 0.204E-01 0.346E+03   0.339E+01 0.345E-02 -.418E+01   -.166E-01 0.226E-01 -.198E-01
   -.493E+00 -.761E+00 -.342E+03   0.217E+01 0.371E+01 0.346E+03   -.169E+01 -.294E+01 -.418E+01   0.279E-01 0.302E-02 -.198E-01
   -.414E+00 0.806E+00 -.342E+03   0.213E+01 -.373E+01 0.346E+03   -.170E+01 0.293E+01 -.418E+01   -.113E-01 -.257E-01 -.198E-01
   0.423E+01 0.349E-01 0.360E+03   -.123E+01 -.507E-01 -.365E+03   -.302E+01 -.101E-01 0.493E+01   0.192E-01 0.208E-01 0.413E-02
   -.208E+01 -.368E+01 0.360E+03   0.569E+00 0.109E+01 -.365E+03   0.150E+01 0.262E+01 0.493E+01   0.845E-02 -.271E-01 0.413E-02
   -.214E+01 0.365E+01 0.360E+03   0.657E+00 -.104E+01 -.365E+03   0.152E+01 -.261E+01 0.493E+01   -.276E-01 0.621E-02 0.413E-02
   0.256E-04 0.166E-04 0.106E+01   -.111E-14 -.147E-13 0.171E-12   0.666E-15 0.000E+00 -.985E+00   0.239E-06 0.204E-06 -.796E-01

 POSITION                                       TOTAL-FORCE (eV/Angst)
      3.41746      1.97307     11.44002        -0.000000     -0.000000     -0.037080
      6.83494      3.94615     11.43789        -0.000000     -0.000000     -0.035618
     -0.00000      0.00000     10.60585        -0.000000     -0.000000     -0.012395
     -0.00000      0.00000     12.87978        -0.000000     -0.000000     -0.020414
      4.21300     -0.00084     13.14740        -0.021228      0.000591      0.025749
      1.31025      2.27109     13.14740         0.011125      0.018088      0.025749
      4.72916      3.64898     13.14740         0.010102     -0.018679      0.025749
      2.41054      0.00123      9.78226        -0.000973     -0.005680      0.009420
      2.21325      3.83102      9.78226        -0.004432      0.003683      0.009420
      5.62859      2.08698      9.78226         0.005406      0.001997      0.009420
    total drift:                                0.000026      0.000017     -0.008187

  FREE ENERGIE OF THE ION-ELECTRON SYSTEM (eV)
  free  energy   TOTEN  =       -43.84451802 eV

  energy  without entropy=      -43.84451802  energy(sigma->0) =      -43.84451802

 d Force =-0.3823653E-04[-0.521E-04,-0.244E-04]  d Energy = 0.6359502E-04-0.102E-03
 d Force = 0.5432206E+00[ 0.543E+00, 0.543E+00]  d Ewald  = 0.1317932E+01-0.775E+00

 reached required accuracy - stopping structural energy minimisation

 total charge

[...]

 magnetization (x)

# of ion       s       p       d       tot
    1        0.041   0.045   2.896   2.983
    2        0.041   0.045   2.898   2.984
    3        0.004   0.022   0.000   0.026
    4       -0.020   0.009   0.000  -0.012
    5       -0.003  -0.118   0.004  -0.117
    6       -0.003  -0.112   0.004  -0.111
    7       -0.004  -0.123   0.004  -0.123
    8       -0.001  -0.095   0.005  -0.091
    9       -0.002  -0.077   0.005  -0.074
   10       -0.002  -0.089   0.005  -0.087
tot          0.051  -0.494   5.821   5.378

 BZINTS: Fermi energy: -1.666146; 57.000000 electrons
         Band energy:-382.202297;  BLOECHL correction: -0.025353