 vasp.5.4.4.18Apr17-6-g9f103f2a35 (build May  1 2020 15:48:39) complex
 executed on             LinuxGNU date 2020.06.28  18:23:26

 INCAR:
 POTCAR:   PAW_PBE Co 06Sep2000
 POTCAR:   PAW_PBE Ge 05Jan2001
 POTCAR:   PAW_PBE Si 05Jan2001
 POTCAR:   PAW_PBE Te 08Apr2002

 POTCAR:   PAW_PBE Co 06Sep2000
   VRHFIN =Co: d8 s1

   TITEL  = PAW_PBE Co 06Sep2000
   POMASS =   58.933; ZVAL   =    9.000    mass and valenz
   ENMAX  =  267.969; ENMIN  =  200.977 eV
   QCUT   =   -4.438; QGAM   =    8.876    optimization parameters

   Description
     l     E      TYP  RCUT    TYP  RCUT
     2   .000     23  2.300
     2   .000     23  2.300
     0   .000     23  2.300
     0   .000     23  2.300
     1  -.200     23  2.300
     1   .000     23  2.300
     3   .000      7   .000

 POTCAR:   PAW_PBE Ge 05Jan2001
   VRHFIN =Ge: s2p2

   TITEL  = PAW_PBE Ge 05Jan2001
   POMASS =   72.610; ZVAL   =    4.000    mass and valenz
   ENMAX  =  173.807; ENMIN  =  130.355 eV
   QCUT   =   -3.574; QGAM   =    7.148    optimization parameters

[...]

 POTCAR:   PAW_PBE Si 05Jan2001
   VRHFIN =Si: s2p2

   TITEL  = PAW_PBE Si 05Jan2001
   POMASS =   28.085; ZVAL   =    4.000    mass and valenz
   ENMAX  =  245.345; ENMIN  =  184.009 eV
   QCUT   =   -4.246; QGAM   =    8.493    optimization parameters

[...]

 POTCAR:   PAW_PBE Te 08Apr2002
   VRHFIN =Te: s2p4

   TITEL  = PAW_PBE Te 08Apr2002
   POMASS =  127.600; ZVAL   =    6.000    mass and valenz
   ENMAX  =  174.982; ENMIN  =  131.236 eV
   QCUT   =   -3.586; QGAM   =    7.172    optimization parameters

   Description
     l     E      TYP  RCUT    TYP  RCUT
     0   .000     23  2.300
     0   .000     23  2.300
     1   .000     23  2.300
     1   .000     23  2.300
     2   .000     23  2.300
     3  -.100     23  2.300

 Optimization of the real space projectors (new method)

 maximal supplied QI-value         = 16.25
 optimisation between [QCUT,QGAM] = [ 11.54, 23.24] = [ 37.28,151.24] Ry
 Optimized for a Real-space Cutoff    1.53 Angstroem

   l    n(q)    QCUT    max X(q) W(low)/X(q) W(high)/X(q)  e(spline)
   2     10    11.539     4.599    0.83E-05    0.15E-04    0.45E-07
   2     10    11.539    18.158    0.10E-03    0.14E-03    0.24E-06
   0     11    11.539    15.740    0.19E-04    0.12E-05    0.17E-07
   0     11    11.539    47.662    0.48E-04    0.15E-04    0.31E-06
   1     10    11.539     5.777    0.11E-04    0.46E-05    0.25E-07
   1     10    11.539     8.007    0.46E-04    0.29E-04    0.11E-06
 Optimization of the real space projectors (new method)

[...]

   l    n(q)    QCUT    max X(q) W(low)/X(q) W(high)/X(q)  e(spline)
   0      8    11.508     8.708    0.18E-04    0.44E-05    0.47E-08
   0      8    11.508   106.241    0.70E-04    0.15E-03    0.51E-07
   1      8    11.508     5.901    0.63E-05    0.23E-04    0.21E-07
   1      8    11.508    73.241    0.15E-03    0.36E-04    0.79E-07
 Optimization of the real space projectors (new method)

 maximal supplied QI-value         = 16.25
 optimisation between [QCUT,QGAM] = [ 11.54, 23.24] = [ 37.28,151.24] Ry
 Optimized for a Real-space Cutoff    1.36 Angstroem

   l    n(q)    QCUT    max X(q) W(low)/X(q) W(high)/X(q)  e(spline)
   0      9    11.539     7.090    0.13E-04    0.25E-05    0.51E-08
   0      9    11.539   101.654    0.53E-04    0.69E-04    0.12E-06
   1      9    11.539     5.276    0.20E-04    0.98E-05    0.24E-07
   1      9    11.539    81.891    0.24E-03    0.13E-04    0.15E-06
   2      9    11.539     5.599    0.30E-04    0.97E-04    0.54E-07

 PAW_PBE Co 06Sep2000                   :
 PAW_PBE Ge 05Jan2001                   :
 PAW_PBE Si 05Jan2001                   :
 PAW_PBE Te 08Apr2002                   :

 POSCAR: Co2 Ge Si Te6
  positions in direct lattice
  velocities in cartesian coordinates
 exchange correlation table for  LEXCH =       42
   RHO(1)=    0.500       N(1)  =     2000
   RHO(2)=  100.500       N(2)  =     4000

 ion  position               nearest neighbor table
   1  0.333  0.333  0.500-   6 2.78   5 2.78   7 2.78   8 2.78  10 2.78   9 2.78
   2  0.667  0.667  0.500-   9 2.78   8 2.78  10 2.78   5 2.78   7 2.78   6 2.78
   3  0.000  0.000  0.448-   4 2.43   8 2.63  10 2.63   9 2.63
   4  0.000  0.000  0.552-   3 2.43   5 2.63   7 2.63   6 2.63
   5  0.626  0.000  0.574-   4 2.63   1 2.78   2 2.78
   6  0.000  0.373  0.574-   4 2.63   1 2.78   2 2.78
   7  0.373  0.626  0.574-   4 2.63   1 2.78   2 2.78
   8  0.374  1.000  0.426-   3 2.63   2 2.78   1 2.78
   9  1.000  0.627  0.426-   3 2.63   2 2.78   1 2.78
  10  0.627  0.374  0.426-   3 2.63   2 2.78   1 2.78

  LATTYP: Found a hexagonal cell.
 ALAT       =     6.9077769333
 C/A-ratio  =     3.3939410937

  Lattice vectors:

 A1 = (   3.4538890000,  -5.9823100000,   0.0000000000)
 A2 = (  -6.9077770000,   0.0000000000,   0.0000000000)
 A3 = (   0.0000000000,   0.0000000000, -23.4445880000)

Analysis of symmetry for initial positions (statically):
 Subroutine PRICEL returns:
 Original cell was already a primitive cell.

 Routine SETGRP: Setting up the symmetry group for a
 hexagonal supercell.

 Subroutine GETGRP returns: Found  3 space group operations
 (whereof  3 operations were pure point group operations)
 out of a pool of 24 trial point group operations.

The static configuration has the point symmetry C_3 .

Analysis of symmetry for dynamics (positions and initial velocities):
 Subroutine PRICEL returns:
 Original cell was already a primitive cell.

[...]

The dynamic configuration has the point symmetry C_3 .

Analysis of constrained symmetry for selective dynamics:
 Subroutine PRICEL returns:
 Original cell was already a primitive cell.

[...]

The constrained configuration has the point symmetry C_3 .

Analysis of structural, dynamic, and magnetic symmetry:
 Subroutine PRICEL returns:
 Original cell was already a primitive cell.

 Routine SETGRP: Setting up the symmetry group for a
 hexagonal supercell.

 Subroutine GETGRP returns: Found  3 space group operations
 (whereof  3 operations were pure point group operations)
 out of a pool of 24 trial point group operations.

The magnetic configuration has the point symmetry C_3 .

 Subroutine INISYM returns: Found  3 space group operations
 (whereof  3 operations are pure point group operations),
 and found     1 'primitive' translations

 KPOINTS: Kpoints from vasprun.xml

Automatic generation of k-mesh.
Space group operators:
 irot       det(A)        alpha          n_x          n_y          n_z        tau_x        tau_y        tau_z
    1     1.000000     0.000000     1.000000     0.000000     0.000000     0.000000     0.000000     0.000000
    2     1.000000   120.000000     0.000000     0.000000     1.000000     0.000000     0.000000     0.000000
    3     1.000000   120.000000     0.000000     0.000000    -1.000000     0.000000     0.000000     0.000000

 Subroutine IBZKPT returns following result:

 Found      5 irreducible k-points:

 Following reciprocal coordinates:
            Coordinates               Weight
  0.000000  0.000000  0.000000      1.000000
  0.200000  0.000000  0.000000      6.000000
  0.400000  0.000000  0.000000      6.000000
  0.400000  0.200000  0.000000      6.000000
 -0.400000  0.200000  0.000000      6.000000

 Following cartesian coordinates:
            Coordinates               Weight
  0.000000  0.000000  0.000000      1.000000
  0.028953 -0.016716  0.000000      6.000000
  0.057906 -0.033432  0.000000      6.000000
  0.057906  0.000000  0.000000      6.000000
 -0.057906  0.066864  0.000000      6.000000

 TETIRR: Found     15 inequivalent tetrahedra from      150

 SYSTEM =  unknown system
 POSCAR =  Co2 Ge Si Te6

 Startparameter for this run:
   NWRITE =      2    write-flag & timer
   PREC   = accura    normal or accurate (medium, high low for compatibility)
   ISTART =      0    job   : 0-new  1-cont  2-samecut
   ICHARG =      2    charge: 1-file 2-atom 10-const
   ISPIN  =      2    spin polarized calculation?
   LNONCOLLINEAR =      F non collinear calculations
   LSORBIT =      F    spin-orbit coupling
   INIWAV =      1    electr: 0-lowe 1-rand  2-diag
   LASPH  =      F    aspherical Exc in radial PAW
   METAGGA=      F    non-selfconsistent MetaGGA calc.

 Electronic Relaxation 1
   ENCUT  =  520.0 eV  38.22 Ry    6.18 a.u.  12.84 12.84 43.59*2*pi/ulx,y,z
   ENINI  =  520.0     initial cutoff
   ENAUG  =  477.8 eV  augmentation charge cutoff
   NELM   =    400;   NELMIN=  2; NELMDL=  0     # of ELM steps
   EDIFF  = 0.1E-03   stopping-criterion for ELM
   LREAL  =      T    real-space projection
   NLSPLINE    = F    spline interpolate recip. space projectors
   LCOMPAT=      F    compatible to vasp.4.4
   GGA_COMPAT  = T    GGA compatible to vasp.4.4-vasp.4.6
   LMAXPAW     = -100 max onsite density
   LMAXMIX     =    2 max onsite mixed and CHGCAR
   VOSKOWN=      0    Vosko Wilk Nusair interpolation
   ROPT   =   -0.00025  -0.00025  -0.00025  -0.00025
 Ionic relaxation
   EDIFFG = 0.1E-02   stopping-criterion for IOM
   NSW    =     99    number of steps for IOM
   NBLOCK =      1;   KBLOCK =     99    inner block; outer block
   IBRION =      2    ionic relax: 0-MD 1-quasi-New 2-CG
   NFREE  =      1    steps in history (QN), initial steepest desc. (CG)
   ISIF   =      3    stress and relaxation
   IWAVPR =     11    prediction:  0-non 1-charg 2-wave 3-comb
   ISYM   =      2    0-nonsym 1-usesym 2-fastsym
   LCORR  =      T    Harris-Foulkes like correction to forces

   POTIM  = 0.5000    time-step for ionic-motion
   TEIN   =    0.0    initial temperature
   TEBEG  =    0.0;   TEEND  =   0.0 temperature during run
   SMASS  =  -3.00    Nose mass-parameter (am)
   estimated Nose-frequenzy (Omega)   =  0.10E-29 period in steps =****** mass=  -0.109E-26a.u.
   SCALEE = 1.0000    scale energy and forces
   NPACO  =    256;   APACO  = 16.0  distance and # of slots for P.C.
   PSTRESS=    0.0 pullay stress

  Mass of Ions in am
   POMASS =  58.93 72.61 28.09127.60
  Ionic Valenz
   ZVAL   =   9.00  4.00  4.00  6.00
  Atomic Wigner-Seitz radii
  virtual crystal weights
   VCA    =   1.00  1.00  1.00  1.00
   NELECT =      62.0000    total number of electrons
   NUPDOWN=      -1.0000    fix difference up-down

 DOS related values:
   EMIN   =  10.00;   EMAX   =-10.00  energy-range for DOS
   EFERMI =   0.00
   ISMEAR =    -5;   SIGMA  =   0.05  broadening in eV -4-tet -1-fermi 0-gaus

 Electronic relaxation 2 (details)
   IALGO  =     38    algorithm
   LDIAG  =      T    sub-space diagonalisation (order eigenvalues)
   LSUBROT=      F    optimize rotation matrix (better conditioning)
   TURBO    =      0    0=normal 1=particle mesh
   IRESTART =      0    0=no restart 2=restart with 2 vectors
   NREBOOT  =      0    no. of reboots
   NMIN     =      0    reboot dimension
   EREF     =   0.00    reference energy to select bands
   IMIX   =      4    mixing-type and parameters
     AMIX     =   0.40;   BMIX     =  1.00
     AMIX_MAG =   1.60;   BMIX_MAG =  1.00
     AMIN     =   0.01
     WC   =   100.;   INIMIX=   1;  MIXPRE=   1;  MAXMIX= -45

 Intra band minimization:
   WEIMIN = 0.0010     energy-eigenvalue tresh-hold
   EBREAK =  0.52E-06  absolut break condition
[...]
     23      -3.5758      1.00000
     24      -2.8578      1.00000
     25      -2.8578      1.00000
     26      -2.8362      1.00000
     27      -2.7753      1.00000
     28      -2.7753      1.00000
     29      -2.7631      1.00000
     30      -2.3198      1.00000
     31      -2.3198      1.00000
     32      -1.6302      0.00000
     33      -1.6301      0.00000
     34      -0.9642      0.00000
     35      -0.9642      0.00000
     36      -0.6934      0.00000
     37      -0.4537      0.00000
     38       0.9037      0.00000
     39       0.9037      0.00000
     40       1.2554      0.00000
     41       1.5286      0.00000
     42       1.9100      0.00000
     43       2.0184      0.00000
     44       2.1137      0.00000
     45       2.1137      0.00000
     46       2.3241      0.00000
     47       3.0394      0.00000
     48       3.0395      0.00000

[...]

 soft charge-density along one line, spin component           1
         0         1         2         3         4         5         6         7         8         9
 total charge-density along one line

[...]

------------------------ aborting loop because EDIFF is reached ----------------------------------------

 total charge

# of ion       s       p       d       tot
    1        0.318   0.302   7.329   7.950
    2        0.318   0.302   7.329   7.949
    3        1.166   1.150   0.072   2.387
    4        0.791   0.788   0.000   1.579
    5        1.398   1.886   0.034   3.318
    6        1.392   1.911   0.034   3.336
    7        1.397   1.890   0.034   3.321
    8        1.400   1.889   0.034   3.323
    9        1.393   1.912   0.033   3.339
   10        1.399   1.892   0.034   3.325
tot         10.971  13.923  14.932  39.825

 magnetization (x)

[...]

  FORCE on cell =-STRESS in cart. coord.  units (eV):
  Direction    XX          YY          ZZ          XY          YZ          ZX
  Alpha Z    17.99564    17.99564    17.99564
  Ewald    9323.94493  9323.94287-11117.97373    -0.00179    -0.00048    -0.00089
  Hartree  9930.68962  9930.69050 -9467.04969    -0.00031     0.00008     0.00012
  E(xc)    -260.23791  -260.23797  -259.75169     0.00009     0.00002     0.00001
  Local  -20107.70576-20107.70537 19706.24822     0.00188     0.00033     0.00062
  n-local   646.52566   645.99316   655.00355    -0.48292     1.13856     1.21056
  augment   -67.57989   -67.57955   -74.52519    -0.00014     0.00013    -0.00003
  Kinetic   509.91372   504.54733   528.78551    -3.52066     0.73251     1.02488
  Fock        0.00000     0.00000     0.00000     0.00000     0.00000     0.00000
  Total      -9.40369    -9.40369   -11.26739     0.00000     0.00000     0.00000
  in kB     -15.55103   -15.55103   -18.63305     0.00000     0.00000     0.00000

 VOLUME and BASIS-vectors are now :
  energy-cutoff  :      520.00
  volume of cell :      968.84
      direct lattice vectors                 reciprocal lattice vectors
     6.907777000 -0.000000000  0.000000000     0.144764372 -0.083579742  0.000000000
     3.453888000  5.982310000  0.000000000     0.000000000  0.167159509 -0.000000000
     0.000000000  0.000000000 23.444588000    -0.000000000  0.000000000  0.042653767

[...]

 FORCES acting on ions
    electron-ion (+dipol)            ewald-force                    non-local-force                 convergence-correction
   0.195E-03 0.943E-04 0.939E+00   0.549E-03 0.331E-03 -.104E+01   0.139E-16 0.000E+00 0.720E-01   0.185E-05 0.106E-05 -.743E-02
   -.189E-03 -.107E-03 -.112E+01   -.549E-03 -.331E-03 0.104E+01   -.139E-16 0.000E+00 0.484E-01   -.187E-05 -.108E-05 -.739E-02
   -.300E-04 -.131E-04 0.181E+03   -.141E-03 -.779E-04 -.179E+03   0.139E-16 0.694E-17 -.166E+01   -.185E-06 -.973E-07 -.170E-01
   0.380E-04 0.845E-05 -.183E+03   0.141E-03 0.779E-04 0.179E+03   0.208E-16 0.000E+00 0.321E+01   0.182E-06 0.924E-07 0.106E-01
   -.224E+02 0.161E+00 -.400E+03   0.186E+02 -.155E+00 0.405E+03   0.381E+01 -.126E-01 -.570E+01   -.999E-02 -.193E-02 0.178E-01
   0.113E+02 0.193E+02 -.400E+03   -.941E+01 -.160E+02 0.405E+03   -.191E+01 -.329E+01 -.570E+01   0.333E-02 0.962E-02 0.178E-01
   0.111E+02 -.195E+02 -.400E+03   -.915E+01 0.162E+02 0.405E+03   -.189E+01 0.330E+01 -.570E+01   0.667E-02 -.769E-02 0.178E-01
   0.225E+02 -.157E+00 0.400E+03   -.186E+02 0.155E+00 -.405E+03   -.323E+01 0.122E-01 0.563E+01   0.104E-01 -.201E-02 -.280E-01
   -.114E+02 -.194E+02 0.400E+03   0.941E+01 0.160E+02 -.405E+03   0.162E+01 0.279E+01 0.563E+01   -.694E-02 -.801E-02 -.280E-01
   -.111E+02 0.195E+02 0.400E+03   0.915E+01 -.162E+02 -.405E+03   0.160E+01 -.280E+01 0.563E+01   -.346E-02 0.100E-01 -.280E-01
   -.186E-04 0.420E-04 -.142E+01   0.711E-14 0.711E-14 0.171E-12   0.666E-15 0.000E+00 0.147E+01   -.272E-07 -.300E-07 -.518E-01

 POSITION                                       TOTAL-FORCE (eV/Angst)
      3.45388      1.99410     11.72054         0.000000      0.000000     -0.034367
      6.90778      3.98821     11.72405         0.000000      0.000000     -0.044687
      0.00000      0.00000     10.50824         0.000000      0.000000      0.563415
      0.00000      0.00000     12.93635         0.000000      0.000000     -0.219553
      4.32819      0.00251     13.45138        -0.050528     -0.007485     -1.031184
      1.29198      2.23274     13.45138         0.018782      0.047501     -1.031184
      4.74152      3.74706     13.45138         0.031746     -0.040016     -1.031184
      6.03348      5.97980      9.99321         0.674326      0.006714      0.942914
      9.06969      3.74957      9.99321        -0.331349     -0.587341      0.942914
      5.62015      2.23525      9.99321        -0.342978      0.580627      0.942914
    total drift:                               -0.000019      0.000042      0.000340

  FREE ENERGIE OF THE ION-ELECTRON SYSTEM (eV)
  free  energy   TOTEN  =       -35.82686583 eV

  energy  without entropy=      -35.82686583  energy(sigma->0) =      -35.82686583

[...]

 d Force =-0.2108167E-02[-0.656E-02, 0.234E-02]  d Energy = 0.5683366E+00-0.570E+00
 d Force =-0.1880063E+01[-0.196E+01,-0.180E+01]  d Ewald  =-0.2500748E+03 0.248E+03

 Steepest descent step on ions:
 trial-energy change:   -0.568337  1 .order   -0.498805   -1.468153    0.470543
  (g-gl).g = 0.147E+01      g.g   = 0.147E+01  gl.gl    = 0.000E+00
 g(Force)  = 0.248E-02   g(Stress)= 0.147E+01 ortho     = 0.000E+00
 gamma     =   0.00000
 trial     =   1.00000
 opt step  =   0.79266  (harmonic =   0.75729) maximal distance =0.00000000
 next E    =   -36.443365   (d E  =  -0.61650)

[...]

 d Force = 0.1200040E-02[ 0.944E-03, 0.146E-02]  d Energy = 0.5056386E-01-0.494E-01
 d Force = 0.4317233E+00[ 0.428E+00, 0.436E+00]  d Ewald  = 0.5295806E+02-0.525E+02

[...]

 Conjugate gradient step on ions:
 trial-energy change:   -0.077325  1 .order   -0.074811   -0.094587   -0.055035
  (g-gl).g = 0.123E+00      g.g   = 0.101E+00  gl.gl    = 0.147E+01
 g(Force)  = 0.922E-02   g(Stress)= 0.913E-01 ortho     =-0.222E-01
 gamma     =   0.08358
 trial     =   0.95853
 opt step  =   1.74565  (harmonic =   2.29230) maximal distance =0.03511800
 next E    =   -36.547079   (d E  =  -0.10131)

[...]

 Conjugate gradient step on ions:
 trial-energy change:   -0.042085  1 .order   -0.044866   -0.069421   -0.020311
  (g-gl).g = 0.495E-01      g.g   = 0.556E-01  gl.gl    = 0.101E+00
 g(Force)  = 0.524E-01   g(Stress)= 0.314E-02 ortho     = 0.749E-02
 gamma     =   0.49209
 trial     =   1.17117
 opt step  =   1.65553  (harmonic =   1.65553) maximal distance =0.09965691
 next E    =   -36.600533   (d E  =  -0.04907)

[...]

 eigenvalue-minimisations  :  1056
 total energy-change (2. order) :-0.7517924E-01  (-0.3392686E-01)
 number of electron      62.0000010 magnetization      -0.0000000
 augmentation part        2.8481786 magnetization      -0.0000099

[...]

 Broyden mixing:
  rms(total) = 0.10468E-02    rms(broyden)= 0.10468E-02
  rms(prec ) = 0.34509E-02
  weight for this iteration     100.00

 eigenvalues of (default mixing * dielectric matrix)
  average eigenvalue GAMMA=   1.1001
  2.6038  2.0503  1.0151  0.8278  0.8278  0.2138  0.1620

[...]

--------------------------------------- Iteration      8(   9)  ---------------------------------------

[...]

 eigenvalue-minimisations  :   800
 total energy-change (2. order) : 0.1469635E-04  (-0.9139521E-05)
 number of electron      62.0000009 magnetization      -0.0000000
 augmentation part        2.4194687 magnetization      -0.0000382

 Free energy of the ion-electron system (eV)
  alpha Z        PSCENC =        20.78680731
  Ewald energy   TEWEN  =      6846.35352528
  -Hartree energ DENC   =     -9729.10419733
  -exchange      EXHF   =         0.00000000
  -V(xc)+E(xc)   XCENC  =      -159.74879522
  PAW double counting   =      2099.62251293    -1930.38984829
  entropy T*S    EENTRO =         0.00000000
  eigenvalues    EBANDS =      -373.65061458
  atomic energy  EATOM  =      3189.53368339
  Solvation  Ediel_sol  =         0.00000000
  free energy    TOTEN  =       -36.59692650 eV

  energy without entropy =      -36.59692650  energy(sigma->0) =      -36.59692650

 average (electrostatic) potential at core
  the test charge radii are     1.0452  1.1631  0.9892  1.1897
  (the norm of the test charge is              1.0000)
       1 -47.6749       2 -47.6751       3 -38.4729       4 -91.6089       5 -96.2241
       6 -96.2241       7 -96.2241       8 -96.2331       9 -96.2331      10 -96.2330

 E-fermi :  -1.8188     XC(G=0):  -3.5504     alpha+bet : -3.4312

[...]

 spin component 2

[...]

 k-point     5 :      -0.4000    0.2000    0.0000
  band No.  band energies     occupation
      1     -14.0322      1.00000
      2     -13.5897      1.00000
      3     -13.1871      1.00000
      4     -13.0108      1.00000
      5     -12.7392      1.00000
      6     -12.5927      1.00000
      7      -9.8433      1.00000
      8      -8.2171      1.00000
      9      -6.5408      1.00000
     10      -6.0525      1.00000
     11      -5.9318      1.00000
     12      -5.4498      1.00000
     13      -5.1476      1.00000
     14      -4.8878      1.00000
     15      -4.6779      1.00000
     16      -4.3467      1.00000
     17      -4.3178      1.00000
     18      -4.1694      1.00000
     19      -4.1564      1.00000
     20      -3.8565      1.00000
     21      -3.8553      1.00000
     22      -3.2601      1.00000
     23      -3.0651      1.00000
     24      -2.8818      1.00000
     25      -2.7495      1.00000
     26      -2.5500      1.00000
     27      -2.4675      1.00000
     28      -2.3027      1.00000
     29      -2.2861      1.00000
     30      -2.2532      1.00000
     31      -2.2266      1.00000
     32      -1.0345      0.00000
     33      -0.9065      0.00000
     34      -0.7592      0.00000
     35      -0.2906      0.00000
     36      -0.1548      0.00000
     37       0.4440      0.00000
     38       0.9788      0.00000
     39       1.3677      0.00000
     40       1.8586      0.00000
     41       2.0948      0.00000
     42       2.3229      0.00000
     43       3.0920      0.00000
     44       3.2628      0.00000
     45       3.2816      0.00000
     46       3.4594      0.00000
     47       3.5354      0.00000
     48       4.2149      0.00000

[...]

 soft charge-density along one line, spin component           2
         0         1         2         3         4         5         6         7         8         9
 total charge-density along one line

------------------------ aborting loop because EDIFF is reached ----------------------------------------

[...]

  FORCE on cell =-STRESS in cart. coord.  units (eV):
  Direction    XX          YY          ZZ          XY          YZ          ZX
  Alpha Z    20.78681    20.78681    20.78681
  Ewald    8717.85597  8717.85357-10589.35974    -0.00202    -0.00056    -0.00102
  Hartree  9280.35349  9280.35444 -8834.79187    -0.00031     0.00008     0.00014
  E(xc)    -263.33294  -263.33295  -262.89834     0.00005     0.00001     0.00002
  Local  -18857.53052-18857.52997 18533.34021     0.00203     0.00037     0.00070
  n-local   655.83853   655.47312   662.64365    -0.27182     1.17189     1.41834
  augment   -67.76391   -67.76377   -73.74884     0.00010     0.00003     0.00005
  Kinetic   516.97539   511.22375   544.15211    -3.69648     1.10286     1.34077
  Fock        0.00000     0.00000     0.00000     0.00000     0.00000     0.00000
  Total       0.12391     0.12391     0.12400     0.00000     0.00000     0.00000
  in kB       0.23670     0.23670     0.23687     0.00000     0.00000     0.00000

 VOLUME and BASIS-vectors are now :
  energy-cutoff  :      520.00
  volume of cell :      838.74
      direct lattice vectors                 reciprocal lattice vectors
     6.751888555 -0.000000223  0.000000000     0.148106707 -0.085509447 -0.000000000
     3.375944007  5.847306562 -0.000000000     0.000000006  0.171018908  0.000000000
     0.000000000 -0.000000000 21.244584420    -0.000000000  0.000000000  0.047070820

  length of vectors
     6.751888555  6.751888030 21.244584420     0.171018894  0.171018908  0.047070820

 FORCES acting on ions
    electron-ion (+dipol)            ewald-force                    non-local-force                 convergence-correction
   0.221E-03 0.122E-03 0.450E+01   0.621E-03 0.374E-03 -.475E+01   0.137E-18 -.121E-18 0.229E+00   -.121E-06 0.219E-07 0.123E-02
   -.215E-03 -.111E-03 0.222E+01   -.626E-03 -.377E-03 -.242E+01   0.279E-16 -.996E-19 0.188E+00   0.649E-07 0.112E-06 0.125E-02
   -.368E-04 -.255E-04 0.187E+03   -.146E-03 -.809E-04 -.184E+03   -.154E-16 -.556E-17 -.260E+01   -.202E-08 -.157E-08 0.157E-01
   0.430E-04 0.134E-04 -.206E+03   0.157E-03 0.868E-04 0.202E+03   0.233E-16 0.117E-16 0.410E+01   0.475E-08 0.227E-08 -.126E-01
   -.270E+02 0.176E+00 -.407E+03   0.225E+02 -.170E+00 0.412E+03   0.402E+01 -.174E-01 -.513E+01   -.253E-02 -.224E-03 -.339E-01
   0.137E+02 0.233E+02 -.407E+03   -.114E+02 -.194E+02 0.412E+03   -.202E+01 -.347E+01 -.513E+01   0.107E-02 0.230E-02 -.339E-01
   0.134E+02 -.235E+02 -.407E+03   -.111E+02 0.196E+02 0.412E+03   -.199E+01 0.349E+01 -.513E+01   0.146E-02 -.208E-02 -.339E-01
   0.293E+02 -.179E+00 0.410E+03   -.250E+02 0.174E+00 -.416E+03   -.329E+01 0.159E-01 0.530E+01   0.587E-02 -.204E-03 0.361E-01
   -.148E+02 -.253E+02 0.410E+03   0.127E+02 0.216E+02 -.416E+03   0.166E+01 0.284E+01 0.530E+01   -.311E-02 -.498E-02 0.361E-01
   -.145E+02 0.255E+02 0.410E+03   0.124E+02 -.217E+02 -.416E+03   0.163E+01 -.286E+01 0.530E+01   -.276E-02 0.518E-02 0.361E-01
   0.243E-04 0.550E-04 -.245E+01   0.000E+00 -.711E-14 0.114E-12   0.000E+00 0.000E+00 0.244E+01   -.404E-07 0.136E-06 0.124E-01

 POSITION                                       TOTAL-FORCE (eV/Angst)
      3.37594      1.94910     10.61416        -0.000000      0.000000     -0.023202
      6.75189      3.89821     10.61752        -0.000000      0.000000     -0.018685
      0.00000     -0.00000      9.52216        -0.000000     -0.000000      0.061480
      0.00000     -0.00000     11.85252        -0.000000     -0.000000      0.051445
      4.23051      0.00246     12.18912        -0.493206     -0.010969      0.025445
      1.26282      2.18236     12.18912         0.237103      0.432614      0.025445
      4.63451      3.66250     12.18912         0.256103     -0.421644      0.025445
      5.89732      5.84485      9.05546         1.018729      0.010339     -0.049125
      8.86501      3.66495      9.05546        -0.500411     -0.887415     -0.049125
      5.49332      2.18481      9.05546        -0.518319      0.877076     -0.049125
    total drift:                                0.000024      0.000055      0.001587

  FREE ENERGIE OF THE ION-ELECTRON SYSTEM (eV)
  free  energy   TOTEN  =       -36.59692650 eV

  energy  without entropy=      -36.59692650  energy(sigma->0) =      -36.59692650

 d Force = 0.5250115E-02[ 0.152E-02, 0.898E-02]  d Energy = 0.3373540E-02 0.188E-02
 d Force = 0.5818719E+01[ 0.586E+01, 0.578E+01]  d Ewald  = 0.5330380E+02-0.475E+02

 reached required accuracy - stopping structural energy minimisation

 total charge

[...]

 magnetization (x)

# of ion       s       p       d       tot
    1        0.000  -0.000   0.000   0.000
    2        0.000   0.000   0.000   0.000
    3       -0.000  -0.000  -0.000  -0.000
    4       -0.000  -0.000   0.000  -0.000
    5       -0.000  -0.000  -0.000  -0.000
    6       -0.000  -0.000  -0.000  -0.000
    7       -0.000  -0.000  -0.000  -0.000
    8       -0.000  -0.000  -0.000  -0.000
    9       -0.000  -0.000  -0.000  -0.000
   10       -0.000  -0.000  -0.000  -0.000
tot          0.000  -0.000   0.000   0.000

 BZINTS: Fermi energy: -1.818848; 62.000000 electrons
         Band energy:-373.650615;  BLOECHL correction:  0.000000