 vasp.5.4.4.18Apr17-6-g9f103f2a35 (build May  1 2020 15:48:39) complex
 executed on             LinuxGNU date 2020.06.19  15:06:36

 INCAR:
 POTCAR:   PAW_PBE Ni 06Sep2000
 POTCAR:    PAW_PBE P 17Jan2003
 POTCAR:   PAW_PBE Se 06Sep2000

 POTCAR:   PAW_PBE Ni 06Sep2000
   VRHFIN =Ni:

   TITEL  = PAW_PBE Ni 06Sep2000
   POMASS =   58.690; ZVAL   =   10.000    mass and valenz
   ENMAX  =  269.533; ENMIN  =  202.150 eV
   QCUT   =   -4.451; QGAM   =    8.902    optimization parameters

   Description
     l     E      TYP  RCUT    TYP  RCUT
     2   .000     23  2.300
     2   .000     23  2.300
     0   .000     23  2.300
     0   .000     23  2.300
     1  -.200     23  2.300
     1   .000     23  2.300
     3   .000      7   .000

 POTCAR:    PAW_PBE P 17Jan2003
   VRHFIN =P : s2p3

   TITEL  = PAW_PBE P 17Jan2003
   POMASS =   30.974; ZVAL   =    5.000    mass and valenz
   ENMAX  =  270.000; ENMIN  =  191.280 eV
   QCUT   =   -4.330; QGAM   =    8.659    optimization parameters

[...]

 POTCAR:   PAW_PBE Se 06Sep2000
   VRHFIN =Se: s2p4

   TITEL  = PAW_PBE Se 06Sep2000
   POMASS =   78.960; ZVAL   =    6.000    mass and valenz
   ENMAX  =  211.534; ENMIN  =  158.651 eV
   QCUT   =   -3.943; QGAM   =    7.886    optimization parameters

   Description
     l     E      TYP  RCUT    TYP  RCUT
     0   .000     23  2.100
     0   .000     23  2.100
     1   .000     23  2.100
     1   .000     23  2.100
     2   .000     23  2.100
     3  -.100      7  2.100

 Optimization of the real space projectors (new method)

 maximal supplied QI-value         = 16.25
 optimisation between [QCUT,QGAM] = [ 11.54, 23.24] = [ 37.28,151.24] Ry
 Optimized for a Real-space Cutoff    1.49 Angstroem

   l    n(q)    QCUT    max X(q) W(low)/X(q) W(high)/X(q)  e(spline)
   2      9    11.539     4.811    0.20E-04    0.14E-04    0.45E-07
   2      9    11.539    15.146    0.24E-03    0.12E-03    0.20E-06
   0     10    11.539    14.357    0.18E-04    0.12E-05    0.14E-07
   0     10    11.539    43.282    0.39E-04    0.17E-04    0.23E-06
   1     10    11.539     5.514    0.99E-05    0.13E-04    0.19E-07
   1     10    11.539     7.697    0.38E-04    0.79E-04    0.91E-07
 Optimization of the real space projectors (new method)

[...]

   l    n(q)    QCUT    max X(q) W(low)/X(q) W(high)/X(q)  e(spline)
   0      8    11.508     6.651    0.19E-04    0.31E-05    0.49E-08
   0      8    11.508    90.285    0.95E-04    0.17E-03    0.51E-07
   1      8    11.508     4.328    0.14E-04    0.32E-04    0.22E-07
   1      8    11.508    54.583    0.16E-03    0.71E-04    0.89E-07
 Optimization of the real space projectors (new method)

 maximal supplied QI-value         = 17.95
 optimisation between [QCUT,QGAM] = [ 11.67, 23.34] = [ 38.13,152.52] Ry
 Optimized for a Real-space Cutoff    1.25 Angstroem

   l    n(q)    QCUT    max X(q) W(low)/X(q) W(high)/X(q)  e(spline)
   0      9    11.669     6.499    0.13E-04    0.81E-05    0.11E-07
   0      9    11.669    52.623    0.18E-03    0.46E-04    0.72E-07
   1      8    11.669     4.229    0.40E-04    0.45E-04    0.31E-07
   1      8    11.669    29.991    0.22E-03    0.36E-03    0.10E-06
   2      8    11.669     3.719    0.19E-03    0.46E-04    0.50E-07

 PAW_PBE Ni 06Sep2000                   :
  PAW_PBE P 17Jan2003                   :
 PAW_PBE Se 06Sep2000                   :

 POSCAR: Ni2 P2 Se6
  positions in direct lattice
  velocities in cartesian coordinates
 exchange correlation table for  LEXCH =       42
   RHO(1)=    0.500       N(1)  =     2000
   RHO(2)=  100.500       N(2)  =     4000

 ion  position               nearest neighbor table
   1  0.333  0.333  0.500-   6 2.78   5 2.78   7 2.78   8 2.78  10 2.78   9 2.78
   2  0.667  0.667  0.500-   9 2.78   8 2.78  10 2.78   5 2.78   7 2.78   6 2.78
   3  0.000  0.000  0.448-   4 2.43   8 2.63  10 2.63   9 2.63
   4  0.000  0.000  0.552-   3 2.43   5 2.63   7 2.63   6 2.63
   5  0.626  0.000  0.574-   4 2.63   1 2.78   2 2.78
   6  0.000  0.373  0.574-   4 2.63   1 2.78   2 2.78
   7  0.373  0.626  0.574-   4 2.63   1 2.78   2 2.78
   8  0.374  1.000  0.426-   3 2.63   2 2.78   1 2.78
   9  1.000  0.627  0.426-   3 2.63   2 2.78   1 2.78
  10  0.627  0.374  0.426-   3 2.63   2 2.78   1 2.78

  LATTYP: Found a hexagonal cell.
 ALAT       =     6.9077769333
 C/A-ratio  =     3.3939410937

  Lattice vectors:

 A1 = (   3.4538890000,  -5.9823100000,   0.0000000000)
 A2 = (  -6.9077770000,   0.0000000000,   0.0000000000)
 A3 = (   0.0000000000,   0.0000000000, -23.4445880000)

Analysis of symmetry for initial positions (statically):
 Subroutine PRICEL returns:
 Original cell was already a primitive cell.

 Routine SETGRP: Setting up the symmetry group for a
 hexagonal supercell.

 Subroutine GETGRP returns: Found  6 space group operations
 (whereof  6 operations were pure point group operations)
 out of a pool of 24 trial point group operations.

The static configuration has the point symmetry S_6 .

Analysis of symmetry for dynamics (positions and initial velocities):
 Subroutine PRICEL returns:
 Original cell was already a primitive cell.

[...]

The dynamic configuration has the point symmetry S_6 .

Analysis of constrained symmetry for selective dynamics:
 Subroutine PRICEL returns:
 Original cell was already a primitive cell.

[...]

The constrained configuration has the point symmetry S_6 .

Analysis of structural, dynamic, and magnetic symmetry:
 Subroutine PRICEL returns:
 Original cell was already a primitive cell.

 Routine SETGRP: Setting up the symmetry group for a
 hexagonal supercell.

 Subroutine GETGRP returns: Found  6 space group operations
 (whereof  6 operations were pure point group operations)
 out of a pool of 24 trial point group operations.

The magnetic configuration has the point symmetry S_6 .

 Subroutine INISYM returns: Found  6 space group operations
 (whereof  6 operations are pure point group operations),
 and found     1 'primitive' translations

 KPOINTS: Kpoints from vasprun.xml

Automatic generation of k-mesh.
Space group operators:
 irot       det(A)        alpha          n_x          n_y          n_z        tau_x        tau_y        tau_z
    1     1.000000     0.000000     1.000000     0.000000     0.000000     0.000000     0.000000     0.000000
    2    -1.000000     0.000000     1.000000     0.000000     0.000000     0.000000     0.000000     0.000000
    3     1.000000   120.000000     0.000000     0.000000     1.000000     0.000000     0.000000     0.000000
    4    -1.000000   120.000000     0.000000     0.000000     1.000000     0.000000     0.000000     0.000000
    5     1.000000   120.000000     0.000000     0.000000    -1.000000     0.000000     0.000000     0.000000
    6    -1.000000   120.000000     0.000000     0.000000    -1.000000     0.000000     0.000000     0.000000

 Subroutine IBZKPT returns following result:

 Found      5 irreducible k-points:

 Following reciprocal coordinates:
            Coordinates               Weight
  0.000000  0.000000  0.000000      1.000000
  0.200000  0.000000  0.000000      6.000000
  0.400000  0.000000  0.000000      6.000000
  0.400000  0.200000  0.000000      6.000000
 -0.400000  0.200000  0.000000      6.000000

 Following cartesian coordinates:
            Coordinates               Weight
  0.000000  0.000000  0.000000      1.000000
  0.028953 -0.016716  0.000000      6.000000
  0.057906 -0.033432  0.000000      6.000000
  0.057906  0.000000  0.000000      6.000000
 -0.057906  0.066864  0.000000      6.000000

 TETIRR: Found     15 inequivalent tetrahedra from      150

 SYSTEM =  unknown system
 POSCAR =  Ni2 P2 Se6

 Startparameter for this run:
   NWRITE =      2    write-flag & timer
   PREC   = accura    normal or accurate (medium, high low for compatibility)
   ISTART =      0    job   : 0-new  1-cont  2-samecut
   ICHARG =      2    charge: 1-file 2-atom 10-const
   ISPIN  =      2    spin polarized calculation?
   LNONCOLLINEAR =      F non collinear calculations
   LSORBIT =      F    spin-orbit coupling
   INIWAV =      1    electr: 0-lowe 1-rand  2-diag
   LASPH  =      F    aspherical Exc in radial PAW
   METAGGA=      F    non-selfconsistent MetaGGA calc.

 Electronic Relaxation 1
   ENCUT  =  520.0 eV  38.22 Ry    6.18 a.u.  12.84 12.84 43.59*2*pi/ulx,y,z
   ENINI  =  520.0     initial cutoff
   ENAUG  =  544.6 eV  augmentation charge cutoff
   NELM   =    400;   NELMIN=  2; NELMDL=  0     # of ELM steps
   EDIFF  = 0.1E-03   stopping-criterion for ELM
   LREAL  =      T    real-space projection
   NLSPLINE    = F    spline interpolate recip. space projectors
   LCOMPAT=      F    compatible to vasp.4.4
   GGA_COMPAT  = T    GGA compatible to vasp.4.4-vasp.4.6
   LMAXPAW     = -100 max onsite density
   LMAXMIX     =    2 max onsite mixed and CHGCAR
   VOSKOWN=      0    Vosko Wilk Nusair interpolation
   ROPT   =   -0.00025  -0.00025  -0.00025
 Ionic relaxation
   EDIFFG = 0.1E-02   stopping-criterion for IOM
   NSW    =     99    number of steps for IOM
   NBLOCK =      1;   KBLOCK =     99    inner block; outer block
   IBRION =      2    ionic relax: 0-MD 1-quasi-New 2-CG
   NFREE  =      1    steps in history (QN), initial steepest desc. (CG)
   ISIF   =      3    stress and relaxation
   IWAVPR =     11    prediction:  0-non 1-charg 2-wave 3-comb
   ISYM   =      2    0-nonsym 1-usesym 2-fastsym
   LCORR  =      T    Harris-Foulkes like correction to forces

   POTIM  = 0.5000    time-step for ionic-motion
   TEIN   =    0.0    initial temperature
   TEBEG  =    0.0;   TEEND  =   0.0 temperature during run
   SMASS  =  -3.00    Nose mass-parameter (am)
   estimated Nose-frequenzy (Omega)   =  0.10E-29 period in steps =****** mass=  -0.109E-26a.u.
   SCALEE = 1.0000    scale energy and forces
   NPACO  =    256;   APACO  = 16.0  distance and # of slots for P.C.
   PSTRESS=    0.0 pullay stress

  Mass of Ions in am
   POMASS =  58.69 30.97 78.96
  Ionic Valenz
   ZVAL   =  10.00  5.00  6.00
  Atomic Wigner-Seitz radii
  virtual crystal weights
   VCA    =   1.00  1.00  1.00
   NELECT =      66.0000    total number of electrons
   NUPDOWN=      -1.0000    fix difference up-down

 DOS related values:
   EMIN   =  10.00;   EMAX   =-10.00  energy-range for DOS
   EFERMI =   0.00
   ISMEAR =    -5;   SIGMA  =   0.05  broadening in eV -4-tet -1-fermi 0-gaus

 Electronic relaxation 2 (details)
   IALGO  =     38    algorithm
   LDIAG  =      T    sub-space diagonalisation (order eigenvalues)
   LSUBROT=      F    optimize rotation matrix (better conditioning)
   TURBO    =      0    0=normal 1=particle mesh
   IRESTART =      0    0=no restart 2=restart with 2 vectors
   NREBOOT  =      0    no. of reboots
   NMIN     =      0    reboot dimension
   EREF     =   0.00    reference energy to select bands
   IMIX   =      4    mixing-type and parameters
     AMIX     =   0.40;   BMIX     =  1.00
     AMIX_MAG =   1.60;   BMIX_MAG =  1.00
     AMIN     =   0.01
     WC   =   100.;   INIMIX=   1;  MIXPRE=   1;  MAXMIX= -45

 Intra band minimization:
   WEIMIN = 0.0010     energy-eigenvalue tresh-hold
   EBREAK =  0.52E-06  absolut break condition
   DEPER  =   0.30     relativ break condition

[...]
    5        1.504   2.145   0.018   3.668
    6        1.498   2.099   0.018   3.615
    7        1.503   2.131   0.018   3.652
    8        1.504   2.145   0.018   3.668
    9        1.498   2.099   0.018   3.615
   10        1.503   2.131   0.018   3.652
tot         11.872  15.521  16.617  44.010

 magnetization (x)

[...]

  FORCE on cell =-STRESS in cart. coord.  units (eV):
  Direction    XX          YY          ZZ          XY          YZ          ZX
  Alpha Z    40.21074    40.21074    40.21074
  Ewald   10673.06248 10673.05994-12728.49101    -0.00198    -0.00055    -0.00101
  Hartree 11556.43777 11556.43882-10859.15109    -0.00037     0.00009     0.00015
  E(xc)    -274.35465  -274.35478  -274.49212     0.00013    -0.00002     0.00002
  Local  -22994.61547-22994.61501 22785.55329     0.00214     0.00031     0.00061
  n-local   278.58115   280.05663   289.24175     0.46829    -0.16864    -0.39929
  augment    57.44033    57.44049    53.12014    -0.00002    -0.00016     0.00017
  Kinetic   642.57973   637.89182   678.90138    -3.01035    -1.28090    -1.88771
  Fock        0.00000     0.00000     0.00000     0.00000     0.00000     0.00000
  Total     -22.26463   -22.26462   -15.10691    -0.00000     0.00000     0.00000
  in kB     -36.81936   -36.81935   -24.98254    -0.00000     0.00000     0.00000

 VOLUME and BASIS-vectors are now :
  energy-cutoff  :      520.00
  volume of cell :      968.84
      direct lattice vectors                 reciprocal lattice vectors
     6.907777000 -0.000000000  0.000000000     0.144764372 -0.083579742  0.000000000
     3.453888000  5.982310000  0.000000000     0.000000000  0.167159509 -0.000000000
     0.000000000  0.000000000 23.444588000    -0.000000000  0.000000000  0.042653767

[...]

 FORCES acting on ions
    electron-ion (+dipol)            ewald-force                    non-local-force                 convergence-correction
   0.230E-03 0.121E-03 0.121E+01   0.672E-03 0.403E-03 -.120E+01   0.000E+00 0.000E+00 0.292E-03   0.182E-05 0.105E-05 -.258E-03
   -.230E-03 -.121E-03 -.121E+01   -.672E-03 -.403E-03 0.120E+01   0.000E+00 0.000E+00 -.292E-03   -.182E-05 -.105E-05 0.258E-03
   -.163E-04 -.581E-04 0.247E+03   -.176E-03 -.974E-04 -.248E+03   -.347E-17 0.694E-17 0.162E+01   -.219E-06 -.143E-06 -.104E-01
   0.163E-04 0.581E-04 -.247E+03   0.176E-03 0.974E-04 0.248E+03   -.694E-17 -.694E-17 -.162E+01   0.219E-06 0.143E-06 0.104E-01
   -.148E+02 0.146E+00 -.437E+03   0.139E+02 -.145E+00 0.438E+03   0.147E+01 -.548E-02 -.239E+01   0.135E-01 -.872E-04 0.359E-01
   0.751E+01 0.127E+02 -.437E+03   -.710E+01 -.120E+02 0.438E+03   -.740E+00 -.127E+01 -.239E+01   -.684E-02 -.117E-01 0.359E-01
   0.725E+01 -.129E+02 -.437E+03   -.685E+01 0.122E+02 0.438E+03   -.730E+00 0.128E+01 -.239E+01   -.668E-02 0.118E-01 0.359E-01
   0.148E+02 -.146E+00 0.437E+03   -.139E+02 0.145E+00 -.438E+03   -.147E+01 0.548E-02 0.239E+01   -.135E-01 0.872E-04 -.359E-01
   -.751E+01 -.127E+02 0.437E+03   0.710E+01 0.120E+02 -.438E+03   0.740E+00 0.127E+01 0.239E+01   0.684E-02 0.117E-01 -.359E-01
   -.725E+01 0.129E+02 0.437E+03   0.685E+01 -.122E+02 -.438E+03   0.730E+00 -.128E+01 0.239E+01   0.668E-02 -.118E-01 -.359E-01
   -.486E-11 -.133E-09 0.400E-09   -.799E-14 0.178E-14 0.568E-13   0.111E-15 0.000E+00 0.444E-15   -.323E-15 -.513E-13 0.104E-10

 POSITION                                       TOTAL-FORCE (eV/Angst)
      3.45388      1.99410     11.72054        -0.000000      0.000000      0.008099
      6.90778      3.98821     11.72405         0.000000     -0.000000     -0.008099
      0.00000      0.00000     10.50824         0.000000      0.000000      0.377068
      0.00000      0.00000     12.93635        -0.000000     -0.000000     -0.377068
      4.32819      0.00251     13.45138         0.669760     -0.003663     -1.413022
      1.29198      2.23274     13.45138        -0.338052     -0.578198     -1.413022
      4.74152      3.74706     13.45138        -0.331708      0.581861     -1.413022
      6.03348      5.97980      9.99321        -0.669760      0.003663      1.413022
      9.06969      3.74957      9.99321         0.338052      0.578198      1.413022
      5.62015      2.23525      9.99321         0.331708     -0.581861      1.413022
    total drift:                               -0.000000     -0.000000      0.000000

  FREE ENERGIE OF THE ION-ELECTRON SYSTEM (eV)
  free  energy   TOTEN  =       -33.89986619 eV

  energy  without entropy=      -33.89986619  energy(sigma->0) =      -33.89986619

[...]

 d Force = 0.3634432E+00[ 0.624E-01, 0.664E+00]  d Energy = 0.4167458E+01-0.380E+01
 d Force =-0.1951250E+03[-0.218E+03,-0.172E+03]  d Ewald  =-0.1806104E+04 0.161E+04

 Steepest descent step on ions:
 trial-energy change:   -4.167458  1 .order   -3.318519   -6.605405   -0.031633
  (g-gl).g = 0.661E+01      g.g   = 0.661E+01  gl.gl    = 0.000E+00
 g(Force)  = 0.722E+00   g(Stress)= 0.588E+01 ortho     = 0.000E+00
 gamma     =   0.00000
 trial     =   1.00000
 opt step  =   1.00271  (harmonic =   1.00481) maximal distance =0.06835253
 next E    =   -38.067367   (d E  =  -4.16750)

[...]

 d Force = 0.1862144E-03[ 0.182E-03, 0.190E-03]  d Energy = 0.4082454E-03-0.222E-03
 d Force =-0.6367854E+00[-0.637E+00,-0.637E+00]  d Ewald  =-0.5736611E+01 0.510E+01

[...]

 d Force = 0.4910852E-01[ 0.188E-01, 0.795E-01]  d Energy = 0.5143864E-01-0.233E-02
 d Force = 0.1446505E+02[ 0.144E+02, 0.145E+02]  d Ewald  =-0.1089817E+03 0.123E+03

 Conjugate gradient step on ions:
 trial-energy change:   -0.051439  1 .order   -0.052081   -0.085746   -0.018417
  (g-gl).g = 0.144E-01      g.g   = 0.855E-01  gl.gl    = 0.661E+01
 g(Force)  = 0.792E-01   g(Stress)= 0.636E-02 ortho     = 0.711E-01
 gamma     =   0.00218
 trial     =   1.00054
 opt step  =   1.29617  (harmonic =   1.27423) maximal distance =0.03700059
 next E    =   -38.121876   (d E  =  -0.05414)

[...]

 d Force = 0.3129737E-02[ 0.699E-03, 0.556E-02]  d Energy = 0.2494232E-02 0.636E-03
 d Force = 0.4245611E+01[ 0.424E+01, 0.425E+01]  d Ewald  =-0.3237821E+02 0.366E+02

[...]

 d Force = 0.1371182E-01[ 0.108E-01, 0.166E-01]  d Energy = 0.1639573E-01-0.268E-02
 d Force = 0.2240456E+01[ 0.219E+01, 0.229E+01]  d Ewald  = 0.6742106E+02-0.652E+02

 Conjugate gradient step on ions:
 trial-energy change:   -0.016396  1 .order   -0.016639   -0.019977   -0.013301
  (g-gl).g = 0.197E-01      g.g   = 0.191E-01  gl.gl    = 0.855E-01
 g(Force)  = 0.151E-01   g(Stress)= 0.400E-02 ortho     =-0.888E-03
 gamma     =   0.23058
 trial     =   1.05967
 opt step  =   3.17071  (harmonic =   3.17071) maximal distance =0.03842049
 next E    =   -38.151553   (d E  =  -0.02989)

[...]

 d Force = 0.8818140E-02[-0.401E-02, 0.216E-01]  d Energy = 0.6032969E-02 0.279E-02
 d Force = 0.4162300E+01[ 0.396E+01, 0.437E+01]  d Ewald  = 0.1323844E+03-0.128E+03

[...]

 d Force = 0.1403968E-03[-0.781E-03, 0.106E-02]  d Energy = 0.2126183E-02-0.199E-02
 d Force =-0.1069249E+01[-0.108E+01,-0.105E+01]  d Ewald  =-0.3512872E+02 0.341E+02

[...]

 d Force = 0.8171681E-03[-0.924E-03, 0.256E-02]  d Energy = 0.1276319E-02-0.459E-03
 d Force =-0.8376127E+01[-0.838E+01,-0.837E+01]  d Ewald  =-0.2162398E+02 0.132E+02

 Conjugate gradient step on ions:
 trial-energy change:   -0.001276  1 .order   -0.000557   -0.004255    0.003142
  (g-gl).g = 0.160E-02      g.g   = 0.313E-02  gl.gl    = 0.191E-01
 g(Force)  = 0.176E-02   g(Stress)= 0.138E-02 ortho     =-0.314E-03
 gamma     =   0.08379
 trial     =   1.36904
 opt step  =   0.95591  (harmonic =   0.78752) maximal distance =0.00663058
 next E    =   -38.147951   (d E  =  -0.00173)

[...]

 eigenvalue-minimisations  :   976
 total energy-change (2. order) : 0.6787813E-02  (-0.1685351E-02)
 number of electron      65.9999996 magnetization       1.9346174
 augmentation part        4.6164848 magnetization       1.0123315

[...]

 Broyden mixing:
  rms(total) = 0.82914E-02    rms(broyden)= 0.82912E-02
  rms(prec ) = 0.90551E-02
  weight for this iteration     100.00

 eigenvalues of (default mixing * dielectric matrix)
  average eigenvalue GAMMA=   0.9587
  1.8985  0.2987  0.6789

[...]

--------------------------------------- Iteration     10(   5)  ---------------------------------------

[...]

 eigenvalue-minimisations  :   816
 total energy-change (2. order) :-0.4016550E-04  (-0.1711021E-04)
 number of electron      65.9999996 magnetization       1.9346284
 augmentation part        4.6198506 magnetization       1.0125092

 Free energy of the ion-electron system (eV)
  alpha Z        PSCENC =        53.85843220
  Ewald energy   TEWEN  =     10421.24720223
  -Hartree energ DENC   =    -14091.82407000
  -exchange      EXHF   =         0.00000000
  -V(xc)+E(xc)   XCENC  =        61.24402810
  PAW double counting   =      2605.18730880    -2636.71979690
  entropy T*S    EENTRO =         0.00000000
  eigenvalues    EBANDS =      -518.48474356
  atomic energy  EATOM  =      4067.34345142
  Solvation  Ediel_sol  =         0.00000000
  free energy    TOTEN  =       -38.14818771 eV

  energy without entropy =      -38.14818771  energy(sigma->0) =      -38.14818771

 average (electrostatic) potential at core
  the test charge radii are     0.9791  0.9587  1.0808
  (the norm of the test charge is              1.0000)
       1 -49.6003       2 -49.6003       3 -93.0759       4 -93.0759       5 -61.4399
       6 -61.4399       7 -61.4398       8 -61.4399       9 -61.4399      10 -61.4398

 E-fermi :  -2.3631     XC(G=0):  -3.7633     alpha+bet : -2.7523

[...]

 spin component 2

[...]

 k-point     5 :      -0.4000    0.2000    0.0000
  band No.  band energies     occupation
      1     -17.9149      1.00000
      2     -16.7562      1.00000
      3     -16.4483      1.00000
      4     -16.1296      1.00000
      5     -15.8741      1.00000
      6     -15.7417      1.00000
      7     -12.9944      1.00000
      8     -11.4394      1.00000
      9      -8.6127      1.00000
     10      -8.2309      1.00000
     11      -8.2047      1.00000
     12      -7.7688      1.00000
     13      -7.4029      1.00000
     14      -6.6807      1.00000
     15      -6.1771      1.00000
     16      -5.9054      1.00000
     17      -5.8948      1.00000
     18      -5.7753      1.00000
     19      -5.7704      1.00000
     20      -5.4387      1.00000
     21      -5.2011      1.00000
     22      -4.7145      1.00000
     23      -4.5305      1.00000
     24      -4.4299      1.00000
     25      -4.2899      1.00000
     26      -4.1437      1.00000
     27      -3.8999      1.00000
     28      -3.8825      1.00000
     29      -3.5978      1.00000
     30      -3.5811      1.00000
     31      -3.4838      1.00000
     32      -2.5650      1.00000
     33      -2.3033      0.03577
     34      -2.0467      0.00000
     35      -1.6373      0.00000
     36      -1.5208      0.00000
     37      -1.0034      0.00000
     38      -0.2640      0.00000
     39       0.2184      0.00000
     40       0.3975      0.00000
     41       0.5519      0.00000
     42       0.9872      0.00000
     43       2.4417      0.00000
     44       2.6600      0.00000
     45       2.8171      0.00000
     46       2.8600      0.00000
     47       2.9593      0.00000
     48       3.4203      0.00000

[...]

 soft charge-density along one line, spin component           2
         0         1         2         3         4         5         6         7         8         9
 total charge-density along one line

------------------------ aborting loop because EDIFF is reached ----------------------------------------

[...]

  FORCE on cell =-STRESS in cart. coord.  units (eV):
  Direction    XX          YY          ZZ          XY          YZ          ZX
  Alpha Z    53.85843    53.85843    53.85843
  Ewald   12740.51733 12740.51395-15059.78693    -0.00204    -0.00066    -0.00119
  Hartree 13498.23605 13498.23705-12903.69732    -0.00030     0.00009     0.00015
  E(xc)    -281.29155  -281.29164  -281.54998     0.00010     0.00000     0.00001
  Local  -27026.13938-27026.13850 27131.23659     0.00194     0.00036     0.00067
  n-local   290.01204   292.34706   294.57525     1.09185     0.22332     0.12222
  augment    58.45081    58.45044    53.89607     0.00047    -0.00006     0.00010
  Kinetic   671.02680   659.50039   711.59422    -6.22828    -2.72815    -3.19952
  Fock        0.00000     0.00000     0.00000     0.00000     0.00000     0.00000
  Total       0.07385     0.07385     0.12634    -0.00000     0.00000    -0.00000
  in kB       0.16358     0.16358     0.27984    -0.00001     0.00000    -0.00000

 VOLUME and BASIS-vectors are now :
  energy-cutoff  :      520.00
  volume of cell :      723.33
      direct lattice vectors                 reciprocal lattice vectors
     6.182042969  0.000000661  0.000000000     0.161758834 -0.093391477 -0.000000000
     3.091020570  5.353806339  0.000000000    -0.000000020  0.186783010 -0.000000000
     0.000000000  0.000000000 21.854633405    -0.000000000 -0.000000000  0.045756887

  length of vectors
     6.182042969  6.182042582 21.854633405     0.186782998  0.186783010  0.045756887

 FORCES acting on ions
    electron-ion (+dipol)            ewald-force                    non-local-force                 convergence-correction
   -.157E-03 -.106E-03 0.738E+00   0.858E-03 0.506E-03 -.744E+00   -.346E-17 -.693E-17 0.103E-01   -.160E-06 -.203E-06 -.794E-03
   0.157E-03 0.106E-03 -.738E+00   -.858E-03 -.506E-03 0.744E+00   0.243E-16 0.693E-17 -.103E-01   0.160E-06 0.203E-06 0.794E-03
   -.407E-04 -.508E-04 0.316E+03   -.243E-03 -.136E-03 -.315E+03   0.647E-17 0.345E-16 -.406E+00   0.515E-08 0.115E-07 -.760E-02
   0.407E-04 0.508E-04 -.316E+03   0.243E-03 0.136E-03 0.315E+03   -.300E-17 -.415E-16 0.406E+00   -.515E-08 -.115E-07 0.760E-02
   -.956E+01 -.195E-01 -.546E+03   0.795E+01 0.209E-01 0.548E+03   0.158E+01 -.348E-02 -.182E+01   0.951E-02 -.431E-04 0.200E-01
   0.476E+01 0.829E+01 -.546E+03   -.396E+01 -.690E+01 0.548E+03   -.794E+00 -.137E+01 -.182E+01   -.479E-02 -.821E-02 0.200E-01
   0.479E+01 -.827E+01 -.546E+03   -.399E+01 0.688E+01 0.548E+03   -.788E+00 0.137E+01 -.182E+01   -.472E-02 0.825E-02 0.200E-01
   0.956E+01 0.195E-01 0.546E+03   -.795E+01 -.209E-01 -.548E+03   -.158E+01 0.348E-02 0.182E+01   -.951E-02 0.431E-04 -.200E-01
   -.476E+01 -.829E+01 0.546E+03   0.396E+01 0.690E+01 -.548E+03   0.794E+00 0.137E+01 0.182E+01   0.479E-02 0.821E-02 -.200E-01
   -.479E+01 0.827E+01 0.546E+03   0.399E+01 -.688E+01 -.548E+03   0.788E+00 -.137E+01 0.182E+01   0.472E-02 -.825E-02 -.200E-01
   -.114E-09 -.753E-09 0.246E-09   -.169E-13 0.533E-14 -.455E-12   -.111E-15 -.222E-15 0.000E+00   0.343E-12 0.442E-12 -.174E-10

 POSITION                                       TOTAL-FORCE (eV/Angst)
      3.09102      1.78460     10.92619         0.000000     -0.000000      0.003631
      6.18205      3.56921     10.92844        -0.000000     -0.000000     -0.003631
      0.00000      0.00000      9.79907         0.000000     -0.000000      0.019058
      0.00000      0.00000     12.05556        -0.000000     -0.000000     -0.019058
      3.95989      0.00080     12.47712        -0.014335     -0.001438      0.007597
      1.11177      1.92405     12.47712         0.005922      0.013133      0.007597
      4.20141      3.42897     12.47712         0.008413     -0.011696      0.007597
      5.31317      5.35301      9.37751         0.014335      0.001438     -0.007597
      8.16129      3.42976      9.37751        -0.005922     -0.013133     -0.007597
      5.07165      1.92484      9.37751        -0.008413      0.011696     -0.007597
    total drift:                               -0.000000     -0.000000      0.000000

  FREE ENERGIE OF THE ION-ELECTRON SYSTEM (eV)
  free  energy   TOTEN  =       -38.14818771 eV

  energy  without entropy=      -38.14818771  energy(sigma->0) =      -38.14818771

 d Force = 0.1054313E-03[-0.687E-04, 0.280E-03]  d Energy = 0.6909557E-03-0.586E-03
 d Force = 0.2535753E+01[ 0.254E+01, 0.254E+01]  d Ewald  = 0.6534412E+01-0.400E+01

 reached required accuracy - stopping structural energy minimisation

 total charge

[...]

 magnetization (x)

# of ion       s       p       d       tot
    1       -0.001  -0.000   0.613   0.612
    2       -0.001  -0.000   0.613   0.612
    3       -0.001  -0.004   0.000  -0.006
    4       -0.001  -0.004   0.000  -0.006
    5        0.005   0.074   0.001   0.080
    6        0.004   0.050   0.002   0.056
    7        0.005   0.067   0.001   0.074
    8        0.005   0.074   0.001   0.080
    9        0.004   0.050   0.002   0.056
   10        0.005   0.067   0.001   0.074
tot          0.024   0.373   1.236   1.633

 BZINTS: Fermi energy: -2.363088; 66.000000 electrons
         Band energy:-518.484744;  BLOECHL correction: -0.016307