 vasp.5.4.4.18Apr17-6-g9f103f2a35 (build May  1 2020 15:48:39) complex
 executed on             LinuxGNU date 2020.07.03  15:47:48

 INCAR:
 POTCAR:   PAW_PBE Co 06Sep2000
 POTCAR:   PAW_PBE Ge 05Jan2001
 POTCAR:   PAW_PBE Si 05Jan2001
 POTCAR:    PAW_PBE S 17Jan2003

 POTCAR:   PAW_PBE Co 06Sep2000
   VRHFIN =Co: d8 s1

   TITEL  = PAW_PBE Co 06Sep2000
   POMASS =   58.933; ZVAL   =    9.000    mass and valenz
   ENMAX  =  267.969; ENMIN  =  200.977 eV
   QCUT   =   -4.438; QGAM   =    8.876    optimization parameters

   Description
     l     E      TYP  RCUT    TYP  RCUT
     2   .000     23  2.300
     2   .000     23  2.300
     0   .000     23  2.300
     0   .000     23  2.300
     1  -.200     23  2.300
     1   .000     23  2.300
     3   .000      7   .000

 POTCAR:   PAW_PBE Ge 05Jan2001
   VRHFIN =Ge: s2p2

   TITEL  = PAW_PBE Ge 05Jan2001
   POMASS =   72.610; ZVAL   =    4.000    mass and valenz
   ENMAX  =  173.807; ENMIN  =  130.355 eV
   QCUT   =   -3.574; QGAM   =    7.148    optimization parameters

[...]

 POTCAR:   PAW_PBE Si 05Jan2001
   VRHFIN =Si: s2p2

[...]

 POTCAR:    PAW_PBE S 17Jan2003
   VRHFIN =S : s2p4

   TITEL  = PAW_PBE S 17Jan2003
   POMASS =   32.066; ZVAL   =    6.000    mass and valenz
   ENMAX  =  280.000; ENMIN  =  194.016 eV
   QCUT   =   -4.360; QGAM   =    8.721    optimization parameters

   Description
     l     E      TYP  RCUT    TYP  RCUT
     0   .000     23  1.900
     0   .000     23  1.900
     1   .000     23  1.900
     1   .000     23  1.900
     2   .000     23  1.900

 Optimization of the real space projectors (new method)

 maximal supplied QI-value         = 16.25
 optimisation between [QCUT,QGAM] = [ 11.54, 23.24] = [ 37.28,151.24] Ry
 Optimized for a Real-space Cutoff    1.53 Angstroem

   l    n(q)    QCUT    max X(q) W(low)/X(q) W(high)/X(q)  e(spline)
   2     10    11.539     4.599    0.83E-05    0.15E-04    0.45E-07
   2     10    11.539    18.158    0.10E-03    0.14E-03    0.24E-06
   0     11    11.539    15.740    0.19E-04    0.12E-05    0.17E-07
   0     11    11.539    47.662    0.48E-04    0.15E-04    0.31E-06
   1     10    11.539     5.777    0.11E-04    0.46E-05    0.25E-07
   1     10    11.539     8.007    0.46E-04    0.29E-04    0.11E-06
 Optimization of the real space projectors (new method)

[...]

   l    n(q)    QCUT    max X(q) W(low)/X(q) W(high)/X(q)  e(spline)
   0      8    11.508     8.708    0.18E-04    0.44E-05    0.47E-08
   0      8    11.508   106.241    0.70E-04    0.15E-03    0.51E-07
   1      8    11.508     5.901    0.63E-05    0.23E-04    0.21E-07
   1      8    11.508    73.241    0.15E-03    0.36E-04    0.79E-07
 Optimization of the real space projectors (new method)

 maximal supplied QI-value         = 19.84
 optimisation between [QCUT,QGAM] = [ 11.51, 23.22] = [ 37.09,150.92] Ry
 Optimized for a Real-space Cutoff    1.21 Angstroem

   l    n(q)    QCUT    max X(q) W(low)/X(q) W(high)/X(q)  e(spline)
   0      8    11.508     5.487    0.18E-04    0.22E-05    0.47E-08
   0      8    11.508    85.627    0.96E-04    0.18E-03    0.54E-07
   1      8    11.508     3.530    0.17E-04    0.28E-04    0.21E-07
   1      8    11.508    42.714    0.18E-03    0.63E-04    0.92E-07

 PAW_PBE Co 06Sep2000                   :
 PAW_PBE Ge 05Jan2001                   :
 PAW_PBE Si 05Jan2001                   :
  PAW_PBE S 17Jan2003                   :

 POSCAR: Co2 Ge Si S6
  positions in direct lattice
  velocities in cartesian coordinates
 exchange correlation table for  LEXCH =       42
   RHO(1)=    0.500       N(1)  =     2000
   RHO(2)=  100.500       N(2)  =     4000

 ion  position               nearest neighbor table
   1  0.333  0.333  0.500-   6 2.78   5 2.78   7 2.78   8 2.78  10 2.78   9 2.78
   2  0.667  0.667  0.500-   9 2.78   8 2.78  10 2.78   5 2.78   7 2.78   6 2.78
   3  0.000  0.000  0.448-   4 2.43   8 2.63  10 2.63   9 2.63
   4  0.000  0.000  0.552-   3 2.43   5 2.63   7 2.63   6 2.63
   5  0.626  0.000  0.574-   4 2.63   1 2.78   2 2.78
   6  0.000  0.373  0.574-   4 2.63   1 2.78   2 2.78
   7  0.373  0.626  0.574-   4 2.63   1 2.78   2 2.78
   8  0.374  1.000  0.426-   3 2.63   2 2.78   1 2.78
   9  1.000  0.627  0.426-   3 2.63   2 2.78   1 2.78
  10  0.627  0.374  0.426-   3 2.63   2 2.78   1 2.78

  LATTYP: Found a hexagonal cell.
 ALAT       =     6.9077769333
 C/A-ratio  =     3.3939410937

  Lattice vectors:

 A1 = (   3.4538890000,  -5.9823100000,   0.0000000000)
 A2 = (  -6.9077770000,   0.0000000000,   0.0000000000)
 A3 = (   0.0000000000,   0.0000000000, -23.4445880000)

Analysis of symmetry for initial positions (statically):
 Subroutine PRICEL returns:
 Original cell was already a primitive cell.

 Routine SETGRP: Setting up the symmetry group for a
 hexagonal supercell.

 Subroutine GETGRP returns: Found  3 space group operations
 (whereof  3 operations were pure point group operations)
 out of a pool of 24 trial point group operations.

The static configuration has the point symmetry C_3 .

Analysis of symmetry for dynamics (positions and initial velocities):
 Subroutine PRICEL returns:
 Original cell was already a primitive cell.

[...]

The dynamic configuration has the point symmetry C_3 .

Analysis of constrained symmetry for selective dynamics:
 Subroutine PRICEL returns:
 Original cell was already a primitive cell.

[...]

The constrained configuration has the point symmetry C_3 .

Analysis of structural, dynamic, and magnetic symmetry:
 Subroutine PRICEL returns:
 Original cell was already a primitive cell.

 Routine SETGRP: Setting up the symmetry group for a
 hexagonal supercell.

 Subroutine GETGRP returns: Found  3 space group operations
 (whereof  3 operations were pure point group operations)
 out of a pool of 24 trial point group operations.

The magnetic configuration has the point symmetry C_3 .

 Subroutine INISYM returns: Found  3 space group operations
 (whereof  3 operations are pure point group operations),
 and found     1 'primitive' translations

 KPOINTS: Kpoints from vasprun.xml

Automatic generation of k-mesh.
Space group operators:
 irot       det(A)        alpha          n_x          n_y          n_z        tau_x        tau_y        tau_z
    1     1.000000     0.000000     1.000000     0.000000     0.000000     0.000000     0.000000     0.000000
    2     1.000000   120.000000     0.000000     0.000000     1.000000     0.000000     0.000000     0.000000
    3     1.000000   120.000000     0.000000     0.000000    -1.000000     0.000000     0.000000     0.000000

 Subroutine IBZKPT returns following result:

 Found      5 irreducible k-points:

 Following reciprocal coordinates:
            Coordinates               Weight
  0.000000  0.000000  0.000000      1.000000
  0.200000  0.000000  0.000000      6.000000
  0.400000  0.000000  0.000000      6.000000
  0.400000  0.200000  0.000000      6.000000
 -0.400000  0.200000  0.000000      6.000000

 Following cartesian coordinates:
            Coordinates               Weight
  0.000000  0.000000  0.000000      1.000000
  0.028953 -0.016716  0.000000      6.000000
  0.057906 -0.033432  0.000000      6.000000
  0.057906  0.000000  0.000000      6.000000
 -0.057906  0.066864  0.000000      6.000000

 TETIRR: Found     15 inequivalent tetrahedra from      150

 SYSTEM =  unknown system
 POSCAR =  Co2 Ge Si S6

 Startparameter for this run:
   NWRITE =      2    write-flag & timer
   PREC   = accura    normal or accurate (medium, high low for compatibility)
   ISTART =      0    job   : 0-new  1-cont  2-samecut
   ICHARG =      2    charge: 1-file 2-atom 10-const
   ISPIN  =      2    spin polarized calculation?
   LNONCOLLINEAR =      F non collinear calculations
   LSORBIT =      F    spin-orbit coupling
   INIWAV =      1    electr: 0-lowe 1-rand  2-diag
   LASPH  =      F    aspherical Exc in radial PAW
   METAGGA=      F    non-selfconsistent MetaGGA calc.

 Electronic Relaxation 1
   ENCUT  =  520.0 eV  38.22 Ry    6.18 a.u.  12.84 12.84 43.59*2*pi/ulx,y,z
   ENINI  =  520.0     initial cutoff
   ENAUG  =  477.8 eV  augmentation charge cutoff
   NELM   =    400;   NELMIN=  2; NELMDL=  0     # of ELM steps
   EDIFF  = 0.1E-03   stopping-criterion for ELM
   LREAL  =      T    real-space projection
   NLSPLINE    = F    spline interpolate recip. space projectors
   LCOMPAT=      F    compatible to vasp.4.4
   GGA_COMPAT  = T    GGA compatible to vasp.4.4-vasp.4.6
   LMAXPAW     = -100 max onsite density
   LMAXMIX     =    2 max onsite mixed and CHGCAR
   VOSKOWN=      0    Vosko Wilk Nusair interpolation
   ROPT   =   -0.00025  -0.00025  -0.00025  -0.00025
 Ionic relaxation
   EDIFFG = 0.1E-02   stopping-criterion for IOM
   NSW    =     99    number of steps for IOM
   NBLOCK =      1;   KBLOCK =     99    inner block; outer block
   IBRION =      2    ionic relax: 0-MD 1-quasi-New 2-CG
   NFREE  =      1    steps in history (QN), initial steepest desc. (CG)
   ISIF   =      3    stress and relaxation
   IWAVPR =     11    prediction:  0-non 1-charg 2-wave 3-comb
   ISYM   =      2    0-nonsym 1-usesym 2-fastsym
   LCORR  =      T    Harris-Foulkes like correction to forces

   POTIM  = 0.5000    time-step for ionic-motion
   TEIN   =    0.0    initial temperature
   TEBEG  =    0.0;   TEEND  =   0.0 temperature during run
   SMASS  =  -3.00    Nose mass-parameter (am)
   estimated Nose-frequenzy (Omega)   =  0.10E-29 period in steps =****** mass=  -0.109E-26a.u.
   SCALEE = 1.0000    scale energy and forces
   NPACO  =    256;   APACO  = 16.0  distance and # of slots for P.C.
   PSTRESS=    0.0 pullay stress

  Mass of Ions in am
   POMASS =  58.93 72.61 28.09 32.07
  Ionic Valenz
   ZVAL   =   9.00  4.00  4.00  6.00
  Atomic Wigner-Seitz radii
  virtual crystal weights
   VCA    =   1.00  1.00  1.00  1.00
   NELECT =      62.0000    total number of electrons
   NUPDOWN=      -1.0000    fix difference up-down

 DOS related values:
   EMIN   =  10.00;   EMAX   =-10.00  energy-range for DOS
   EFERMI =   0.00
   ISMEAR =    -5;   SIGMA  =   0.05  broadening in eV -4-tet -1-fermi 0-gaus

 Electronic relaxation 2 (details)
   IALGO  =     38    algorithm
   LDIAG  =      T    sub-space diagonalisation (order eigenvalues)
   LSUBROT=      F    optimize rotation matrix (better conditioning)
   TURBO    =      0    0=normal 1=particle mesh
   IRESTART =      0    0=no restart 2=restart with 2 vectors
   NREBOOT  =      0    no. of reboots
   NMIN     =      0    reboot dimension
   EREF     =   0.00    reference energy to select bands
   IMIX   =      4    mixing-type and parameters
     AMIX     =   0.40;   BMIX     =  1.00
     AMIX_MAG =   1.60;   BMIX_MAG =  1.00
     AMIN     =   0.01
     WC   =   100.;   INIMIX=   1;  MIXPRE=   1;  MAXMIX= -45

 Intra band minimization:
   WEIMIN = 0.0010     energy-eigenvalue tresh-hold
   EBREAK =  0.52E-06  absolut break condition
   DEPER  =   0.30     relativ break condition

   TIME   =   0.40     timestep for ELM

  volume/ion in A,a.u.               =      96.88       653.80
  Fermi-wavevector in a.u.,A,eV,Ry     =   0.654820  1.237431  5.834037  0.428790
  Thomas-Fermi vector in A             =   1.725500

 Write flags
[...]
   -.136E-04 -.193E-05 0.181E+03   -.141E-03 -.779E-04 -.179E+03   -.173E-17 0.347E-17 -.280E+01   0.518E-04 0.569E-05 0.783E-01
   0.694E-05 0.134E-04 -.184E+03   0.141E-03 0.779E-04 0.179E+03   -.208E-16 -.139E-16 0.560E+01   -.433E-04 0.708E-06 -.873E-01
   -.216E+02 0.874E-01 -.401E+03   0.186E+02 -.155E+00 0.405E+03   0.449E+01 -.719E-02 -.495E+01   -.112E-02 0.731E-01 -.267E+00
   0.109E+02 0.187E+02 -.401E+03   -.941E+01 -.160E+02 0.405E+03   -.225E+01 -.388E+01 -.495E+01   0.639E-01 -.353E-01 -.267E+00
   0.107E+02 -.187E+02 -.401E+03   -.915E+01 0.162E+02 0.405E+03   -.224E+01 0.389E+01 -.495E+01   -.627E-01 -.378E-01 -.267E+00
   0.214E+02 -.111E+00 0.401E+03   -.186E+02 0.155E+00 -.405E+03   -.383E+01 -.774E-02 0.487E+01   0.470E-01 -.394E-01 0.206E+00
   -.108E+02 -.185E+02 0.401E+03   0.941E+01 0.160E+02 -.405E+03   0.191E+01 0.332E+01 0.487E+01   -.576E-01 -.210E-01 0.207E+00
   -.106E+02 0.186E+02 0.401E+03   0.915E+01 -.162E+02 -.405E+03   0.192E+01 -.331E+01 0.487E+01   0.106E-01 0.604E-01 0.206E+00
   -.268E-04 0.469E-04 -.229E+01   0.711E-14 0.711E-14 0.171E-12   -.444E-15 0.000E+00 0.263E+01   0.151E-03 -.194E-05 -.322E+00

 POSITION                                       TOTAL-FORCE (eV/Angst)
      3.45388      1.99410     11.72054         0.000000     -0.000000     -0.031497
      6.90778      3.98821     11.72405         0.000000     -0.000000     -0.047625
      0.00000      0.00000     10.50824         0.000000     -0.000000     -0.708330
      0.00000      0.00000     12.93635         0.000000     -0.000000      1.000460
      4.32819      0.00251     13.45138         1.448628     -0.000142     -1.688281
      1.29198      2.23274     13.45138        -0.724437     -1.254477     -1.688281
      4.74152      3.74706     13.45138        -0.724191      1.254619     -1.688281
      6.03348      5.97980      9.99321        -0.937661     -0.004791      1.617278
      9.06969      3.74957      9.99321         0.464681      0.814434      1.617278
      5.62015      2.23525      9.99321         0.472980     -0.809643      1.617278
    total drift:                                0.000124      0.000045      0.016397

  FREE ENERGIE OF THE ION-ELECTRON SYSTEM (eV)
  free  energy   TOTEN  =       -38.51882963 eV

  energy  without entropy=      -38.51882963  energy(sigma->0) =      -38.51882963

[...]

 d Force = 0.6019688E+00[ 0.624E-01, 0.114E+01]  d Energy = 0.8442401E+01-0.784E+01
 d Force =-0.1967064E+03[-0.229E+03,-0.165E+03]  d Ewald  =-0.2475303E+04 0.228E+04

 Steepest descent step on ions:
 trial-energy change:   -8.442401  1 .order   -6.086544  -11.200245   -0.972842
  (g-gl).g = 0.112E+02      g.g   = 0.112E+02  gl.gl    = 0.000E+00
 g(Force)  = 0.127E+01   g(Stress)= 0.993E+01 ortho     = 0.000E+00
 gamma     =   0.00000
 trial     =   1.00000
 opt step  =   1.03905  (harmonic =   1.09512) maximal distance =0.08106834
 next E    =   -46.980365   (d E  =  -8.46154)

[...]

 d Force =-0.2425788E-03[-0.245E-02, 0.196E-02]  d Energy = 0.4642378E-01-0.467E-01
 d Force =-0.9720699E+01[-0.979E+01,-0.965E+01]  d Ewald  =-0.1220929E+03 0.112E+03

[...]

 d Force =-0.1474750E-01[-0.247E-01,-0.479E-02]  d Energy =-0.3263703E-01 0.179E-01
 d Force =-0.1979066E+02[-0.201E+02,-0.195E+02]  d Ewald  =-0.2512673E+03 0.231E+03

[...]

 d Force = 0.1268219E-01[ 0.768E-02, 0.177E-01]  d Energy = 0.4069325E-01-0.280E-01
 d Force = 0.1400408E+02[ 0.139E+02, 0.141E+02]  d Ewald  = 0.1761616E+03-0.162E+03

[...]

 d Force = 0.3823946E+00[ 0.207E+00, 0.558E+00]  d Energy = 0.4161112E+00-0.337E-01
 d Force =-0.9412852E+02[-0.961E+02,-0.922E+02]  d Ewald  = 0.1513351E+03-0.245E+03

 Conjugate gradient step on ions:
 trial-energy change:   -0.416111  1 .order   -0.412304   -0.664074   -0.160534
  (g-gl).g = 0.662E+00      g.g   = 0.656E+00  gl.gl    = 0.112E+02
 g(Force)  = 0.564E+00   g(Stress)= 0.926E-01 ortho     =-0.585E-02
 gamma     =   0.05911
 trial     =   1.01255
 opt step  =   1.31737  (harmonic =   1.33536) maximal distance =0.11040328
 next E    =   -47.456090   (d E  =  -0.44038)

[...]

 d Force = 0.4669601E-01[ 0.308E-01, 0.625E-01]  d Energy = 0.2297408E-01 0.237E-01
 d Force =-0.2956796E+02[-0.297E+02,-0.294E+02]  d Ewald  = 0.4601570E+02-0.756E+02

[...]

 d Force = 0.5550022E-01[-0.126E-01, 0.124E+00]  d Energy = 0.6542668E-01-0.993E-02
 d Force = 0.9661283E+01[ 0.973E+01, 0.959E+01]  d Ewald  = 0.1930585E+02-0.964E+01

[...]

 d Force =-0.3718810E-04[-0.282E-02, 0.275E-02]  d Energy = 0.5302746E-02-0.534E-02
 d Force =-0.2106939E+01[-0.210E+01,-0.211E+01]  d Ewald  =-0.4336550E+01 0.223E+01

[...]

 d Force = 0.3644028E-02[-0.211E-02, 0.940E-02]  d Energy = 0.6815565E-02-0.317E-02
 d Force =-0.8759469E+01[-0.878E+01,-0.873E+01]  d Ewald  =-0.1405121E+03 0.132E+03

[...]

 d Force = 0.1608991E-03[-0.215E-03, 0.537E-03]  d Energy = 0.9304936E-03-0.770E-03
 d Force = 0.2236118E+01[ 0.223E+01, 0.224E+01]  d Ewald  = 0.3601923E+02-0.338E+02

[...]

 d Force = 0.4770645E-03[-0.371E-02, 0.467E-02]  d Energy = 0.4961679E-03-0.191E-04
 d Force =-0.1623602E+02[-0.162E+02,-0.163E+02]  d Ewald  =-0.3967168E+02 0.234E+02

[...]

 Steepest descent step on ions:
 trial-energy change:   -0.003904  1 .order   -0.004074   -0.005494   -0.002655
  (g-gl).g = 0.855E-02      g.g   = 0.799E-02  gl.gl    = 0.291E-02
 g(Force)  = 0.695E-02   g(Stress)= 0.104E-02 ortho     =-0.981E-03
 gamma     =   0.00000
 trial     =   0.68752
 opt step  =   1.33035  (harmonic =   1.33035) maximal distance =0.01538703
 next E    =   -47.541169   (d E  =  -0.00532)

[...]

 Conjugate gradient step on ions:
 trial-energy change:   -0.001285  1 .order   -0.001445   -0.001493   -0.001396
  (g-gl).g = 0.334E-02      g.g   = 0.342E-02  gl.gl    = 0.265E-02
 g(Force)  = 0.219E-02   g(Stress)= 0.123E-02 ortho     =-0.752E-04
 gamma     =   1.25961
 trial     =   0.44953
 opt step  =   1.79811  (harmonic =   6.94124) maximal distance =0.01820129
 next E    =   -47.555220   (d E  =  -0.01153)

[...]

 d Force = 0.1431713E-02[ 0.206E-03, 0.266E-02]  d Energy = 0.2095098E-02-0.663E-03
 d Force =-0.2262307E+02[-0.226E+02,-0.226E+02]  d Ewald  =-0.8238454E+02 0.598E+02

[...]

 d Force = 0.7966978E-03[ 0.471E-03, 0.112E-02]  d Energy = 0.1360448E-02-0.564E-03
 d Force = 0.1528354E+01[ 0.153E+01, 0.153E+01]  d Ewald  =-0.5856551E+01 0.738E+01

 Steepest descent step on ions:
 trial-energy change:   -0.001360  1 .order   -0.002095   -0.004666    0.000477
  (g-gl).g = 0.593E-02      g.g   = 0.649E-02  gl.gl    = 0.342E-02
 g(Force)  = 0.156E-02   g(Stress)= 0.493E-02 ortho     = 0.958E-03
 gamma     =   0.00000
 trial     =   0.71924
 opt step  =   0.53529  (harmonic =   0.65255) maximal distance =0.00289121
 next E    =   -47.548506   (d E  =  -0.00143)

[...]

 d Force =-0.1422046E-03[-0.164E-03,-0.120E-03]  d Energy =-0.3565719E-04-0.107E-03
 d Force =-0.3890661E+00[-0.389E+00,-0.389E+00]  d Ewald  = 0.1490811E+01-0.188E+01

[...]

 d Force = 0.5350519E-03[ 0.393E-03, 0.677E-03]  d Energy =-0.3620953E-06 0.535E-03
 d Force =-0.2888046E+01[-0.289E+01,-0.288E+01]  d Ewald  =-0.2790360E+02 0.250E+02

 Steepest descent step on ions:
 trial-energy change:    0.000000  1 .order   -0.000718   -0.002225    0.000788
  (g-gl).g = 0.513E-02      g.g   = 0.326E-02  gl.gl    = 0.649E-02
 g(Force)  = 0.993E-03   g(Stress)= 0.227E-02 ortho     =-0.187E-02
 gamma     =   0.00000
 trial     =   0.68245
 opt step  =   0.27032  (harmonic =   0.50387) maximal distance =0.00080370
 next E    =   -47.548793   (d E  =  -0.00040)

[...]

 eigenvalue-minimisations  :  1024
 total energy-change (2. order) :-0.9107908E-02  (-0.4887933E-02)
 number of electron      62.0000000 magnetization       0.0000000
 augmentation part        4.3449271 magnetization      -0.0000001

[...]

 Broyden mixing:
  rms(total) = 0.57845E-02    rms(broyden)= 0.57845E-02
  rms(prec ) = 0.66237E-02
  weight for this iteration     100.00

 eigenvalues of (default mixing * dielectric matrix)
  average eigenvalue GAMMA=   0.9628
  0.2628  0.9088  1.7170

[...]

--------------------------------------- Iteration     23(   5)  ---------------------------------------

[...]

 eigenvalue-minimisations  :   800
 total energy-change (2. order) : 0.3110217E-04  (-0.9457638E-05)
 number of electron      62.0000000 magnetization       0.0000000
 augmentation part        4.4864930 magnetization       0.0000046

 Free energy of the ion-electron system (eV)
  alpha Z        PSCENC =        40.36214456
  Ewald energy   TEWEN  =     10344.23024045
  -Hartree energ DENC   =    -13502.24566270
  -exchange      EXHF   =         0.00000000
  -V(xc)+E(xc)   XCENC  =        88.32168569
  PAW double counting   =      2112.15845409    -2162.43830344
  entropy T*S    EENTRO =         0.00000000
  eigenvalues    EBANDS =      -477.88770843
  atomic energy  EATOM  =      3509.95039935
  Solvation  Ediel_sol  =         0.00000000
  free energy    TOTEN  =       -47.54875042 eV

  energy without entropy =      -47.54875042  energy(sigma->0) =      -47.54875042

 average (electrostatic) potential at core
  the test charge radii are     1.0452  1.1631  0.9892  0.9698
  (the norm of the test charge is              1.0000)
       1 -48.9848       2 -48.9788       3 -39.4902       4 -92.5665       5 -94.1778
       6 -94.1778       7 -94.1777       8 -94.4039       9 -94.4038      10 -94.4038

 E-fermi :  -2.8162     XC(G=0):  -3.8343     alpha+bet : -3.1336

[...]

 spin component 2

[...]

 k-point     5 :      -0.4000    0.2000    0.0000
  band No.  band energies     occupation
      1     -16.5758      1.00000
      2     -16.3681      1.00000
      3     -15.8647      1.00000
      4     -15.6892      1.00000
      5     -15.5100      1.00000
      6     -15.3009      1.00000
      7     -11.1505      1.00000
      8      -9.5984      1.00000
      9      -8.2275      1.00000
     10      -7.6644      1.00000
     11      -7.6517      1.00000
     12      -7.1430      1.00000
     13      -6.8135      1.00000
     14      -6.6906      1.00000
     15      -6.4600      1.00000
     16      -6.0443      1.00000
     17      -5.9367      1.00000
     18      -5.8842      1.00000
     19      -5.6957      1.00000
     20      -5.4576      1.00000
     21      -5.3270      1.00000
     22      -4.5197      1.00000
     23      -4.4362      1.00000
     24      -4.2568      1.00000
     25      -4.1859      1.00000
     26      -3.5982      1.00000
     27      -3.5326      1.00000
     28      -3.4353      1.00000
     29      -3.3260      1.00000
     30      -3.2356      1.00000
     31      -3.1078      1.00000
     32      -1.8618      0.00000
     33      -1.7143      0.00000
     34      -1.5212      0.00000
     35      -1.1615      0.00000
     36      -0.7635      0.00000
     37       0.4653      0.00000
     38       1.1555      0.00000
     39       1.1904      0.00000
     40       2.0014      0.00000
     41       2.1054      0.00000
     42       2.3127      0.00000
     43       3.2042      0.00000
     44       3.2831      0.00000
     45       3.3367      0.00000
     46       3.4464      0.00000
     47       3.9450      0.00000
     48       4.1129      0.00000

[...]

 soft charge-density along one line, spin component           2
         0         1         2         3         4         5         6         7         8         9
 total charge-density along one line

------------------------ aborting loop because EDIFF is reached ----------------------------------------

[...]

  FORCE on cell =-STRESS in cart. coord.  units (eV):
  Direction    XX          YY          ZZ          XY          YZ          ZX
  Alpha Z    40.36214    40.36214    40.36214
  Ewald   12468.83616 12468.83390-14593.44220    -0.00235    -0.00056    -0.00101
  Hartree 13055.54554 13055.54649-12606.10720    -0.00049     0.00005     0.00008
  E(xc)    -250.34494  -250.34495  -249.94584     0.00003     0.00000     0.00001
  Local  -26421.51656-26421.51657 26268.50600     0.00236     0.00033     0.00061
  n-local   430.86776   431.19127   433.82668     0.10945     0.93377     0.85241
  augment   -11.97051   -11.97052   -16.25378     0.00015    -0.00006     0.00011
  Kinetic   690.83370   685.81441   723.44131    -3.22828     1.67015     1.79589
  Fock        0.00000     0.00000     0.00000     0.00000     0.00000     0.00000
  Total       0.26473     0.26473     0.38711     0.00000     0.00000     0.00000
  in kB       0.67980     0.67980     0.99406     0.00000     0.00000     0.00000

 VOLUME and BASIS-vectors are now :
  energy-cutoff  :      520.00
  volume of cell :      623.93
      direct lattice vectors                 reciprocal lattice vectors
     5.825872522 -0.000000230 -0.000000000     0.171648105 -0.099101083  0.000000000
     2.912936197  5.045353296  0.000000000     0.000000008  0.198202171 -0.000000000
    -0.000000000  0.000000000 21.226743114     0.000000000 -0.000000000  0.047110383

  length of vectors
     5.825872522  5.825872224 21.226743114     0.198202161  0.198202171  0.047110383

 FORCES acting on ions
    electron-ion (+dipol)            ewald-force                    non-local-force                 convergence-correction
   -.865E-04 -.582E-04 -.936E+01   0.778E-03 0.464E-03 0.950E+01   0.865E-19 -.280E-16 -.121E+00   -.331E-06 -.126E-06 -.149E-01
   0.868E-04 0.647E-04 -.953E+01   -.776E-03 -.463E-03 0.967E+01   0.906E-19 -.280E-16 -.127E+00   -.225E-07 0.893E-07 -.101E-01
   -.353E-04 -.117E-04 0.281E+03   -.203E-03 -.115E-03 -.276E+03   0.314E-16 -.321E-16 -.507E+01   -.760E-07 -.454E-07 -.264E-01
   0.207E-04 0.363E-04 -.281E+03   0.219E-03 0.123E-03 0.274E+03   0.646E-16 0.566E-16 0.670E+01   -.608E-07 -.310E-07 0.217E-01
   -.275E+02 -.249E-01 -.569E+03   0.237E+02 0.570E-01 0.574E+03   0.385E+01 0.219E-02 -.482E+01   0.112E-01 -.331E-01 0.522E-01
   0.137E+02 0.238E+02 -.569E+03   -.118E+02 -.205E+02 0.574E+03   -.193E+01 -.334E+01 -.482E+01   -.342E-01 0.686E-02 0.522E-01
   0.138E+02 -.238E+02 -.569E+03   -.119E+02 0.205E+02 0.574E+03   -.193E+01 0.334E+01 -.482E+01   0.230E-01 0.262E-01 0.522E-01
   0.388E+02 -.287E-02 0.575E+03   -.346E+02 0.370E-01 -.579E+03   -.419E+01 0.542E-02 0.493E+01   -.736E-02 -.367E-01 -.565E-01
   -.194E+02 -.336E+02 0.575E+03   0.173E+02 0.299E+02 -.579E+03   0.210E+01 0.363E+01 0.493E+01   -.281E-01 0.247E-01 -.565E-01
   -.194E+02 0.336E+02 0.575E+03   0.173E+02 -.300E+02 -.579E+03   0.209E+01 -.363E+01 0.493E+01   0.355E-01 0.120E-01 -.565E-01
   0.265E-04 0.254E-04 -.169E+01   -.249E-13 -.355E-14 0.341E-12   0.444E-15 0.133E-14 0.174E+01   -.581E-06 -.150E-06 -.427E-01

 POSITION                                       TOTAL-FORCE (eV/Angst)
      2.91293      1.68178     10.62424        -0.000000     -0.000000      0.005166
      5.82588      3.36357     10.62455        -0.000000     -0.000000      0.000928
     -0.00000      0.00000      9.51417         0.000000     -0.000000     -0.220075
     -0.00000      0.00000     11.79580        -0.000000     -0.000000      0.016809
      3.68433     -0.00014     12.07960         0.010684      0.002080      0.018137
      1.07066      1.85471     12.07960        -0.003541     -0.010293      0.018137
      3.98383      3.19079     12.07960        -0.007144      0.008213      0.018137
      2.28840     -0.00022      9.21635         0.046434      0.002038      0.047587
      1.76854      3.06365      9.21635        -0.021452     -0.041233      0.047587
      4.68186      1.98192      9.21635        -0.024982      0.039194      0.047587
    total drift:                                0.000026      0.000025      0.001181

  FREE ENERGIE OF THE ION-ELECTRON SYSTEM (eV)
  free  energy   TOTEN  =       -47.54875042 eV

  energy  without entropy=      -47.54875042  energy(sigma->0) =      -47.54875042

 d Force =-0.2888958E-03[-0.340E-03,-0.238E-03]  d Energy = 0.3532775E-03-0.642E-03
 d Force = 0.1747613E+01[ 0.175E+01, 0.175E+01]  d Ewald  = 0.1686624E+02-0.151E+02

 reached required accuracy - stopping structural energy minimisation

 total charge

[...]

 magnetization (x)

# of ion       s       p       d       tot
    1       -0.000  -0.000   0.000  -0.000
    2       -0.000  -0.000   0.000   0.000
    3       -0.000  -0.000   0.000  -0.000
    4        0.000   0.000   0.000   0.000
    5        0.000  -0.000   0.000   0.000
    6        0.000   0.000   0.000   0.000
    7        0.000   0.000   0.000   0.000
    8        0.000  -0.000   0.000   0.000
    9        0.000  -0.000   0.000   0.000
   10        0.000  -0.000   0.000   0.000
tot          0.000  -0.000   0.000   0.000

 BZINTS: Fermi energy: -2.816217; 62.000000 electrons
         Band energy:-477.887708;  BLOECHL correction:  0.000000