 vasp.5.4.4.18Apr17-6-g9f103f2a35 (build May  1 2020 15:48:39) complex
 executed on             LinuxGNU date 2020.06.17  12:39:13

 INCAR:
 POTCAR:   PAW_PBE Cr 06Sep2000
 POTCAR:   PAW_PBE Si 05Jan2001
 POTCAR:   PAW_PBE Ge 05Jan2001
 POTCAR:    PAW_PBE S 17Jan2003

 POTCAR:   PAW_PBE Cr 06Sep2000
   VRHFIN =Cr : d5 s1

   TITEL  = PAW_PBE Cr 06Sep2000
   POMASS =   51.996; ZVAL   =    6.000    mass and valenz
   ENMAX  =  227.082; ENMIN  =  170.311 eV
   QCUT   =   -4.085; QGAM   =    8.171    optimization parameters

   Description
     l     E      TYP  RCUT    TYP  RCUT
     2   .000     23  2.500
     2   .000     23  2.500
     0   .000     23  2.500
     0   .000     23  2.500
     1  -.400     23  2.500
     1  2.000     23  2.500
     3   .000      7   .000

 POTCAR:   PAW_PBE Si 05Jan2001
   VRHFIN =Si: s2p2

   TITEL  = PAW_PBE Si 05Jan2001
   POMASS =   28.085; ZVAL   =    4.000    mass and valenz
   ENMAX  =  245.345; ENMIN  =  184.009 eV
   QCUT   =   -4.246; QGAM   =    8.493    optimization parameters

[...]

 POTCAR:   PAW_PBE Ge 05Jan2001
   VRHFIN =Ge: s2p2

[...]

 POTCAR:    PAW_PBE S 17Jan2003
   VRHFIN =S : s2p4

   TITEL  = PAW_PBE S 17Jan2003
   POMASS =   32.066; ZVAL   =    6.000    mass and valenz
   ENMAX  =  280.000; ENMIN  =  194.016 eV
   QCUT   =   -4.360; QGAM   =    8.721    optimization parameters

   Description
     l     E      TYP  RCUT    TYP  RCUT
     0   .000     23  1.900
     0   .000     23  1.900
     1   .000     23  1.900
     1   .000     23  1.900
     2   .000     23  1.900

 Optimization of the real space projectors (new method)

 maximal supplied QI-value         = 15.12
 optimisation between [QCUT,QGAM] = [ 11.64, 23.28] = [ 37.95,151.78] Ry
 Optimized for a Real-space Cutoff    1.49 Angstroem

   l    n(q)    QCUT    max X(q) W(low)/X(q) W(high)/X(q)  e(spline)
   2      9    11.641     4.777    0.25E-04    0.21E-05    0.63E-07
   2      9    11.641    31.132    0.13E-03    0.22E-03    0.64E-06
   0     10    11.641    20.416    0.11E-04    0.74E-05    0.19E-07
   0     10    11.641    45.408    0.10E-03    0.85E-04    0.30E-06
   1     10    11.641     7.848    0.22E-04    0.23E-04    0.56E-07
   1     10    11.641     9.895    0.85E-04    0.54E-04    0.16E-06
 Optimization of the real space projectors (new method)

[...]

   l    n(q)    QCUT    max X(q) W(low)/X(q) W(high)/X(q)  e(spline)
   0      9    11.539     8.651    0.22E-04    0.16E-04    0.10E-07
   0      9    11.539    33.192    0.11E-03    0.16E-03    0.65E-07
   1      8    11.539     5.899    0.37E-04    0.28E-04    0.43E-07
   1      8    11.539    27.289    0.22E-03    0.28E-04    0.14E-06
   2      8    11.539     4.673    0.11E-03    0.18E-03    0.58E-07
 Optimization of the real space projectors (new method)

 maximal supplied QI-value         = 19.84
 optimisation between [QCUT,QGAM] = [ 11.51, 23.22] = [ 37.09,150.92] Ry
 Optimized for a Real-space Cutoff    1.21 Angstroem

   l    n(q)    QCUT    max X(q) W(low)/X(q) W(high)/X(q)  e(spline)
   0      8    11.508     5.487    0.18E-04    0.22E-05    0.47E-08
   0      8    11.508    85.627    0.96E-04    0.18E-03    0.54E-07
   1      8    11.508     3.530    0.17E-04    0.28E-04    0.21E-07
   1      8    11.508    42.714    0.18E-03    0.63E-04    0.92E-07

 PAW_PBE Cr 06Sep2000                   :
 PAW_PBE Si 05Jan2001                   :
 PAW_PBE Ge 05Jan2001                   :
  PAW_PBE S 17Jan2003                   :

 POSCAR: Cr2 Si Ge S6
  positions in direct lattice
  velocities in cartesian coordinates
 exchange correlation table for  LEXCH =       42
   RHO(1)=    0.500       N(1)  =     2000
   RHO(2)=  100.500       N(2)  =     4000

 ion  position               nearest neighbor table
   1  0.333  0.333  0.500-   6 2.78   5 2.78   7 2.78   8 2.78  10 2.78   9 2.78
   2  0.667  0.667  0.500-   9 2.78   8 2.78  10 2.78   5 2.78   7 2.78   6 2.78
   3  0.000  0.000  0.448-   4 2.43   8 2.63  10 2.63   9 2.63
   4  0.000  0.000  0.552-   3 2.43   5 2.63   7 2.63   6 2.63
   5  0.626  0.000  0.574-   4 2.63   1 2.78   2 2.78
   6  0.000  0.373  0.574-   4 2.63   1 2.78   2 2.78
   7  0.373  0.626  0.574-   4 2.63   1 2.78   2 2.78
   8  0.374  1.000  0.426-   3 2.63   2 2.78   1 2.78
   9  1.000  0.627  0.426-   3 2.63   2 2.78   1 2.78
  10  0.627  0.374  0.426-   3 2.63   2 2.78   1 2.78

  LATTYP: Found a hexagonal cell.
 ALAT       =     6.9077769333
 C/A-ratio  =     3.3939410937

  Lattice vectors:

 A1 = (   3.4538890000,  -5.9823100000,   0.0000000000)
 A2 = (  -6.9077770000,   0.0000000000,   0.0000000000)
 A3 = (   0.0000000000,   0.0000000000, -23.4445880000)

Analysis of symmetry for initial positions (statically):
 Subroutine PRICEL returns:
 Original cell was already a primitive cell.

 Routine SETGRP: Setting up the symmetry group for a
 hexagonal supercell.

 Subroutine GETGRP returns: Found  3 space group operations
 (whereof  3 operations were pure point group operations)
 out of a pool of 24 trial point group operations.

The static configuration has the point symmetry C_3 .

Analysis of symmetry for dynamics (positions and initial velocities):
 Subroutine PRICEL returns:
 Original cell was already a primitive cell.

[...]

The dynamic configuration has the point symmetry C_3 .

Analysis of constrained symmetry for selective dynamics:
 Subroutine PRICEL returns:
 Original cell was already a primitive cell.

[...]

The constrained configuration has the point symmetry C_3 .

Analysis of structural, dynamic, and magnetic symmetry:
 Subroutine PRICEL returns:
 Original cell was already a primitive cell.

 Routine SETGRP: Setting up the symmetry group for a
 hexagonal supercell.

 Subroutine GETGRP returns: Found  3 space group operations
 (whereof  3 operations were pure point group operations)
 out of a pool of 24 trial point group operations.

The magnetic configuration has the point symmetry C_3 .

 Subroutine INISYM returns: Found  3 space group operations
 (whereof  3 operations are pure point group operations),
 and found     1 'primitive' translations

 KPOINTS: Kpoints from vasprun.xml

Automatic generation of k-mesh.
Space group operators:
 irot       det(A)        alpha          n_x          n_y          n_z        tau_x        tau_y        tau_z
    1     1.000000     0.000000     1.000000     0.000000     0.000000     0.000000     0.000000     0.000000
    2     1.000000   120.000000     0.000000     0.000000     1.000000     0.000000     0.000000     0.000000
    3     1.000000   120.000000     0.000000     0.000000    -1.000000     0.000000     0.000000     0.000000

 Subroutine IBZKPT returns following result:

 Found      5 irreducible k-points:

 Following reciprocal coordinates:
            Coordinates               Weight
  0.000000  0.000000  0.000000      1.000000
  0.200000  0.000000  0.000000      6.000000
  0.400000  0.000000  0.000000      6.000000
  0.400000  0.200000  0.000000      6.000000
 -0.400000  0.200000  0.000000      6.000000

 Following cartesian coordinates:
            Coordinates               Weight
  0.000000  0.000000  0.000000      1.000000
  0.028953 -0.016716  0.000000      6.000000
  0.057906 -0.033432  0.000000      6.000000
  0.057906  0.000000  0.000000      6.000000
 -0.057906  0.066864  0.000000      6.000000

 TETIRR: Found     15 inequivalent tetrahedra from      150

 SYSTEM =  unknown system
 POSCAR =  Cr2 Si Ge S6

 Startparameter for this run:
   NWRITE =      2    write-flag & timer
   PREC   = accura    normal or accurate (medium, high low for compatibility)
   ISTART =      0    job   : 0-new  1-cont  2-samecut
   ICHARG =      2    charge: 1-file 2-atom 10-const
   ISPIN  =      2    spin polarized calculation?
   LNONCOLLINEAR =      F non collinear calculations
   LSORBIT =      F    spin-orbit coupling
   INIWAV =      1    electr: 0-lowe 1-rand  2-diag
   LASPH  =      F    aspherical Exc in radial PAW
   METAGGA=      F    non-selfconsistent MetaGGA calc.

 Electronic Relaxation 1
   ENCUT  =  520.0 eV  38.22 Ry    6.18 a.u.  12.84 12.84 43.59*2*pi/ulx,y,z
   ENINI  =  520.0     initial cutoff
   ENAUG  =  402.1 eV  augmentation charge cutoff
   NELM   =    400;   NELMIN=  2; NELMDL=  0     # of ELM steps
   EDIFF  = 0.1E-03   stopping-criterion for ELM
   LREAL  =      T    real-space projection
   NLSPLINE    = F    spline interpolate recip. space projectors
   LCOMPAT=      F    compatible to vasp.4.4
   GGA_COMPAT  = T    GGA compatible to vasp.4.4-vasp.4.6
   LMAXPAW     = -100 max onsite density
   LMAXMIX     =    2 max onsite mixed and CHGCAR
   VOSKOWN=      0    Vosko Wilk Nusair interpolation
   ROPT   =   -0.00025  -0.00025  -0.00025  -0.00025
 Ionic relaxation
   EDIFFG = 0.1E-02   stopping-criterion for IOM
   NSW    =     99    number of steps for IOM
   NBLOCK =      1;   KBLOCK =     99    inner block; outer block
   IBRION =      2    ionic relax: 0-MD 1-quasi-New 2-CG
   NFREE  =      1    steps in history (QN), initial steepest desc. (CG)
   ISIF   =      3    stress and relaxation
   IWAVPR =     11    prediction:  0-non 1-charg 2-wave 3-comb
   ISYM   =      2    0-nonsym 1-usesym 2-fastsym
   LCORR  =      T    Harris-Foulkes like correction to forces

   POTIM  = 0.5000    time-step for ionic-motion
   TEIN   =    0.0    initial temperature
   TEBEG  =    0.0;   TEEND  =   0.0 temperature during run
   SMASS  =  -3.00    Nose mass-parameter (am)
   estimated Nose-frequenzy (Omega)   =  0.10E-29 period in steps =****** mass=  -0.109E-26a.u.
   SCALEE = 1.0000    scale energy and forces
   NPACO  =    256;   APACO  = 16.0  distance and # of slots for P.C.
   PSTRESS=    0.0 pullay stress

  Mass of Ions in am
   POMASS =  52.00 28.09 72.61 32.07
  Ionic Valenz
   ZVAL   =   6.00  4.00  4.00  6.00
  Atomic Wigner-Seitz radii
  virtual crystal weights
   VCA    =   1.00  1.00  1.00  1.00
   NELECT =      56.0000    total number of electrons
   NUPDOWN=      -1.0000    fix difference up-down

 DOS related values:
   EMIN   =  10.00;   EMAX   =-10.00  energy-range for DOS
   EFERMI =   0.00
   ISMEAR =    -5;   SIGMA  =   0.05  broadening in eV -4-tet -1-fermi 0-gaus

 Electronic relaxation 2 (details)
   IALGO  =     38    algorithm
   LDIAG  =      T    sub-space diagonalisation (order eigenvalues)
   LSUBROT=      F    optimize rotation matrix (better conditioning)
   TURBO    =      0    0=normal 1=particle mesh
   IRESTART =      0    0=no restart 2=restart with 2 vectors
   NREBOOT  =      0    no. of reboots
   NMIN     =      0    reboot dimension
   EREF     =   0.00    reference energy to select bands
   IMIX   =      4    mixing-type and parameters
     AMIX     =   0.40;   BMIX     =  1.00
     AMIX_MAG =   1.60;   BMIX_MAG =  1.00
     AMIN     =   0.01
     WC   =   100.;   INIMIX=   1;  MIXPRE=   1;  MAXMIX= -45

 Intra band minimization:
   WEIMIN = 0.0010     energy-eigenvalue tresh-hold
   EBREAK =  0.52E-06  absolut break condition
   DEPER  =   0.30     relativ break condition

   TIME   =   0.40     timestep for ELM

  volume/ion in A,a.u.               =      96.88       653.80
  Fermi-wavevector in a.u.,A,eV,Ry     =   0.632976  1.196152  5.451299  0.400659
[...]

[...]

------------------------ aborting loop because EDIFF is reached ----------------------------------------

 total charge

# of ion       s       p       d       tot
    1        0.249   0.249   4.027   4.525
    2        0.248   0.249   4.024   4.521
    3        0.816   0.615   0.000   1.431
    4        1.187   0.879   0.058   2.124
    5        1.377   2.201   0.000   3.578
    6        1.374   2.202   0.000   3.576
    7        1.376   2.200   0.000   3.576
    8        1.376   2.196   0.000   3.572
    9        1.374   2.199   0.000   3.572
   10        1.375   2.196   0.000   3.571
tot         10.752  15.185   8.109  34.046

 magnetization (x)

[...]

  FORCE on cell =-STRESS in cart. coord.  units (eV):
  Direction    XX          YY          ZZ          XY          YZ          ZX
  Alpha Z    19.93250    19.93250    19.93250
  Ewald    7419.63051  7419.62857 -8853.36149    -0.00107    -0.00038    -0.00069
  Hartree  7870.38518  7870.38552 -7615.82524    -0.00009     0.00004     0.00006
  E(xc)    -203.41087  -203.41090  -202.94208     0.00003     0.00000     0.00001
  Local  -16144.76903-16144.76836 15588.01304     0.00092     0.00023     0.00043
  n-local   458.45687   460.05792   468.55642     0.74508     0.38844     0.40496
  augment   -48.49437   -48.49425   -51.54533    -0.00005    -0.00002     0.00004
  Kinetic   598.93780   598.21214   631.26487    -0.83232     0.77107     0.86077
  Fock        0.00000     0.00000     0.00000     0.00000     0.00000     0.00000
  Total     -28.89414   -28.89413   -15.90730     0.00000    -0.00000    -0.00000
  in kB     -47.78268   -47.78267   -26.30615     0.00000    -0.00000    -0.00000

 VOLUME and BASIS-vectors are now :
  energy-cutoff  :      520.00
  volume of cell :      968.84
      direct lattice vectors                 reciprocal lattice vectors
     6.907777000 -0.000000000  0.000000000     0.144764372 -0.083579742  0.000000000
     3.453888000  5.982310000  0.000000000     0.000000000  0.167159509 -0.000000000
     0.000000000  0.000000000 23.444588000    -0.000000000  0.000000000  0.042653767

[...]

 FORCES acting on ions
    electron-ion (+dipol)            ewald-force                    non-local-force                 convergence-correction
   -.687E-04 -.475E-04 0.753E+00   0.306E-03 0.183E-03 -.640E+00   0.173E-17 -.347E-17 -.586E-01   0.669E-05 0.387E-05 0.544E-02
   0.630E-04 0.398E-04 -.557E+00   -.306E-03 -.183E-03 0.640E+00   -.173E-17 0.347E-17 -.455E-01   -.688E-05 -.397E-05 0.459E-02
   -.261E-04 -.172E-04 0.163E+03   -.141E-03 -.779E-04 -.158E+03   0.694E-17 -.694E-17 -.631E+01   -.206E-05 -.114E-05 0.137E-01
   0.190E-04 0.167E-04 -.161E+03   0.141E-03 0.779E-04 0.158E+03   0.173E-17 0.347E-17 0.316E+01   0.205E-05 0.108E-05 -.105E-01
   -.751E+01 0.185E+00 -.338E+03   0.444E+01 -.152E+00 0.342E+03   0.400E+01 -.120E-01 -.573E+01   -.227E-02 -.267E-01 -.246E-01
   0.391E+01 0.640E+01 -.338E+03   -.235E+01 -.377E+01 0.342E+03   -.201E+01 -.346E+01 -.573E+01   -.220E-01 0.153E-01 -.246E-01
   0.359E+01 -.659E+01 -.338E+03   -.209E+01 0.392E+01 0.342E+03   -.199E+01 0.347E+01 -.573E+01   0.243E-01 0.114E-01 -.246E-01
   0.762E+01 -.134E+00 0.338E+03   -.444E+01 0.152E+00 -.342E+03   -.460E+01 0.156E-01 0.575E+01   0.195E-02 -.269E-01 0.267E-01
   -.392E+01 -.653E+01 0.338E+03   0.235E+01 0.377E+01 -.342E+03   0.231E+01 0.398E+01 0.575E+01   -.242E-01 0.117E-01 0.267E-01
   -.369E+01 0.666E+01 0.338E+03   0.209E+01 -.392E+01 -.342E+03   0.229E+01 -.399E+01 0.575E+01   0.223E-01 0.151E-01 0.267E-01
   -.193E-04 -.874E-05 0.317E+01   0.155E-13 0.799E-14 -.171E-12   0.444E-15 0.000E+00 -.320E+01   -.348E-06 -.271E-06 0.194E-01

 POSITION                                       TOTAL-FORCE (eV/Angst)
      3.45388      1.99410     11.72054         0.000000      0.000000      0.060089
      6.90778      3.98821     11.72405         0.000000      0.000000      0.042144
      0.00000      0.00000     10.50824         0.000000      0.000000     -0.662782
      0.00000      0.00000     12.93635         0.000000      0.000000      0.371245
      4.32819      0.00251     13.45138         0.927494     -0.004240     -1.605925
      1.29198      2.23274     13.45138        -0.467419     -0.801113     -1.605925
      4.74152      3.74706     13.45138        -0.460075      0.805353     -1.605925
      6.03348      5.97980      9.99321        -1.422296      0.005645      1.669026
      9.06969      3.74957      9.99321         0.716037      1.228922      1.669026
      5.62015      2.23525      9.99321         0.706259     -1.234567      1.669026
    total drift:                               -0.000020     -0.000009     -0.002956

  FREE ENERGIE OF THE ION-ELECTRON SYSTEM (eV)
  free  energy   TOTEN  =       -48.47389620 eV

  energy  without entropy=      -48.47389620  energy(sigma->0) =      -48.47389620

[...]

 d Force = 0.5060244E+00[-0.835E-01, 0.110E+01]  d Energy = 0.6415537E+01-0.591E+01
 d Force =-0.1710283E+03[-0.198E+03,-0.144E+03]  d Ewald  =-0.1914801E+04 0.174E+04

 Steepest descent step on ions:
 trial-energy change:   -6.415537  1 .order   -4.681645  -10.490911    1.127622
  (g-gl).g = 0.105E+02      g.g   = 0.105E+02  gl.gl    = 0.000E+00
 g(Force)  = 0.121E+01   g(Stress)= 0.928E+01 ortho     = 0.000E+00
 gamma     =   0.00000
 trial     =   1.00000
 opt step  =   0.94749  (harmonic =   0.90295) maximal distance =0.07629047
 next E    =   -54.918787   (d E  =  -6.44489)

[...]

 d Force = 0.9115843E-03[-0.289E-02, 0.471E-02]  d Energy = 0.3219838E-01-0.313E-01
 d Force = 0.1121768E+02[ 0.111E+02, 0.113E+02]  d Ewald  = 0.1234870E+03-0.112E+03

[...]

 d Force = 0.7820437E-01[ 0.494E-01, 0.107E+00]  d Energy = 0.7859443E-01-0.390E-03
 d Force = 0.6734531E+01[ 0.650E+01, 0.697E+01]  d Ewald  =-0.3508850E+02 0.418E+02

 Conjugate gradient step on ions:
 trial-energy change:   -0.078594  1 .order   -0.078190   -0.107956   -0.048423
  (g-gl).g = 0.812E-01      g.g   = 0.109E+00  gl.gl    = 0.105E+02
 g(Force)  = 0.108E+00   g(Stress)= 0.109E-02 ortho     = 0.277E-01
 gamma     =   0.00774
 trial     =   0.98950
 opt step  =   1.74046  (harmonic =   1.79434) maximal distance =0.04922764
 next E    =   -55.018778   (d E  =  -0.09715)

[...]

 d Force = 0.2002159E-01[ 0.250E-02, 0.375E-01]  d Energy = 0.1882992E-01 0.119E-02
 d Force = 0.4789356E+01[ 0.465E+01, 0.493E+01]  d Ewald  =-0.2705141E+02 0.318E+02

[...]

 Conjugate gradient step on ions:
 trial-energy change:   -0.009754  1 .order   -0.009692   -0.029171    0.009786
  (g-gl).g = 0.232E-01      g.g   = 0.255E-01  gl.gl    = 0.109E+00
 g(Force)  = 0.162E-01   g(Stress)= 0.931E-02 ortho     = 0.249E-03
 gamma     =   0.21266
 trial     =   1.13969
 opt step  =   0.85340  (harmonic =   0.85340) maximal distance =0.01778043
 next E    =   -55.029978   (d E  =  -0.01092)

[...]

 d Force =-0.9532501E-04[-0.790E-03, 0.599E-03]  d Energy = 0.1489077E-02-0.158E-02
 d Force =-0.2689702E+00[-0.267E+00,-0.271E+00]  d Ewald  =-0.2882642E+02 0.286E+02

[...]

 d Force = 0.5227993E-04[-0.243E-02, 0.254E-02]  d Energy =-0.9343355E-03 0.987E-03
 d Force =-0.3011683E+01[-0.300E+01,-0.302E+01]  d Ewald  =-0.6850774E+01 0.384E+01

 Conjugate gradient step on ions:
 trial-energy change:    0.000934  1 .order   -0.000791   -0.006138    0.004556
  (g-gl).g = 0.913E-02      g.g   = 0.640E-02  gl.gl    = 0.255E-01
 g(Force)  = 0.137E-02   g(Stress)= 0.504E-02 ortho     =-0.205E-02
 gamma     =   0.35731
 trial     =   1.08243
 opt step  =   0.38201  (harmonic =   0.62125) maximal distance =0.00422554
 next E    =   -55.031307   (d E  =  -0.00101)

[...]

 eigenvalue-minimisations  :  1216
 total energy-change (2. order) :-0.4028149E-02  (-0.1815646E-01)
 number of electron      55.9999997 magnetization       5.9999959
 augmentation part       -0.6252720 magnetization       4.0848952

[...]

 Broyden mixing:
  rms(total) = 0.30828E-02    rms(broyden)= 0.30828E-02
  rms(prec ) = 0.34469E-02
  weight for this iteration     100.00

 eigenvalues of (default mixing * dielectric matrix)
  average eigenvalue GAMMA=   0.9878
  1.6781  0.8328  0.4526

[...]

--------------------------------------- Iteration      9(   5)  ---------------------------------------

[...]

 eigenvalue-minimisations  :   912
 total energy-change (2. order) : 0.5684532E-05  (-0.1241325E-04)
 number of electron      55.9999997 magnetization       5.9999972
 augmentation part       -0.6387263 magnetization       4.0781715

 Free energy of the ion-electron system (eV)
  alpha Z        PSCENC =        28.48489269
  Ewald energy   TEWEN  =      7755.18199703
  -Hartree energ DENC   =     -9930.91048763
  -exchange      EXHF   =         0.00000000
  -V(xc)+E(xc)   XCENC  =        19.77074313
  PAW double counting   =      1239.43363708    -1144.84225118
  entropy T*S    EENTRO =         0.00000000
  eigenvalues    EBANDS =      -454.73897742
  atomic energy  EATOM  =      2432.58897501
  Solvation  Ediel_sol  =         0.00000000
  free energy    TOTEN  =       -55.03147128 eV

  energy without entropy =      -55.03147128  energy(sigma->0) =      -55.03147128

 average (electrostatic) potential at core
  the test charge radii are     1.1394  0.9892  1.1631  0.9698
  (the norm of the test charge is              1.0000)
       1 -51.5141       2 -51.5119       3 -92.8493       4 -39.7181       5 -94.1881
       6 -94.1881       7 -94.1881       8 -94.1098       9 -94.1097      10 -94.1097

 E-fermi :  -3.0989     XC(G=0):  -3.5471     alpha+bet : -3.0299

[...]

 spin component 2

[...]

 k-point     5 :      -0.4000    0.2000    0.0000
  band No.  band energies     occupation
      1     -16.5656      1.00000
      2     -16.0063      1.00000
      3     -15.8367      1.00000
      4     -15.6515      1.00000
      5     -15.4689      1.00000
      6     -15.3240      1.00000
      7     -11.1328      1.00000
      8      -9.5632      1.00000
      9      -7.8719      1.00000
     10      -7.4471      1.00000
     11      -7.3676      1.00000
     12      -6.8743      1.00000
     13      -6.8288      1.00000
     14      -6.3078      1.00000
     15      -5.9392      1.00000
     16      -5.7954      1.00000
     17      -5.7072      1.00000
     18      -5.4985      1.00000
     19      -5.4765      1.00000
     20      -5.2276      1.00000
     21      -5.0620      1.00000
     22      -4.5868      1.00000
     23      -4.4330      1.00000
     24      -4.2904      1.00000
     25      -3.6645      1.00000
     26      -2.3199      0.00000
     27      -1.5932      0.00000
     28      -1.5813      0.00000
     29      -0.8979      0.00000
     30      -0.8849      0.00000
     31      -0.7264      0.00000
     32      -0.6647      0.00000
     33      -0.3957      0.00000
     34      -0.3257      0.00000
     35       0.0253      0.00000
     36       0.0358      0.00000
     37       1.0522      0.00000
     38       1.1869      0.00000
     39       1.3536      0.00000
     40       2.2433      0.00000
     41       2.3704      0.00000
     42       2.4202      0.00000
     43       3.1028      0.00000
     44       3.2421      0.00000
     45       3.4473      0.00000
     46       3.4717      0.00000
     47       3.7870      0.00000
     48       4.1079      0.00000

[...]

 soft charge-density along one line, spin component           2
         0         1         2         3         4         5         6         7         8         9
 total charge-density along one line

------------------------ aborting loop because EDIFF is reached ----------------------------------------

[...]

  FORCE on cell =-STRESS in cart. coord.  units (eV):
  Direction    XX          YY          ZZ          XY          YZ          ZX
  Alpha Z    28.48489    28.48489    28.48489
  Ewald    9406.64992  9406.64750-11058.11733    -0.00116    -0.00043    -0.00077
  Hartree  9748.25537  9748.25568 -9564.91329    -0.00007     0.00003     0.00005
  E(xc)    -211.22036  -211.22036  -210.79857     0.00001     0.00000     0.00001
  Local  -20032.69254-20032.69180 19712.64874     0.00081     0.00021     0.00039
  n-local   476.69217   478.42525   479.64388     0.79771     0.56761     0.49939
  augment   -48.19707   -48.19703   -51.41999     0.00003     0.00001     0.00003
  Kinetic   633.47176   628.64025   664.63729    -3.41306     1.06828     1.00288
  Fock        0.00000     0.00000     0.00000     0.00000     0.00000     0.00000
  Total      -0.10573    -0.10573     0.16563     0.00000    -0.00000    -0.00000
  in kB      -0.24987    -0.24987     0.39143     0.00000    -0.00000    -0.00000

 VOLUME and BASIS-vectors are now :
  energy-cutoff  :      520.00
  volume of cell :      677.95
      direct lattice vectors                 reciprocal lattice vectors
     5.999889242  0.000000045  0.000000000     0.166669744 -0.096226814  0.000000000
     2.999944280  5.196056305  0.000000000    -0.000000001  0.192453651 -0.000000000
     0.000000000  0.000000000 21.746022975    -0.000000000 -0.000000000  0.045985420

  length of vectors
     5.999889242  5.999888900 21.746022975     0.192453640  0.192453651  0.045985420

 FORCES acting on ions
    electron-ion (+dipol)            ewald-force                    non-local-force                 convergence-correction
   -.160E-03 -.954E-04 0.838E+01   0.390E-03 0.229E-03 -.796E+01   -.699E-17 -.722E-17 -.331E+00   -.161E-06 -.893E-07 0.190E-02
   0.153E-03 0.977E-04 0.737E+01   -.408E-03 -.240E-03 -.694E+01   0.341E-17 -.292E-18 -.350E+00   -.554E-07 -.265E-07 0.138E-02
   -.292E-04 -.244E-04 0.219E+03   -.214E-03 -.119E-03 -.212E+03   -.814E-17 -.270E-16 -.734E+01   0.166E-06 0.102E-06 -.900E-02
   0.242E-04 0.251E-04 -.222E+03   0.197E-03 0.110E-03 0.216E+03   0.437E-17 0.185E-16 0.548E+01   0.149E-06 0.898E-07 0.178E-01
   -.895E+01 0.850E-02 -.456E+03   0.493E+01 0.313E-02 0.460E+03   0.404E+01 -.768E-02 -.360E+01   0.795E-02 -.710E-02 0.382E-01
   0.448E+01 0.774E+01 -.456E+03   -.246E+01 -.427E+01 0.460E+03   -.202E+01 -.349E+01 -.360E+01   -.101E-01 -.334E-02 0.382E-01
   0.446E+01 -.776E+01 -.456E+03   -.247E+01 0.426E+01 0.460E+03   -.201E+01 0.350E+01 -.360E+01   0.217E-02 0.104E-01 0.382E-01
   -.525E+01 0.237E-01 0.453E+03   0.844E+01 -.228E-01 -.456E+03   -.320E+01 0.870E-02 0.334E+01   -.273E-02 -.686E-02 -.252E-01
   0.265E+01 0.454E+01 0.453E+03   -.424E+01 -.729E+01 -.456E+03   0.161E+01 0.277E+01 0.334E+01   -.457E-02 0.579E-02 -.252E-01
   0.261E+01 -.456E+01 0.453E+03   -.420E+01 0.732E+01 -.456E+03   0.159E+01 -.278E+01 0.334E+01   0.730E-02 0.106E-02 -.252E-01
   -.680E-04 -.220E-04 0.329E+01   0.000E+00 -.266E-14 -.227E-12   -.111E-14 -.444E-15 -.332E+01   0.886E-07 -.884E-07 0.509E-01

 POSITION                                       TOTAL-FORCE (eV/Angst)
      2.99994      1.73202     10.87138        -0.000000      0.000000      0.093875
      5.99989      3.46404     10.87464        -0.000000      0.000000      0.079446
      0.00000      0.00000      9.72025        -0.000000     -0.000000     -0.020375
      0.00000      0.00000     11.99911        -0.000000      0.000000      0.081649
      3.74097      0.00088     12.41393         0.020358     -0.002262     -0.045472
      1.13022      1.95585     12.41393        -0.012138     -0.016499     -0.045472
      4.12865      3.23934     12.41393        -0.008220      0.018762     -0.045472
      5.11999      5.19518      9.33515        -0.025648      0.001873     -0.032726
      7.93905      3.36048      9.33515         0.014446      0.021276     -0.032726
      4.94062      1.83645      9.33515         0.011202     -0.023149     -0.032726
    total drift:                               -0.000068     -0.000022      0.014468

  FREE ENERGIE OF THE ION-ELECTRON SYSTEM (eV)
  free  energy   TOTEN  =       -55.03147128 eV

  energy  without entropy=      -55.03147128  energy(sigma->0) =      -55.03147128

 d Force = 0.5545408E-03[-0.473E-03, 0.158E-02]  d Energy = 0.2106209E-02-0.155E-02
 d Force = 0.1955919E+01[ 0.196E+01, 0.195E+01]  d Ewald  = 0.4433093E+01-0.248E+01

 reached required accuracy - stopping structural energy minimisation

 total charge

[...]

 magnetization (x)

# of ion       s       p       d       tot
    1        0.033   0.039   2.889   2.960
    2        0.033   0.039   2.888   2.959
    3        0.004   0.029   0.000   0.033
    4        0.001   0.045  -0.002   0.045
    5       -0.001  -0.072   0.000  -0.073
    6       -0.002  -0.057   0.000  -0.060
    7       -0.001  -0.068   0.000  -0.069
    8       -0.000  -0.046   0.000  -0.046
    9       -0.001  -0.038   0.000  -0.039
   10       -0.000  -0.043   0.000  -0.043
tot          0.064  -0.172   5.775   5.667

 BZINTS: Fermi energy: -3.098944; 56.000000 electrons
         Band energy:-454.738977;  BLOECHL correction:  0.000000