 vasp.5.4.4.18Apr17-6-g9f103f2a35 (build May  1 2020 15:48:39) complex
 executed on             LinuxGNU date 2020.07.01  05:15:11

 INCAR:
 POTCAR:   PAW_PBE Cr 06Sep2000
 POTCAR:   PAW_PBE Si 05Jan2001
 POTCAR:   PAW_PBE Te 08Apr2002

 POTCAR:   PAW_PBE Cr 06Sep2000
   VRHFIN =Cr : d5 s1

   TITEL  = PAW_PBE Cr 06Sep2000
   POMASS =   51.996; ZVAL   =    6.000    mass and valenz
   ENMAX  =  227.082; ENMIN  =  170.311 eV
   QCUT   =   -4.085; QGAM   =    8.171    optimization parameters

   Description
     l     E      TYP  RCUT    TYP  RCUT
     2   .000     23  2.500
     2   .000     23  2.500
     0   .000     23  2.500
     0   .000     23  2.500
     1  -.400     23  2.500
     1  2.000     23  2.500
     3   .000      7   .000

 POTCAR:   PAW_PBE Si 05Jan2001
   VRHFIN =Si: s2p2

   TITEL  = PAW_PBE Si 05Jan2001
   POMASS =   28.085; ZVAL   =    4.000    mass and valenz
   ENMAX  =  245.345; ENMIN  =  184.009 eV
   QCUT   =   -4.246; QGAM   =    8.493    optimization parameters

[...]

 POTCAR:   PAW_PBE Te 08Apr2002
   VRHFIN =Te: s2p4

   TITEL  = PAW_PBE Te 08Apr2002
   POMASS =  127.600; ZVAL   =    6.000    mass and valenz
   ENMAX  =  174.982; ENMIN  =  131.236 eV
   QCUT   =   -3.586; QGAM   =    7.172    optimization parameters

   Description
     l     E      TYP  RCUT    TYP  RCUT
     0   .000     23  2.300
     0   .000     23  2.300
     1   .000     23  2.300
     1   .000     23  2.300
     2   .000     23  2.300
     3  -.100     23  2.300

 Optimization of the real space projectors (new method)

 maximal supplied QI-value         = 15.12
 optimisation between [QCUT,QGAM] = [ 11.64, 23.28] = [ 37.95,151.78] Ry
 Optimized for a Real-space Cutoff    1.49 Angstroem

   l    n(q)    QCUT    max X(q) W(low)/X(q) W(high)/X(q)  e(spline)
   2      9    11.641     4.777    0.25E-04    0.21E-05    0.63E-07
   2      9    11.641    31.132    0.13E-03    0.22E-03    0.64E-06
   0     10    11.641    20.416    0.11E-04    0.74E-05    0.19E-07
   0     10    11.641    45.408    0.10E-03    0.85E-04    0.30E-06
   1     10    11.641     7.848    0.22E-04    0.23E-04    0.56E-07
   1     10    11.641     9.895    0.85E-04    0.54E-04    0.16E-06
 Optimization of the real space projectors (new method)

[...]

   l    n(q)    QCUT    max X(q) W(low)/X(q) W(high)/X(q)  e(spline)
   0      8    11.508     8.708    0.18E-04    0.44E-05    0.47E-08
   0      8    11.508   106.241    0.70E-04    0.15E-03    0.51E-07
   1      8    11.508     5.901    0.63E-05    0.23E-04    0.21E-07
   1      8    11.508    73.241    0.15E-03    0.36E-04    0.79E-07
 Optimization of the real space projectors (new method)

 maximal supplied QI-value         = 16.25
 optimisation between [QCUT,QGAM] = [ 11.54, 23.24] = [ 37.28,151.24] Ry
 Optimized for a Real-space Cutoff    1.36 Angstroem

   l    n(q)    QCUT    max X(q) W(low)/X(q) W(high)/X(q)  e(spline)
   0      9    11.539     7.090    0.13E-04    0.25E-05    0.51E-08
   0      9    11.539   101.654    0.53E-04    0.69E-04    0.12E-06
   1      9    11.539     5.276    0.20E-04    0.98E-05    0.24E-07
   1      9    11.539    81.891    0.24E-03    0.13E-04    0.15E-06
   2      9    11.539     5.599    0.30E-04    0.97E-04    0.54E-07

 PAW_PBE Cr 06Sep2000                   :
 PAW_PBE Si 05Jan2001                   :
 PAW_PBE Te 08Apr2002                   :

 POSCAR: Cr2 Si2 Te6
  positions in direct lattice
  velocities in cartesian coordinates
 exchange correlation table for  LEXCH =       42
   RHO(1)=    0.500       N(1)  =     2000
   RHO(2)=  100.500       N(2)  =     4000

 ion  position               nearest neighbor table
   1  0.333  0.333  0.500-   6 2.78   5 2.78   7 2.78   8 2.78  10 2.78   9 2.78
   2  0.667  0.667  0.500-   9 2.78   8 2.78  10 2.78   5 2.78   7 2.78   6 2.78
   3  0.000  0.000  0.448-   4 2.43   8 2.63  10 2.63   9 2.63
   4  0.000  0.000  0.552-   3 2.43   5 2.63   7 2.63   6 2.63
   5  0.626  0.000  0.574-   4 2.63   1 2.78   2 2.78
   6  0.000  0.373  0.574-   4 2.63   1 2.78   2 2.78
   7  0.373  0.626  0.574-   4 2.63   1 2.78   2 2.78
   8  0.374  1.000  0.426-   3 2.63   2 2.78   1 2.78
   9  1.000  0.627  0.426-   3 2.63   2 2.78   1 2.78
  10  0.627  0.374  0.426-   3 2.63   2 2.78   1 2.78

  LATTYP: Found a hexagonal cell.
 ALAT       =     6.9077769333
 C/A-ratio  =     3.3939410937

  Lattice vectors:

 A1 = (   3.4538890000,  -5.9823100000,   0.0000000000)
 A2 = (  -6.9077770000,   0.0000000000,   0.0000000000)
 A3 = (   0.0000000000,   0.0000000000, -23.4445880000)

Analysis of symmetry for initial positions (statically):
 Subroutine PRICEL returns:
 Original cell was already a primitive cell.

 Routine SETGRP: Setting up the symmetry group for a
 hexagonal supercell.

 Subroutine GETGRP returns: Found  6 space group operations
 (whereof  6 operations were pure point group operations)
 out of a pool of 24 trial point group operations.

The static configuration has the point symmetry S_6 .

Analysis of symmetry for dynamics (positions and initial velocities):
 Subroutine PRICEL returns:
 Original cell was already a primitive cell.

[...]

The dynamic configuration has the point symmetry S_6 .

Analysis of constrained symmetry for selective dynamics:
 Subroutine PRICEL returns:
 Original cell was already a primitive cell.

[...]

The constrained configuration has the point symmetry S_6 .

Analysis of structural, dynamic, and magnetic symmetry:
 Subroutine PRICEL returns:
 Original cell was already a primitive cell.

 Routine SETGRP: Setting up the symmetry group for a
 hexagonal supercell.

 Subroutine GETGRP returns: Found  6 space group operations
 (whereof  6 operations were pure point group operations)
 out of a pool of 24 trial point group operations.

The magnetic configuration has the point symmetry S_6 .

 Subroutine INISYM returns: Found  6 space group operations
 (whereof  6 operations are pure point group operations),
 and found     1 'primitive' translations

 KPOINTS: Kpoints from vasprun.xml

Automatic generation of k-mesh.
Space group operators:
 irot       det(A)        alpha          n_x          n_y          n_z        tau_x        tau_y        tau_z
    1     1.000000     0.000000     1.000000     0.000000     0.000000     0.000000     0.000000     0.000000
    2    -1.000000     0.000000     1.000000     0.000000     0.000000     0.000000     0.000000     0.000000
    3     1.000000   120.000000     0.000000     0.000000     1.000000     0.000000     0.000000     0.000000
    4    -1.000000   120.000000     0.000000     0.000000     1.000000     0.000000     0.000000     0.000000
    5     1.000000   120.000000     0.000000     0.000000    -1.000000     0.000000     0.000000     0.000000
    6    -1.000000   120.000000     0.000000     0.000000    -1.000000     0.000000     0.000000     0.000000

 Subroutine IBZKPT returns following result:

 Found      5 irreducible k-points:

 Following reciprocal coordinates:
            Coordinates               Weight
  0.000000  0.000000  0.000000      1.000000
  0.200000  0.000000  0.000000      6.000000
  0.400000  0.000000  0.000000      6.000000
  0.400000  0.200000  0.000000      6.000000
 -0.400000  0.200000  0.000000      6.000000

 Following cartesian coordinates:
            Coordinates               Weight
  0.000000  0.000000  0.000000      1.000000
  0.028953 -0.016716  0.000000      6.000000
  0.057906 -0.033432  0.000000      6.000000
  0.057906  0.000000  0.000000      6.000000
 -0.057906  0.066864  0.000000      6.000000

 TETIRR: Found     15 inequivalent tetrahedra from      150

 SYSTEM =  unknown system
 POSCAR =  Cr2 Si2 Te6

 Startparameter for this run:
   NWRITE =      2    write-flag & timer
   PREC   = accura    normal or accurate (medium, high low for compatibility)
   ISTART =      0    job   : 0-new  1-cont  2-samecut
   ICHARG =      2    charge: 1-file 2-atom 10-const
   ISPIN  =      2    spin polarized calculation?
   LNONCOLLINEAR =      F non collinear calculations
   LSORBIT =      F    spin-orbit coupling
   INIWAV =      1    electr: 0-lowe 1-rand  2-diag
   LASPH  =      F    aspherical Exc in radial PAW
   METAGGA=      F    non-selfconsistent MetaGGA calc.

 Electronic Relaxation 1
   ENCUT  =  520.0 eV  38.22 Ry    6.18 a.u.  12.84 12.84 43.59*2*pi/ulx,y,z
   ENINI  =  520.0     initial cutoff
   ENAUG  =  402.1 eV  augmentation charge cutoff
   NELM   =    400;   NELMIN=  2; NELMDL=  0     # of ELM steps
   EDIFF  = 0.1E-03   stopping-criterion for ELM
   LREAL  =      T    real-space projection
   NLSPLINE    = F    spline interpolate recip. space projectors
   LCOMPAT=      F    compatible to vasp.4.4
   GGA_COMPAT  = T    GGA compatible to vasp.4.4-vasp.4.6
   LMAXPAW     = -100 max onsite density
   LMAXMIX     =    2 max onsite mixed and CHGCAR
   VOSKOWN=      0    Vosko Wilk Nusair interpolation
   ROPT   =   -0.00025  -0.00025  -0.00025
 Ionic relaxation
   EDIFFG = 0.1E-02   stopping-criterion for IOM
   NSW    =     99    number of steps for IOM
   NBLOCK =      1;   KBLOCK =     99    inner block; outer block
   IBRION =      2    ionic relax: 0-MD 1-quasi-New 2-CG
   NFREE  =      1    steps in history (QN), initial steepest desc. (CG)
   ISIF   =      3    stress and relaxation
   IWAVPR =     11    prediction:  0-non 1-charg 2-wave 3-comb
   ISYM   =      2    0-nonsym 1-usesym 2-fastsym
   LCORR  =      T    Harris-Foulkes like correction to forces

   POTIM  = 0.5000    time-step for ionic-motion
   TEIN   =    0.0    initial temperature
   TEBEG  =    0.0;   TEEND  =   0.0 temperature during run
   SMASS  =  -3.00    Nose mass-parameter (am)
   estimated Nose-frequenzy (Omega)   =  0.10E-29 period in steps =****** mass=  -0.109E-26a.u.
   SCALEE = 1.0000    scale energy and forces
   NPACO  =    256;   APACO  = 16.0  distance and # of slots for P.C.
   PSTRESS=    0.0 pullay stress

  Mass of Ions in am
   POMASS =  52.00 28.09127.60
  Ionic Valenz
   ZVAL   =   6.00  4.00  6.00
  Atomic Wigner-Seitz radii
  virtual crystal weights
   VCA    =   1.00  1.00  1.00
   NELECT =      56.0000    total number of electrons
   NUPDOWN=      -1.0000    fix difference up-down

 DOS related values:
   EMIN   =  10.00;   EMAX   =-10.00  energy-range for DOS
   EFERMI =   0.00
   ISMEAR =    -5;   SIGMA  =   0.05  broadening in eV -4-tet -1-fermi 0-gaus

 Electronic relaxation 2 (details)
   IALGO  =     38    algorithm
   LDIAG  =      T    sub-space diagonalisation (order eigenvalues)
   LSUBROT=      F    optimize rotation matrix (better conditioning)
   TURBO    =      0    0=normal 1=particle mesh
   IRESTART =      0    0=no restart 2=restart with 2 vectors
   NREBOOT  =      0    no. of reboots
   NMIN     =      0    reboot dimension
   EREF     =   0.00    reference energy to select bands
   IMIX   =      4    mixing-type and parameters
     AMIX     =   0.40;   BMIX     =  1.00
     AMIX_MAG =   1.60;   BMIX_MAG =  1.00
     AMIN     =   0.01
     WC   =   100.;   INIMIX=   1;  MIXPRE=   1;  MAXMIX= -45

 Intra band minimization:
   WEIMIN = 0.0010     energy-eigenvalue tresh-hold
   EBREAK =  0.63E-06  absolut break condition
   DEPER  =   0.30     relativ break condition

[...]
     6.907777000 -0.000000000  0.000000000     0.144764372 -0.083579742  0.000000000
     3.453888000  5.982310000  0.000000000     0.000000000  0.167159509 -0.000000000
     0.000000000  0.000000000 23.444588000    -0.000000000  0.000000000  0.042653767

[...]

 FORCES acting on ions
    electron-ion (+dipol)            ewald-force                    non-local-force                 convergence-correction
   -.249E-04 -.166E-04 0.638E+00   0.306E-03 0.183E-03 -.640E+00   0.347E-17 0.694E-17 -.117E-02   -.159E-06 -.905E-07 -.157E-04
   0.249E-04 0.166E-04 -.638E+00   -.306E-03 -.183E-03 0.640E+00   -.347E-17 -.694E-17 0.117E-02   0.159E-06 0.905E-07 0.157E-04
   -.282E-04 -.167E-04 0.163E+03   -.141E-03 -.779E-04 -.158E+03   0.173E-16 -.694E-17 -.378E+01   0.335E-07 0.161E-07 -.235E-01
   0.282E-04 0.167E-04 -.163E+03   0.141E-03 0.779E-04 0.158E+03   0.139E-16 0.694E-17 0.378E+01   -.335E-07 -.161E-07 0.235E-01
   -.817E+01 0.158E+00 -.338E+03   0.444E+01 -.152E+00 0.342E+03   0.422E+01 -.158E-01 -.458E+01   0.669E-02 0.244E-04 0.536E-01
   0.422E+01 0.700E+01 -.338E+03   -.235E+01 -.377E+01 0.342E+03   -.213E+01 -.365E+01 -.458E+01   -.332E-02 -.581E-02 0.536E-01
   0.395E+01 -.716E+01 -.338E+03   -.209E+01 0.392E+01 0.342E+03   -.210E+01 0.367E+01 -.458E+01   -.337E-02 0.578E-02 0.536E-01
   0.817E+01 -.158E+00 0.338E+03   -.444E+01 0.152E+00 -.342E+03   -.422E+01 0.158E-01 0.458E+01   -.669E-02 -.244E-04 -.536E-01
   -.422E+01 -.700E+01 0.338E+03   0.235E+01 0.377E+01 -.342E+03   0.213E+01 0.365E+01 0.458E+01   0.332E-02 0.581E-02 -.536E-01
   -.395E+01 0.716E+01 0.338E+03   0.209E+01 -.392E+01 -.342E+03   0.210E+01 -.367E+01 0.458E+01   0.337E-02 -.578E-02 -.536E-01
   -.373E-09 -.281E-09 0.255E-09   0.155E-13 0.799E-14 -.171E-12   -.444E-15 0.000E+00 -.178E-14   0.114E-13 -.605E-14 0.161E-11

 POSITION                                       TOTAL-FORCE (eV/Angst)
      3.45388      1.99410     11.72054         0.000000     -0.000000     -0.003200
      6.90778      3.98821     11.72405        -0.000000     -0.000000      0.003200
      0.00000      0.00000     10.50824         0.000000     -0.000000      0.934229
      0.00000      0.00000     12.93635        -0.000000     -0.000000     -0.934229
      4.32819      0.00251     13.45138         0.494461     -0.008721     -0.064224
      1.29198      2.23274     13.45138        -0.254783     -0.423856     -0.064224
      4.74152      3.74706     13.45138        -0.239678      0.432577     -0.064224
      6.03348      5.97980      9.99321        -0.494461      0.008721      0.064224
      9.06969      3.74957      9.99321         0.254783      0.423856      0.064224
      5.62015      2.23525      9.99321         0.239678     -0.432577      0.064224
    total drift:                               -0.000000     -0.000000      0.000000

  FREE ENERGIE OF THE ION-ELECTRON SYSTEM (eV)
  free  energy   TOTEN  =       -43.83441406 eV

  energy  without entropy=      -43.83441406  energy(sigma->0) =      -43.83441406

[...]

 d Force = 0.4452676E-01[ 0.185E-01, 0.706E-01]  d Energy = 0.1004087E+00-0.559E-01
 d Force =-0.5899073E+01[-0.614E+01,-0.566E+01]  d Ewald  =-0.1823298E+03 0.176E+03

 Steepest descent step on ions:
 trial-energy change:   -0.100409  1 .order   -0.091400   -0.265972    0.083172
  (g-gl).g = 0.266E+00      g.g   = 0.266E+00  gl.gl    = 0.000E+00
 g(Force)  = 0.720E-01   g(Stress)= 0.194E+00 ortho     = 0.000E+00
 gamma     =   0.00000
 trial     =   1.00000
 opt step  =   0.78767  (harmonic =   0.76178) maximal distance =0.01878929
 next E    =   -43.943566   (d E  =  -0.10915)

[...]

 d Force =-0.5457431E-02[-0.689E-02,-0.402E-02]  d Energy = 0.8669003E-02-0.141E-01
 d Force = 0.1312529E+01[ 0.130E+01, 0.132E+01]  d Ewald  = 0.3955190E+02-0.382E+02

[...]

 d Force = 0.2774773E-01[ 0.217E-01, 0.338E-01]  d Energy = 0.3324609E-01-0.550E-02
 d Force = 0.1857450E+02[ 0.185E+02, 0.187E+02]  d Ewald  = 0.7346267E+02-0.549E+02

 Conjugate gradient step on ions:
 trial-energy change:   -0.033246  1 .order   -0.032730   -0.038041   -0.027419
  (g-gl).g = 0.451E-01      g.g   = 0.405E-01  gl.gl    = 0.266E+00
 g(Force)  = 0.298E-01   g(Stress)= 0.107E-01 ortho     =-0.462E-02
 gamma     =   0.16970
 trial     =   0.95753
 opt step  =   2.38885  (harmonic =   3.42920) maximal distance =0.03865768
 next E    =   -43.998954   (d E  =  -0.05546)

[...]

 d Force =-0.4471186E-01[-0.101E+00, 0.118E-01]  d Energy =-0.2446121E-01-0.203E-01
 d Force = 0.5308608E+02[ 0.522E+02, 0.540E+02]  d Ewald  = 0.2129108E+03-0.160E+03

[...]

 d Force = 0.4358008E-01[ 0.149E-01, 0.723E-01]  d Energy = 0.2769893E-01 0.159E-01
 d Force =-0.3884354E+02[-0.393E+02,-0.384E+02]  d Ewald  =-0.1535410E+03 0.115E+03

[...]

 Conjugate gradient step on ions:
 trial-energy change:   -0.008560  1 .order   -0.013186   -0.014644   -0.011729
  (g-gl).g = 0.251E-01      g.g   = 0.263E-01  gl.gl    = 0.194E-01
 g(Force)  = 0.129E-02   g(Stress)= 0.251E-01 ortho     = 0.138E-02
 gamma     =   1.29309
 trial     =   0.52059
 opt step  =   2.08235  (harmonic =   2.61570) maximal distance =0.02984452
 next E    =   -44.063181   (d E  =  -0.03679)

[...]

 d Force =-0.9040905E-02[-0.806E-02,-0.100E-01]  d Energy = 0.5705568E-02-0.147E-01
 d Force =-0.1827024E+02[-0.183E+02,-0.183E+02]  d Ewald  =-0.7942733E+02 0.612E+02

[...]

 d Force =-0.6753741E-02[-0.594E-02,-0.757E-02]  d Energy =-0.2004006E-02-0.475E-02
 d Force =-0.1714394E+02[-0.171E+02,-0.171E+02]  d Ewald  =-0.7443517E+02 0.573E+02

[...]

 d Force = 0.3972333E-02[ 0.381E-02, 0.413E-02]  d Energy = 0.6716543E-02-0.274E-02
 d Force = 0.1049614E+02[ 0.105E+02, 0.105E+02]  d Ewald  =-0.2141691E+02 0.319E+02

[...]

 d Force = 0.9430783E-02[ 0.740E-02, 0.115E-01]  d Energy = 0.6910534E-02 0.252E-02
 d Force = 0.3180330E+02[ 0.320E+02, 0.316E+02]  d Ewald  =-0.6484102E+02 0.966E+02

[...]

 Conjugate gradient step on ions:
 trial-energy change:   -0.002174  1 .order   -0.002625   -0.003734   -0.001516
  (g-gl).g = 0.138E-01      g.g   = 0.122E-01  gl.gl    = 0.950E-02
 g(Force)  = 0.289E-02   g(Stress)= 0.933E-02 ortho     =-0.156E-02
 gamma     =   1.45152
 trial     =   0.37511
 opt step  =   0.63132  (harmonic =   0.63132) maximal distance =0.00960939
 next E    =   -44.058323   (d E  =  -0.00314)

[...]

 d Force = 0.6979342E-03[ 0.350E-03, 0.105E-02]  d Energy = 0.4638920E-03 0.234E-03
 d Force = 0.8139478E+01[ 0.814E+01, 0.814E+01]  d Ewald  = 0.3656078E+01 0.448E+01

[...]

 d Force = 0.4284717E-05[-0.119E-04, 0.205E-04]  d Energy = 0.9769375E-03-0.973E-03
 d Force =-0.1841219E+01[-0.184E+01,-0.184E+01]  d Ewald  = 0.2040657E+02-0.222E+02

 Conjugate gradient step on ions:
 trial-energy change:   -0.000977  1 .order   -0.001039   -0.001585   -0.000494
  (g-gl).g =-0.203E-02      g.g   = 0.393E-02  gl.gl    = 0.122E-01
 g(Force)  = 0.275E-03   g(Stress)= 0.365E-02 ortho     = 0.126E-02
 gamma     =  -0.16623
 trial     =   0.42635
 opt step  =   0.61929  (harmonic =   0.61929) maximal distance =0.00128568
 next E    =   -44.058969   (d E  =  -0.00115)

[...]

 d Force =-0.1182582E-04[-0.182E-04,-0.542E-05]  d Energy = 0.3219294E-03-0.334E-03
 d Force =-0.8319646E+00[-0.831E+00,-0.832E+00]  d Ewald  = 0.9209619E+01-0.100E+02

[...]

 d Force =-0.2340317E-04[-0.312E-04,-0.156E-04]  d Energy = 0.5632043E-03-0.587E-03
 d Force =-0.7430628E+00[-0.743E+00,-0.743E+00]  d Ewald  = 0.1403434E+02-0.148E+02

 Conjugate gradient step on ions:
 trial-energy change:   -0.000563  1 .order   -0.000670   -0.000841   -0.000499
  (g-gl).g = 0.501E-02      g.g   = 0.492E-02  gl.gl    = 0.393E-02
 g(Force)  = 0.233E-04   g(Stress)= 0.489E-02 ortho     = 0.247E-03
 gamma     =   1.27499
 trial     =   0.16078
 opt step  =   0.39505  (harmonic =   0.39505) maximal distance =0.00088077
 next E    =   -44.060150   (d E  =  -0.00103)

[...]

 eigenvalue-minimisations  :   856
 total energy-change (2. order) :-0.9454787E-03  (-0.2887540E-02)
 number of electron      55.9999995 magnetization       5.9999998
 augmentation part       -2.3186064 magnetization       4.2980457

[...]

 Broyden mixing:
  rms(total) = 0.16899E-02    rms(broyden)= 0.16899E-02
  rms(prec ) = 0.23713E-02
  weight for this iteration     100.00

 eigenvalues of (default mixing * dielectric matrix)
  average eigenvalue GAMMA=   1.1280
  2.2532  0.7434  0.3874

[...]

--------------------------------------- Iteration     22(   5)  ---------------------------------------

[...]

 eigenvalue-minimisations  :   600
 total energy-change (2. order) : 0.5051385E-04  (-0.9331462E-05)
 number of electron      55.9999995 magnetization       5.9999998
 augmentation part       -2.3161374 magnetization       4.2990866

 Free energy of the ion-electron system (eV)
  alpha Z        PSCENC =        11.20586450
  Ewald energy   TEWEN  =      5507.69307441
  -Hartree energ DENC   =     -7399.22208987
  -exchange      EXHF   =         0.00000000
  -V(xc)+E(xc)   XCENC  =      -230.45344596
  PAW double counting   =      1214.27550611     -897.00944417
  entropy T*S    EENTRO =         0.00000000
  eigenvalues    EBANDS =      -360.22691293
  atomic energy  EATOM  =      2109.67816268
  Solvation  Ediel_sol  =         0.00000000
  free energy    TOTEN  =       -44.05928524 eV

  energy without entropy =      -44.05928524  energy(sigma->0) =      -44.05928524

 average (electrostatic) potential at core
  the test charge radii are     1.1394  0.9892  1.1897
  (the norm of the test charge is              1.0000)
       1 -50.4089       2 -50.4089       3 -91.8649       4 -91.8649       5 -96.1309
       6 -96.1309       7 -96.1309       8 -96.1309       9 -96.1309      10 -96.1309

 E-fermi :  -1.9624     XC(G=0):  -3.4327     alpha+bet : -3.3362

[...]

 spin component 2

[...]

 k-point     5 :      -0.4000    0.2000    0.0000
  band No.  band energies     occupation
      1     -13.8012      1.00000
      2     -13.3383      1.00000
      3     -13.1024      1.00000
      4     -13.0097      1.00000
      5     -12.8304      1.00000
      6     -12.6806      1.00000
      7      -9.6480      1.00000
      8      -8.0148      1.00000
      9      -6.2614      1.00000
     10      -5.8712      1.00000
     11      -5.7839      1.00000
     12      -5.3435      1.00000
     13      -5.2591      1.00000
     14      -4.8484      1.00000
     15      -4.4064      1.00000
     16      -4.2040      1.00000
     17      -4.0538      1.00000
     18      -3.9173      1.00000
     19      -3.8473      1.00000
     20      -3.6679      1.00000
     21      -3.3830      1.00000
     22      -3.1114      1.00000
     23      -2.9458      1.00000
     24      -2.9353      1.00000
     25      -2.8324      1.00000
     26      -1.4004      0.00000
     27      -0.6849      0.00000
     28      -0.6431      0.00000
     29      -0.3125      0.00000
     30      -0.0938      0.00000
     31      -0.0604      0.00000
     32      -0.0551      0.00000
     33       0.2473      0.00000
     34       0.2600      0.00000
     35       0.6606      0.00000
     36       0.7178      0.00000
     37       0.9085      0.00000
     38       1.2234      0.00000
     39       1.4418      0.00000
     40       1.9915      0.00000

[...]

 soft charge-density along one line, spin component           2
         0         1         2         3         4         5         6         7         8         9
 total charge-density along one line

------------------------ aborting loop because EDIFF is reached ----------------------------------------

[...]

  FORCE on cell =-STRESS in cart. coord.  units (eV):
  Direction    XX          YY          ZZ          XY          YZ          ZX
  Alpha Z    11.20586    11.20586    11.20586
  Ewald    6956.49526  6956.49311 -8405.29802    -0.00099    -0.00040    -0.00073
  Hartree  7261.97339  7261.97376 -7126.31217    -0.00001     0.00005     0.00009
  E(xc)    -222.84640  -222.84637  -222.49255     0.00002     0.00002     0.00002
  Local  -15075.20326-15075.20236 14645.95300     0.00075     0.00025     0.00047
  n-local   722.86843   724.62177   733.76456     0.71536     0.90737     0.91999
  augment  -110.74080  -110.74071  -116.75305    -0.00001     0.00002     0.00002
  Kinetic   458.02302   452.12146   479.45721    -4.22498     0.59526     0.61109
  Fock        0.00000     0.00000     0.00000     0.00000     0.00000     0.00000
  Total      -0.29898    -0.29898    -0.47514     0.00000    -0.00000    -0.00000
  in kB      -0.53103    -0.53103    -0.84393     0.00000    -0.00000    -0.00000

 VOLUME and BASIS-vectors are now :
  energy-cutoff  :      520.00
  volume of cell :      902.05
      direct lattice vectors                 reciprocal lattice vectors
     6.838255475 -0.000000109 -0.000000000     0.146236126 -0.084429463  0.000000000
     3.419127348  5.922102550 -0.000000000     0.000000003  0.168858945 -0.000000000
    -0.000000000  0.000000000 22.274511276     0.000000000 -0.000000000  0.044894363

  length of vectors
     6.838255475  6.838254926 22.274511276     0.168858932  0.168858945  0.044894363

 FORCES acting on ions
    electron-ion (+dipol)            ewald-force                    non-local-force                 convergence-correction
   -.314E-04 -.221E-04 0.288E-01   0.317E-03 0.188E-03 -.288E-01   0.354E-22 -.694E-17 -.852E-04   0.159E-07 0.750E-08 -.616E-04
   0.314E-04 0.221E-04 -.288E-01   -.317E-03 -.188E-03 0.288E-01   0.347E-17 0.104E-16 0.852E-04   -.159E-07 -.750E-08 0.616E-04
   -.293E-04 -.225E-04 0.160E+03   -.145E-03 -.798E-04 -.155E+03   0.229E-16 -.154E-16 -.506E+01   0.127E-07 0.764E-08 0.171E-01
   0.293E-04 0.225E-04 -.160E+03   0.145E-03 0.798E-04 0.155E+03   0.485E-17 0.224E-16 0.506E+01   -.127E-07 -.764E-08 -.171E-01
   -.379E+01 0.541E-02 -.340E+03   -.193E-01 -.559E-02 0.345E+03   0.382E+01 -.613E-03 -.462E+01   -.420E-02 -.205E-04 -.336E-01
   0.190E+01 0.328E+01 -.340E+03   0.444E-02 0.194E-01 0.345E+03   -.191E+01 -.331E+01 -.462E+01   0.208E-02 0.364E-02 -.336E-01
   0.189E+01 -.328E+01 -.340E+03   0.145E-01 -.140E-01 0.345E+03   -.191E+01 0.331E+01 -.462E+01   0.212E-02 -.362E-02 -.336E-01
   0.379E+01 -.541E-02 0.340E+03   0.193E-01 0.559E-02 -.345E+03   -.382E+01 0.613E-03 0.462E+01   0.420E-02 0.205E-04 0.336E-01
   -.190E+01 -.328E+01 0.340E+03   -.444E-02 -.194E-01 -.345E+03   0.191E+01 0.331E+01 0.462E+01   -.208E-02 -.364E-02 0.336E-01
   -.189E+01 0.328E+01 0.340E+03   -.145E-01 0.140E-01 -.345E+03   0.191E+01 -.331E+01 0.462E+01   -.212E-02 0.362E-02 0.336E-01
   0.152E-09 0.225E-09 -.387E-10   -.348E-14 0.465E-14 -.568E-13   0.444E-15 -.444E-15 0.888E-15   -.138E-12 -.607E-13 0.227E-10

 POSITION                                       TOTAL-FORCE (eV/Angst)
      3.41912      1.97403     11.13717         0.000000     -0.000000     -0.000181
      6.83826      3.94807     11.13734         0.000000      0.000000      0.000181
     -0.00000      0.00000      9.98379        -0.000000      0.000000      0.233067
     -0.00000      0.00000     12.29072         0.000000     -0.000000     -0.233067
      4.34856      0.00011     12.86556         0.010801     -0.000262      0.023018
      1.24495      2.15609     12.86556        -0.005628     -0.009223      0.023018
      4.66388      3.76591     12.86556        -0.005174      0.009485      0.023018
      5.90882      5.92199      9.40895        -0.010801      0.000262     -0.023018
      9.01244      3.76602      9.40895         0.005628      0.009223     -0.023018
      5.59350      2.15619      9.40895         0.005174     -0.009485     -0.023018
    total drift:                                0.000000      0.000000     -0.000000

  FREE ENERGIE OF THE ION-ELECTRON SYSTEM (eV)
  free  energy   TOTEN  =       -44.05928524 eV

  energy  without entropy=      -44.05928524  energy(sigma->0) =      -44.05928524

 d Force =-0.6860398E-04[-0.918E-04,-0.454E-04]  d Energy =-0.3947607E-03 0.326E-03
 d Force =-0.1080828E+01[-0.108E+01,-0.108E+01]  d Ewald  = 0.2041582E+02-0.215E+02

 reached required accuracy - stopping structural energy minimisation

 total charge

[...]

 magnetization (x)

# of ion       s       p       d       tot
    1        0.042   0.046   3.050   3.138
    2        0.042   0.046   3.050   3.138
    3        0.003   0.027   0.000   0.030
    4        0.003   0.027   0.000   0.030
    5       -0.001  -0.100   0.005  -0.097
    6       -0.002  -0.083   0.005  -0.080
    7       -0.001  -0.095   0.005  -0.092
    8       -0.001  -0.100   0.005  -0.097
    9       -0.002  -0.083   0.005  -0.080
   10       -0.001  -0.095   0.005  -0.092
tot          0.080  -0.412   6.129   5.798

 BZINTS: Fermi energy: -1.962420; 56.000000 electrons
         Band energy:-360.226913;  BLOECHL correction:  0.000000