 vasp.5.4.4.18Apr17-6-g9f103f2a35 (build May  1 2020 15:48:39) complex
 executed on             LinuxGNU date 2020.06.19  08:41:27

 INCAR:
 POTCAR:   PAW_PBE Ni 06Sep2000
 POTCAR:   PAW_PBE Ge 05Jan2001
 POTCAR:   PAW_PBE Se 06Sep2000

 POTCAR:   PAW_PBE Ni 06Sep2000
   VRHFIN =Ni:

   TITEL  = PAW_PBE Ni 06Sep2000
   POMASS =   58.690; ZVAL   =   10.000    mass and valenz
   ENMAX  =  269.533; ENMIN  =  202.150 eV
   QCUT   =   -4.451; QGAM   =    8.902    optimization parameters

   Description
     l     E      TYP  RCUT    TYP  RCUT
     2   .000     23  2.300
     2   .000     23  2.300
     0   .000     23  2.300
     0   .000     23  2.300
     1  -.200     23  2.300
     1   .000     23  2.300
     3   .000      7   .000

 POTCAR:   PAW_PBE Ge 05Jan2001
   VRHFIN =Ge: s2p2

   TITEL  = PAW_PBE Ge 05Jan2001
   POMASS =   72.610; ZVAL   =    4.000    mass and valenz
   ENMAX  =  173.807; ENMIN  =  130.355 eV
   QCUT   =   -3.574; QGAM   =    7.148    optimization parameters

[...]

 POTCAR:   PAW_PBE Se 06Sep2000
   VRHFIN =Se: s2p4

   TITEL  = PAW_PBE Se 06Sep2000
   POMASS =   78.960; ZVAL   =    6.000    mass and valenz
   ENMAX  =  211.534; ENMIN  =  158.651 eV
   QCUT   =   -3.943; QGAM   =    7.886    optimization parameters

   Description
     l     E      TYP  RCUT    TYP  RCUT
     0   .000     23  2.100
     0   .000     23  2.100
     1   .000     23  2.100
     1   .000     23  2.100
     2   .000     23  2.100
     3  -.100      7  2.100

 Optimization of the real space projectors (new method)

 maximal supplied QI-value         = 16.25
 optimisation between [QCUT,QGAM] = [ 11.54, 23.24] = [ 37.28,151.24] Ry
 Optimized for a Real-space Cutoff    1.49 Angstroem

   l    n(q)    QCUT    max X(q) W(low)/X(q) W(high)/X(q)  e(spline)
   2      9    11.539     4.811    0.20E-04    0.14E-04    0.45E-07
   2      9    11.539    15.146    0.24E-03    0.12E-03    0.20E-06
   0     10    11.539    14.357    0.18E-04    0.12E-05    0.14E-07
   0     10    11.539    43.282    0.39E-04    0.17E-04    0.23E-06
   1     10    11.539     5.514    0.99E-05    0.13E-04    0.19E-07
   1     10    11.539     7.697    0.38E-04    0.79E-04    0.91E-07
 Optimization of the real space projectors (new method)

[...]

   l    n(q)    QCUT    max X(q) W(low)/X(q) W(high)/X(q)  e(spline)
   0      9    11.539     8.651    0.22E-04    0.16E-04    0.10E-07
   0      9    11.539    33.192    0.11E-03    0.16E-03    0.65E-07
   1      8    11.539     5.899    0.37E-04    0.28E-04    0.43E-07
   1      8    11.539    27.289    0.22E-03    0.28E-04    0.14E-06
   2      8    11.539     4.673    0.11E-03    0.18E-03    0.58E-07
 Optimization of the real space projectors (new method)

 maximal supplied QI-value         = 17.95
 optimisation between [QCUT,QGAM] = [ 11.67, 23.34] = [ 38.13,152.52] Ry
 Optimized for a Real-space Cutoff    1.25 Angstroem

   l    n(q)    QCUT    max X(q) W(low)/X(q) W(high)/X(q)  e(spline)
   0      9    11.669     6.499    0.13E-04    0.81E-05    0.11E-07
   0      9    11.669    52.623    0.18E-03    0.46E-04    0.72E-07
   1      8    11.669     4.229    0.40E-04    0.45E-04    0.31E-07
   1      8    11.669    29.991    0.22E-03    0.36E-03    0.10E-06
   2      8    11.669     3.719    0.19E-03    0.46E-04    0.50E-07

 PAW_PBE Ni 06Sep2000                   :
 PAW_PBE Ge 05Jan2001                   :
 PAW_PBE Se 06Sep2000                   :

 POSCAR: Ni2 Ge2 Se6
  positions in direct lattice
  velocities in cartesian coordinates
 exchange correlation table for  LEXCH =       42
   RHO(1)=    0.500       N(1)  =     2000
   RHO(2)=  100.500       N(2)  =     4000

 ion  position               nearest neighbor table
   1  0.333  0.333  0.500-   6 2.78   5 2.78   7 2.78   8 2.78  10 2.78   9 2.78
   2  0.667  0.667  0.500-   9 2.78   8 2.78  10 2.78   5 2.78   7 2.78   6 2.78
   3  0.000  0.000  0.448-   4 2.43   8 2.63  10 2.63   9 2.63
   4  0.000  0.000  0.552-   3 2.43   5 2.63   7 2.63   6 2.63
   5  0.626  0.000  0.574-   4 2.63   1 2.78   2 2.78
   6  0.000  0.373  0.574-   4 2.63   1 2.78   2 2.78
   7  0.373  0.626  0.574-   4 2.63   1 2.78   2 2.78
   8  0.374  1.000  0.426-   3 2.63   2 2.78   1 2.78
   9  1.000  0.627  0.426-   3 2.63   2 2.78   1 2.78
  10  0.627  0.374  0.426-   3 2.63   2 2.78   1 2.78

  LATTYP: Found a hexagonal cell.
 ALAT       =     6.9077769333
 C/A-ratio  =     3.3939410937

  Lattice vectors:

 A1 = (   3.4538890000,  -5.9823100000,   0.0000000000)
 A2 = (  -6.9077770000,   0.0000000000,   0.0000000000)
 A3 = (   0.0000000000,   0.0000000000, -23.4445880000)

Analysis of symmetry for initial positions (statically):
 Subroutine PRICEL returns:
 Original cell was already a primitive cell.

 Routine SETGRP: Setting up the symmetry group for a
 hexagonal supercell.

 Subroutine GETGRP returns: Found  6 space group operations
 (whereof  6 operations were pure point group operations)
 out of a pool of 24 trial point group operations.

The static configuration has the point symmetry S_6 .

Analysis of symmetry for dynamics (positions and initial velocities):
 Subroutine PRICEL returns:
 Original cell was already a primitive cell.

[...]

The dynamic configuration has the point symmetry S_6 .

Analysis of constrained symmetry for selective dynamics:
 Subroutine PRICEL returns:
 Original cell was already a primitive cell.

[...]

The constrained configuration has the point symmetry S_6 .

Analysis of structural, dynamic, and magnetic symmetry:
 Subroutine PRICEL returns:
 Original cell was already a primitive cell.

 Routine SETGRP: Setting up the symmetry group for a
 hexagonal supercell.

 Subroutine GETGRP returns: Found  6 space group operations
 (whereof  6 operations were pure point group operations)
 out of a pool of 24 trial point group operations.

The magnetic configuration has the point symmetry S_6 .

 Subroutine INISYM returns: Found  6 space group operations
 (whereof  6 operations are pure point group operations),
 and found     1 'primitive' translations

 KPOINTS: Kpoints from vasprun.xml

Automatic generation of k-mesh.
Space group operators:
 irot       det(A)        alpha          n_x          n_y          n_z        tau_x        tau_y        tau_z
    1     1.000000     0.000000     1.000000     0.000000     0.000000     0.000000     0.000000     0.000000
    2    -1.000000     0.000000     1.000000     0.000000     0.000000     0.000000     0.000000     0.000000
    3     1.000000   120.000000     0.000000     0.000000     1.000000     0.000000     0.000000     0.000000
    4    -1.000000   120.000000     0.000000     0.000000     1.000000     0.000000     0.000000     0.000000
    5     1.000000   120.000000     0.000000     0.000000    -1.000000     0.000000     0.000000     0.000000
    6    -1.000000   120.000000     0.000000     0.000000    -1.000000     0.000000     0.000000     0.000000

 Subroutine IBZKPT returns following result:

 Found      5 irreducible k-points:

 Following reciprocal coordinates:
            Coordinates               Weight
  0.000000  0.000000  0.000000      1.000000
  0.200000  0.000000  0.000000      6.000000
  0.400000  0.000000  0.000000      6.000000
  0.400000  0.200000  0.000000      6.000000
 -0.400000  0.200000  0.000000      6.000000

 Following cartesian coordinates:
            Coordinates               Weight
  0.000000  0.000000  0.000000      1.000000
  0.028953 -0.016716  0.000000      6.000000
  0.057906 -0.033432  0.000000      6.000000
  0.057906  0.000000  0.000000      6.000000
 -0.057906  0.066864  0.000000      6.000000

 TETIRR: Found     15 inequivalent tetrahedra from      150

 SYSTEM =  unknown system
 POSCAR =  Ni2 Ge2 Se6

 Startparameter for this run:
   NWRITE =      2    write-flag & timer
   PREC   = accura    normal or accurate (medium, high low for compatibility)
   ISTART =      0    job   : 0-new  1-cont  2-samecut
   ICHARG =      2    charge: 1-file 2-atom 10-const
   ISPIN  =      2    spin polarized calculation?
   LNONCOLLINEAR =      F non collinear calculations
   LSORBIT =      F    spin-orbit coupling
   INIWAV =      1    electr: 0-lowe 1-rand  2-diag
   LASPH  =      F    aspherical Exc in radial PAW
   METAGGA=      F    non-selfconsistent MetaGGA calc.

 Electronic Relaxation 1
   ENCUT  =  520.0 eV  38.22 Ry    6.18 a.u.  12.84 12.84 43.59*2*pi/ulx,y,z
   ENINI  =  520.0     initial cutoff
   ENAUG  =  544.6 eV  augmentation charge cutoff
   NELM   =    400;   NELMIN=  2; NELMDL=  0     # of ELM steps
   EDIFF  = 0.1E-03   stopping-criterion for ELM
   LREAL  =      T    real-space projection
   NLSPLINE    = F    spline interpolate recip. space projectors
   LCOMPAT=      F    compatible to vasp.4.4
   GGA_COMPAT  = T    GGA compatible to vasp.4.4-vasp.4.6
   LMAXPAW     = -100 max onsite density
   LMAXMIX     =    2 max onsite mixed and CHGCAR
   VOSKOWN=      0    Vosko Wilk Nusair interpolation
   ROPT   =   -0.00025  -0.00025  -0.00025
 Ionic relaxation
   EDIFFG = 0.1E-02   stopping-criterion for IOM
   NSW    =     99    number of steps for IOM
   NBLOCK =      1;   KBLOCK =     99    inner block; outer block
   IBRION =      2    ionic relax: 0-MD 1-quasi-New 2-CG
   NFREE  =      1    steps in history (QN), initial steepest desc. (CG)
   ISIF   =      3    stress and relaxation
   IWAVPR =     11    prediction:  0-non 1-charg 2-wave 3-comb
   ISYM   =      2    0-nonsym 1-usesym 2-fastsym
   LCORR  =      T    Harris-Foulkes like correction to forces

   POTIM  = 0.5000    time-step for ionic-motion
   TEIN   =    0.0    initial temperature
   TEBEG  =    0.0;   TEEND  =   0.0 temperature during run
   SMASS  =  -3.00    Nose mass-parameter (am)
   estimated Nose-frequenzy (Omega)   =  0.10E-29 period in steps =****** mass=  -0.109E-26a.u.
   SCALEE = 1.0000    scale energy and forces
   NPACO  =    256;   APACO  = 16.0  distance and # of slots for P.C.
   PSTRESS=    0.0 pullay stress

  Mass of Ions in am
   POMASS =  58.69 72.61 78.96
  Ionic Valenz
   ZVAL   =  10.00  4.00  6.00
  Atomic Wigner-Seitz radii
  virtual crystal weights
   VCA    =   1.00  1.00  1.00
   NELECT =      64.0000    total number of electrons
   NUPDOWN=      -1.0000    fix difference up-down

 DOS related values:
   EMIN   =  10.00;   EMAX   =-10.00  energy-range for DOS
   EFERMI =   0.00
   ISMEAR =    -5;   SIGMA  =   0.05  broadening in eV -4-tet -1-fermi 0-gaus

 Electronic relaxation 2 (details)
   IALGO  =     38    algorithm
   LDIAG  =      T    sub-space diagonalisation (order eigenvalues)
   LSUBROT=      F    optimize rotation matrix (better conditioning)
   TURBO    =      0    0=normal 1=particle mesh
   IRESTART =      0    0=no restart 2=restart with 2 vectors
   NREBOOT  =      0    no. of reboots
   NMIN     =      0    reboot dimension
   EREF     =   0.00    reference energy to select bands
   IMIX   =      4    mixing-type and parameters
     AMIX     =   0.40;   BMIX     =  1.00
     AMIX_MAG =   1.60;   BMIX_MAG =  1.00
     AMIN     =   0.01
     WC   =   100.;   INIMIX=   1;  MIXPRE=   1;  MAXMIX= -45

 Intra band minimization:
   WEIMIN = 0.0010     energy-eigenvalue tresh-hold
[...]
     3.453888000  5.982310000  0.000000000     0.000000000  0.167159509 -0.000000000
     0.000000000  0.000000000 23.444588000    -0.000000000  0.000000000  0.042653767

[...]

 FORCES acting on ions
    electron-ion (+dipol)            ewald-force                    non-local-force                 convergence-correction
   0.260E-03 0.140E-03 0.119E+01   0.643E-03 0.389E-03 -.118E+01   0.000E+00 0.000E+00 0.215E-02   0.632E-05 0.365E-05 0.250E-03
   -.260E-03 -.140E-03 -.119E+01   -.643E-03 -.389E-03 0.118E+01   0.347E-17 0.000E+00 -.215E-02   -.632E-05 -.365E-05 -.250E-03
   -.488E-04 0.197E-04 0.188E+03   -.141E-03 -.779E-04 -.186E+03   -.173E-17 -.173E-17 -.261E+01   -.648E-06 -.328E-06 -.177E-01
   0.488E-04 -.197E-04 -.188E+03   0.141E-03 0.779E-04 0.186E+03   -.694E-17 0.173E-17 0.261E+01   0.648E-06 0.328E-06 0.177E-01
   -.247E+02 0.157E+00 -.424E+03   0.233E+02 -.155E+00 0.425E+03   0.192E+01 -.605E-02 -.276E+01   -.183E-01 -.254E-03 0.286E-02
   0.125E+02 0.213E+02 -.424E+03   -.118E+02 -.201E+02 0.425E+03   -.965E+00 -.166E+01 -.276E+01   0.892E-02 0.160E-01 0.286E-02
   0.122E+02 -.215E+02 -.424E+03   -.115E+02 0.202E+02 0.425E+03   -.954E+00 0.167E+01 -.276E+01   0.936E-02 -.157E-01 0.286E-02
   0.247E+02 -.157E+00 0.424E+03   -.233E+02 0.155E+00 -.425E+03   -.192E+01 0.605E-02 0.276E+01   0.183E-01 0.254E-03 -.286E-02
   -.125E+02 -.213E+02 0.424E+03   0.118E+02 0.201E+02 -.425E+03   0.965E+00 0.166E+01 0.276E+01   -.892E-02 -.160E-01 -.286E-02
   -.122E+02 0.215E+02 0.424E+03   0.115E+02 -.202E+02 -.425E+03   0.954E+00 -.167E+01 0.276E+01   -.936E-02 0.157E-01 -.286E-02
   -.743E-10 -.206E-09 0.528E-10   0.355E-14 0.000E+00 -.171E-12   0.333E-15 0.000E+00 0.444E-15   0.437E-13 -.336E-13 -.412E-11

 POSITION                                       TOTAL-FORCE (eV/Angst)
      3.45388      1.99410     11.72054        -0.000000     -0.000000      0.008974
      6.90778      3.98821     11.72405        -0.000000      0.000000     -0.008974
      0.00000      0.00000     10.50824        -0.000000      0.000000     -0.816659
      0.00000      0.00000     12.93635        -0.000000     -0.000000      0.816659
      4.32819      0.00251     13.45138         0.438024     -0.004376     -1.227517
      1.29198      2.23274     13.45138        -0.222802     -0.377152     -1.227517
      4.74152      3.74706     13.45138        -0.215222      0.381528     -1.227517
      6.03348      5.97980      9.99321        -0.438024      0.004376      1.227517
      9.06969      3.74957      9.99321         0.222802      0.377152      1.227517
      5.62015      2.23525      9.99321         0.215222     -0.381528      1.227517
    total drift:                               -0.000000     -0.000000      0.000000

  FREE ENERGIE OF THE ION-ELECTRON SYSTEM (eV)
  free  energy   TOTEN  =       -33.23513973 eV

  energy  without entropy=      -33.23513973  energy(sigma->0) =      -33.23513973

[...]

 d Force = 0.1744755E+00[-0.114E+00, 0.463E+00]  d Energy = 0.2690605E+01-0.252E+01
 d Force =-0.1584042E+03[-0.176E+03,-0.141E+03]  d Ewald  =-0.1819201E+04 0.166E+04

 Steepest descent step on ions:
 trial-energy change:   -2.690605  1 .order   -2.060382   -5.372077    1.251313
  (g-gl).g = 0.537E+01      g.g   = 0.537E+01  gl.gl    = 0.000E+00
 g(Force)  = 0.492E+00   g(Stress)= 0.488E+01 ortho     = 0.000E+00
 gamma     =   0.00000
 trial     =   1.00000
 opt step  =   0.87396  (harmonic =   0.81108) maximal distance =0.05175495
 next E    =   -36.003339   (d E  =  -2.76820)

[...]

 d Force = 0.8488151E-02[ 0.805E-03, 0.162E-01]  d Energy = 0.7810751E-01-0.696E-01
 d Force = 0.2324432E+02[ 0.229E+02, 0.236E+02]  d Ewald  = 0.2629276E+03-0.240E+03

[...]

 d Force = 0.1047233E+00[ 0.796E-01, 0.130E+00]  d Energy = 0.1089982E+00-0.427E-02
 d Force =-0.4083636E+02[-0.412E+02,-0.405E+02]  d Ewald  =-0.1118860E+03 0.710E+02

 Conjugate gradient step on ions:
 trial-energy change:   -0.108998  1 .order   -0.105801   -0.130613   -0.080989
  (g-gl).g = 0.141E+00      g.g   = 0.134E+00  gl.gl    = 0.537E+01
 g(Force)  = 0.134E+00   g(Stress)= 0.502E-03 ortho     =-0.708E-02
 gamma     =   0.02630
 trial     =   0.97479
 opt step  =   1.88517  (harmonic =   2.56570) maximal distance =0.05761213
 next E    =   -36.153273   (d E  =  -0.14942)

[...]

 d Force = 0.2809133E-02[-0.384E-02, 0.945E-02]  d Energy = 0.7598708E-02-0.479E-02
 d Force = 0.2476248E+02[ 0.247E+02, 0.249E+02]  d Ewald  = 0.6722870E+02-0.425E+02

[...]

 Conjugate gradient step on ions:
 trial-energy change:   -0.038132  1 .order   -0.040933   -0.049784   -0.032081
  (g-gl).g = 0.280E-01      g.g   = 0.350E-01  gl.gl    = 0.134E+00
 g(Force)  = 0.113E-01   g(Stress)= 0.237E-01 ortho     = 0.159E-02
 gamma     =   0.20902
 trial     =   1.40873
 opt step  =   3.96164  (harmonic =   3.96164) maximal distance =0.04691400
 next E    =   -36.280608   (d E  =  -0.07000)

[...]

 d Force = 0.4993297E-01[ 0.563E-01, 0.435E-01]  d Energy =-0.2675203E-02 0.526E-01
 d Force =-0.9940661E+02[-0.987E+02,-0.100E+03]  d Ewald  =-0.1851940E+03 0.858E+02

[...]

 d Force =-0.2182159E-01[-0.205E-01,-0.232E-01]  d Energy = 0.1108366E-01-0.329E-01
 d Force = 0.4093647E+02[ 0.411E+02, 0.408E+02]  d Ewald  = 0.7759682E+02-0.367E+02

[...]

 Conjugate gradient step on ions:
 trial-energy change:   -0.015677  1 .order   -0.016017   -0.016782   -0.015252
  (g-gl).g = 0.865E-01      g.g   = 0.829E-01  gl.gl    = 0.350E-01
 g(Force)  = 0.392E-01   g(Stress)= 0.437E-01 ortho     =-0.234E-02
 gamma     =   2.47123
 trial     =   0.21764
 opt step  =   0.87058  (harmonic =   2.38586) maximal distance =0.03933391
 next E    =   -36.349133   (d E  =  -0.09199)

[...]

 d Force = 0.6379142E-03[ 0.615E-03, 0.661E-03]  d Energy = 0.9953991E-03-0.357E-03
 d Force = 0.9185134E+01[ 0.919E+01, 0.918E+01]  d Ewald  = 0.3265353E+02-0.235E+02

 Conjugate gradient step on ions:
 trial-energy change:   -0.000995  1 .order   -0.002836   -0.003536   -0.002137
  (g-gl).g =-0.140E-01      g.g   = 0.693E-02  gl.gl    = 0.829E-01
 g(Force)  = 0.378E-02   g(Stress)= 0.315E-02 ortho     = 0.671E-02
 gamma     =  -0.16866
 trial     =   0.60940
 opt step  =   1.54033  (harmonic =   1.54033) maximal distance =0.00772638
 next E    =   -36.353396   (d E  =  -0.00447)

[...]

 d Force = 0.9594531E-03[ 0.978E-03, 0.941E-03]  d Energy =-0.2683952E-03 0.123E-02
 d Force = 0.1403220E+02[ 0.140E+02, 0.140E+02]  d Ewald  = 0.5015165E+02-0.361E+02

[...]

 d Force =-0.4131549E-03[-0.327E-03,-0.499E-03]  d Energy = 0.1495614E-02-0.191E-02
 d Force =-0.7191623E+01[-0.719E+01,-0.720E+01]  d Ewald  =-0.2556166E+02 0.184E+02

[...]

 d Force = 0.4385466E-03[ 0.406E-03, 0.471E-03]  d Energy = 0.9181448E-03-0.480E-03
 d Force =-0.3126776E+01[-0.313E+01,-0.313E+01]  d Ewald  = 0.3139421E+01-0.627E+01

[...]

 d Force = 0.9928439E-03[ 0.765E-03, 0.122E-02]  d Energy = 0.1802245E-02-0.809E-03
 d Force =-0.9366507E+01[-0.935E+01,-0.938E+01]  d Ewald  = 0.9407036E+01-0.188E+02

[...]

 d Force = 0.1276706E-03[ 0.101E-03, 0.155E-03]  d Energy = 0.2804056E-03-0.153E-03
 d Force =-0.1459977E+01[-0.146E+01,-0.146E+01]  d Ewald  =-0.5829285E+01 0.437E+01

 Conjugate gradient step on ions:
 trial-energy change:   -0.000280  1 .order   -0.000132   -0.000158   -0.000107
  (g-gl).g =-0.163E-03      g.g   = 0.220E-03  gl.gl    = 0.796E-03
 g(Force)  = 0.212E-03   g(Stress)= 0.730E-05 ortho     = 0.384E-03
 gamma     =  -0.20517
 trial     =   1.12153
 opt step  =   3.45263  (harmonic =   3.45263) maximal distance =0.00242568
 next E    =   -36.354114   (d E  =  -0.00024)

[...]

 eigenvalue-minimisations  :   896
 total energy-change (2. order) : 0.2757798E-03  (-0.3088945E-04)
 number of electron      63.9999986 magnetization      -0.0000034
 augmentation part        4.2637175 magnetization      -0.0000012

[...]

 Broyden mixing:
  rms(total) = 0.30288E-03    rms(broyden)= 0.30279E-03
  rms(prec ) = 0.63992E-03
  weight for this iteration     100.00

 eigenvalues of (default mixing * dielectric matrix)
  average eigenvalue GAMMA=   1.1542
  2.2150  0.2451  1.0783  1.0783

[...]

--------------------------------------- Iteration     20(   6)  ---------------------------------------

[...]

 eigenvalue-minimisations  :   656
 total energy-change (2. order) :-0.6011815E-04  (-0.3773917E-06)
 number of electron      63.9999986 magnetization      -0.0000026
 augmentation part        4.2675880 magnetization       0.0000005

 Free energy of the ion-electron system (eV)
  alpha Z        PSCENC =        50.93635135
  Ewald energy   TEWEN  =     11096.49744914
  -Hartree energ DENC   =    -14620.01769080
  -exchange      EXHF   =         0.00000000
  -V(xc)+E(xc)   XCENC  =        38.53405863
  PAW double counting   =      2606.26252527    -2625.73901074
  entropy T*S    EENTRO =         0.00000000
  eigenvalues    EBANDS =      -508.78131140
  atomic energy  EATOM  =      3925.95288657
  Solvation  Ediel_sol  =         0.00000000
  free energy    TOTEN  =       -36.35474198 eV

  energy without entropy =      -36.35474198  energy(sigma->0) =      -36.35474198

 average (electrostatic) potential at core
  the test charge radii are     0.9791  1.1631  1.0808
  (the norm of the test charge is              1.0000)
       1 -50.3520       2 -50.3520       3 -39.9259       4 -39.9259       5 -61.6918
       6 -61.6918       7 -61.6917       8 -61.6918       9 -61.6918      10 -61.6917

 E-fermi :  -2.7719     XC(G=0):  -3.5297     alpha+bet : -2.4204

[...]

 spin component 2

[...]

 k-point     5 :      -0.4000    0.2000    0.0000
  band No.  band energies     occupation
      1     -16.6467      1.00000
      2     -16.6431      1.00000
      3     -16.1875      1.00000
      4     -16.0055      1.00000
      5     -15.9666      1.00000
      6     -15.7665      1.00000
      7     -11.8095      1.00000
      8     -10.2417      1.00000
      9      -8.1802      1.00000
     10      -7.6614      1.00000
     11      -7.6353      1.00000
     12      -7.1382      1.00000
     13      -6.7871      1.00000
     14      -6.7804      1.00000
     15      -6.5203      1.00000
     16      -6.2684      1.00000
     17      -6.1149      1.00000
     18      -6.0060      1.00000
     19      -5.9553      1.00000
     20      -5.8328      1.00000
     21      -5.6478      1.00000
     22      -5.1835      1.00000
     23      -4.8616      1.00000
     24      -4.7440      1.00000
     25      -4.7277      1.00000
     26      -4.5046      1.00000
     27      -4.4562      1.00000
     28      -4.3053      1.00000
     29      -4.2273      1.00000
     30      -4.2167      1.00000
     31      -3.9562      1.00000
     32      -2.9105      1.00000
     33      -2.7811      0.31676
     34      -2.6659      0.00000
     35      -2.1443      0.00000
     36      -2.0180      0.00000
     37      -1.0975      0.00000
     38       0.1933      0.00000
     39       0.2459      0.00000
     40       0.9135      0.00000
     41       1.0094      0.00000
     42       1.1664      0.00000
     43       2.3543      0.00000
     44       2.3691      0.00000
     45       2.4117      0.00000
     46       2.4925      0.00000
     47       2.8656      0.00000
     48       3.0843      0.00000

[...]

 soft charge-density along one line, spin component           2
         0         1         2         3         4         5         6         7         8         9
 total charge-density along one line

------------------------ aborting loop because EDIFF is reached ----------------------------------------

[...]

  FORCE on cell =-STRESS in cart. coord.  units (eV):
  Direction    XX          YY          ZZ          XY          YZ          ZX
  Alpha Z    50.93635    50.93635    50.93635
  Ewald   13214.92850 13214.92666-15333.35988    -0.00266    -0.00054    -0.00098
  Hartree 13954.72089 13954.72222-13288.42384    -0.00065     0.00007     0.00012
  E(xc)    -274.22384  -274.22397  -273.96109     0.00013    -0.00001     0.00002
  Local  -27876.95170-27876.95233 27884.65464     0.00292     0.00029     0.00055
  n-local   220.00153   221.37753   222.39332     0.73948     0.99762     0.84664
  augment    82.29056    82.29010    79.18475     0.00050     0.00006     0.00002
  Kinetic   632.62207   623.24293   658.81991    -5.41919    -1.25953    -1.13790
  Fock        0.00000     0.00000     0.00000     0.00000     0.00000     0.00000
  Total       0.32194     0.32194     0.24416    -0.00000    -0.00000     0.00000
  in kB       0.63574     0.63574     0.48215    -0.00001    -0.00000     0.00000

 VOLUME and BASIS-vectors are now :
  energy-cutoff  :      520.00
  volume of cell :      811.34
      direct lattice vectors                 reciprocal lattice vectors
     6.281602508  0.000001030  0.000000000     0.159195061 -0.091911270 -0.000000000
     3.140800000  5.440027599 -0.000000000    -0.000000030  0.183822614 -0.000000000
     0.000000000  0.000000000 23.742720768    -0.000000000  0.000000000  0.042118172

  length of vectors
     6.281602508  6.281602098 23.742720768     0.183822602  0.183822614  0.042118172

 FORCES acting on ions
    electron-ion (+dipol)            ewald-force                    non-local-force                 convergence-correction
   0.359E-04 -.151E-04 -.246E+00   0.782E-03 0.474E-03 0.256E+00   -.360E-21 -.476E-21 -.538E-02   0.241E-08 -.951E-07 -.452E-04
   -.359E-04 0.151E-04 0.246E+00   -.782E-03 -.474E-03 -.256E+00   0.694E-17 0.278E-16 0.538E-02   -.241E-08 0.951E-07 0.452E-04
   -.102E-03 0.978E-04 0.253E+03   -.175E-03 -.978E-04 -.252E+03   0.103E-16 0.331E-17 -.184E+01   -.352E-07 -.204E-07 -.669E-02
   0.102E-03 -.978E-04 -.253E+03   0.175E-03 0.978E-04 0.252E+03   -.508E-17 -.331E-17 0.184E+01   0.352E-07 0.204E-07 0.669E-02
   -.366E+02 -.130E+00 -.526E+03   0.350E+02 0.131E+00 0.528E+03   0.163E+01 0.106E-02 -.207E+01   0.868E-03 -.745E-04 0.129E-01
   0.182E+02 0.318E+02 -.526E+03   -.174E+02 -.304E+02 0.528E+03   -.812E+00 -.141E+01 -.207E+01   -.498E-03 -.714E-03 0.129E-01
   0.184E+02 -.316E+02 -.526E+03   -.176E+02 0.302E+02 0.528E+03   -.814E+00 0.141E+01 -.207E+01   -.369E-03 0.789E-03 0.129E-01
   0.366E+02 0.130E+00 0.526E+03   -.350E+02 -.131E+00 -.528E+03   -.163E+01 -.106E-02 0.207E+01   -.868E-03 0.745E-04 -.129E-01
   -.182E+02 -.318E+02 0.526E+03   0.174E+02 0.304E+02 -.528E+03   0.812E+00 0.141E+01 0.207E+01   0.498E-03 0.714E-03 -.129E-01
   -.184E+02 0.316E+02 0.526E+03   0.176E+02 -.302E+02 -.528E+03   0.814E+00 -.141E+01 0.207E+01   0.369E-03 -.789E-03 -.129E-01
   -.333E-09 -.229E-10 -.191E-09   -.142E-13 -.213E-13 -.227E-12   0.444E-15 -.222E-15 0.000E+00   0.141E-12 0.274E-12 -.199E-10

 POSITION                                       TOTAL-FORCE (eV/Angst)
      3.14080      1.81334     11.87133         0.000000     -0.000000      0.004898
      6.28160      3.62669     11.87140        -0.000000      0.000000     -0.004898
      0.00000      0.00000     10.64187        -0.000000     -0.000000     -0.072525
      0.00000      0.00000     13.10085         0.000000      0.000000      0.072525
      3.84827     -0.00064     13.39278        -0.001130      0.003176     -0.002604
      1.21612      2.10765     13.39278         0.003315     -0.000610     -0.002604
      4.35802      3.33302     13.39278        -0.002185     -0.002566     -0.002604
      2.43333      0.00064     10.34994         0.001130     -0.003176      0.002604
      1.92468      3.33238     10.34994        -0.003315      0.000610      0.002604
      5.06438      2.10701     10.34994         0.002185      0.002566      0.002604
    total drift:                               -0.000000     -0.000000     -0.000000

  FREE ENERGIE OF THE ION-ELECTRON SYSTEM (eV)
  free  energy   TOTEN  =       -36.35474198 eV

  energy  without entropy=      -36.35474198  energy(sigma->0) =      -36.35474198

 d Force = 0.1029936E-03[-0.331E-05, 0.209E-03]  d Energy = 0.5907342E-03-0.488E-03
 d Force =-0.3035959E+01[-0.304E+01,-0.304E+01]  d Ewald  =-0.1212401E+02 0.909E+01

 reached required accuracy - stopping structural energy minimisation

 total charge

[...]

 magnetization (x)

# of ion       s       p       d       tot
    1        0.000   0.000   0.000   0.000
    2        0.000   0.000   0.000   0.000
    3       -0.000  -0.000   0.000  -0.000
    4       -0.000  -0.000   0.000  -0.000
    5       -0.000   0.000   0.000   0.000
    6       -0.000   0.000   0.000   0.000
    7       -0.000   0.000   0.000   0.000
    8       -0.000   0.000   0.000   0.000
    9       -0.000   0.000   0.000   0.000
   10       -0.000   0.000   0.000   0.000
tot         -0.000   0.000   0.000   0.000

 BZINTS: Fermi energy: -2.771903; 64.000000 electrons
         Band energy:-508.781311;  BLOECHL correction: -0.015062