 vasp.5.4.4.18Apr17-6-g9f103f2a35 (build May  1 2020 15:48:39) complex
 executed on             LinuxGNU date 2020.06.29  11:31:28

 INCAR:
 POTCAR:   PAW_PBE Co 06Sep2000
 POTCAR:   PAW_PBE Ge 05Jan2001
 POTCAR:    PAW_PBE S 17Jan2003

 POTCAR:   PAW_PBE Co 06Sep2000
   VRHFIN =Co: d8 s1

   TITEL  = PAW_PBE Co 06Sep2000
   POMASS =   58.933; ZVAL   =    9.000    mass and valenz
   ENMAX  =  267.969; ENMIN  =  200.977 eV
   QCUT   =   -4.438; QGAM   =    8.876    optimization parameters

   Description
     l     E      TYP  RCUT    TYP  RCUT
     2   .000     23  2.300
     2   .000     23  2.300
     0   .000     23  2.300
     0   .000     23  2.300
     1  -.200     23  2.300
     1   .000     23  2.300
     3   .000      7   .000

 POTCAR:   PAW_PBE Ge 05Jan2001
   VRHFIN =Ge: s2p2

   TITEL  = PAW_PBE Ge 05Jan2001
   POMASS =   72.610; ZVAL   =    4.000    mass and valenz
   ENMAX  =  173.807; ENMIN  =  130.355 eV
   QCUT   =   -3.574; QGAM   =    7.148    optimization parameters

[...]

 POTCAR:    PAW_PBE S 17Jan2003
   VRHFIN =S : s2p4

   TITEL  = PAW_PBE S 17Jan2003
   POMASS =   32.066; ZVAL   =    6.000    mass and valenz
   ENMAX  =  280.000; ENMIN  =  194.016 eV
   QCUT   =   -4.360; QGAM   =    8.721    optimization parameters

   Description
     l     E      TYP  RCUT    TYP  RCUT
     0   .000     23  1.900
     0   .000     23  1.900
     1   .000     23  1.900
     1   .000     23  1.900
     2   .000     23  1.900

 Optimization of the real space projectors (new method)

 maximal supplied QI-value         = 16.25
 optimisation between [QCUT,QGAM] = [ 11.54, 23.24] = [ 37.28,151.24] Ry
 Optimized for a Real-space Cutoff    1.53 Angstroem

   l    n(q)    QCUT    max X(q) W(low)/X(q) W(high)/X(q)  e(spline)
   2     10    11.539     4.599    0.83E-05    0.15E-04    0.45E-07
   2     10    11.539    18.158    0.10E-03    0.14E-03    0.24E-06
   0     11    11.539    15.740    0.19E-04    0.12E-05    0.17E-07
   0     11    11.539    47.662    0.48E-04    0.15E-04    0.31E-06
   1     10    11.539     5.777    0.11E-04    0.46E-05    0.25E-07
   1     10    11.539     8.007    0.46E-04    0.29E-04    0.11E-06
 Optimization of the real space projectors (new method)

[...]

   l    n(q)    QCUT    max X(q) W(low)/X(q) W(high)/X(q)  e(spline)
   0      9    11.539     8.651    0.22E-04    0.16E-04    0.10E-07
   0      9    11.539    33.192    0.11E-03    0.16E-03    0.65E-07
   1      8    11.539     5.899    0.37E-04    0.28E-04    0.43E-07
   1      8    11.539    27.289    0.22E-03    0.28E-04    0.14E-06
   2      8    11.539     4.673    0.11E-03    0.18E-03    0.58E-07
 Optimization of the real space projectors (new method)

 maximal supplied QI-value         = 19.84
 optimisation between [QCUT,QGAM] = [ 11.51, 23.22] = [ 37.09,150.92] Ry
 Optimized for a Real-space Cutoff    1.21 Angstroem

   l    n(q)    QCUT    max X(q) W(low)/X(q) W(high)/X(q)  e(spline)
   0      8    11.508     5.487    0.18E-04    0.22E-05    0.47E-08
   0      8    11.508    85.627    0.96E-04    0.18E-03    0.54E-07
   1      8    11.508     3.530    0.17E-04    0.28E-04    0.21E-07
   1      8    11.508    42.714    0.18E-03    0.63E-04    0.92E-07

 PAW_PBE Co 06Sep2000                   :
 PAW_PBE Ge 05Jan2001                   :
  PAW_PBE S 17Jan2003                   :

 POSCAR: Co2 Ge2 S6
  positions in direct lattice
  velocities in cartesian coordinates
 exchange correlation table for  LEXCH =       42
   RHO(1)=    0.500       N(1)  =     2000
   RHO(2)=  100.500       N(2)  =     4000

 ion  position               nearest neighbor table
   1  0.333  0.333  0.500-   6 2.78   5 2.78   7 2.78   8 2.78  10 2.78   9 2.78
   2  0.667  0.667  0.500-   9 2.78   8 2.78  10 2.78   5 2.78   7 2.78   6 2.78
   3  0.000  0.000  0.448-   4 2.43   8 2.63  10 2.63   9 2.63
   4  0.000  0.000  0.552-   3 2.43   5 2.63   7 2.63   6 2.63
   5  0.626  0.000  0.574-   4 2.63   1 2.78   2 2.78
   6  0.000  0.373  0.574-   4 2.63   1 2.78   2 2.78
   7  0.373  0.626  0.574-   4 2.63   1 2.78   2 2.78
   8  0.374  1.000  0.426-   3 2.63   2 2.78   1 2.78
   9  1.000  0.627  0.426-   3 2.63   2 2.78   1 2.78
  10  0.627  0.374  0.426-   3 2.63   2 2.78   1 2.78

  LATTYP: Found a hexagonal cell.
 ALAT       =     6.9077769333
 C/A-ratio  =     3.3939410937

  Lattice vectors:

 A1 = (   3.4538890000,  -5.9823100000,   0.0000000000)
 A2 = (  -6.9077770000,   0.0000000000,   0.0000000000)
 A3 = (   0.0000000000,   0.0000000000, -23.4445880000)

Analysis of symmetry for initial positions (statically):
 Subroutine PRICEL returns:
 Original cell was already a primitive cell.

 Routine SETGRP: Setting up the symmetry group for a
 hexagonal supercell.

 Subroutine GETGRP returns: Found  6 space group operations
 (whereof  6 operations were pure point group operations)
 out of a pool of 24 trial point group operations.

The static configuration has the point symmetry S_6 .

Analysis of symmetry for dynamics (positions and initial velocities):
 Subroutine PRICEL returns:
 Original cell was already a primitive cell.

[...]

The dynamic configuration has the point symmetry S_6 .

Analysis of constrained symmetry for selective dynamics:
 Subroutine PRICEL returns:
 Original cell was already a primitive cell.

[...]

The constrained configuration has the point symmetry S_6 .

Analysis of structural, dynamic, and magnetic symmetry:
 Subroutine PRICEL returns:
 Original cell was already a primitive cell.

 Routine SETGRP: Setting up the symmetry group for a
 hexagonal supercell.

 Subroutine GETGRP returns: Found  6 space group operations
 (whereof  6 operations were pure point group operations)
 out of a pool of 24 trial point group operations.

The magnetic configuration has the point symmetry S_6 .

 Subroutine INISYM returns: Found  6 space group operations
 (whereof  6 operations are pure point group operations),
 and found     1 'primitive' translations

 KPOINTS: Kpoints from vasprun.xml

Automatic generation of k-mesh.
Space group operators:
 irot       det(A)        alpha          n_x          n_y          n_z        tau_x        tau_y        tau_z
    1     1.000000     0.000000     1.000000     0.000000     0.000000     0.000000     0.000000     0.000000
    2    -1.000000     0.000000     1.000000     0.000000     0.000000     0.000000     0.000000     0.000000
    3     1.000000   120.000000     0.000000     0.000000     1.000000     0.000000     0.000000     0.000000
    4    -1.000000   120.000000     0.000000     0.000000     1.000000     0.000000     0.000000     0.000000
    5     1.000000   120.000000     0.000000     0.000000    -1.000000     0.000000     0.000000     0.000000
    6    -1.000000   120.000000     0.000000     0.000000    -1.000000     0.000000     0.000000     0.000000

 Subroutine IBZKPT returns following result:

 Found      5 irreducible k-points:

 Following reciprocal coordinates:
            Coordinates               Weight
  0.000000  0.000000  0.000000      1.000000
  0.200000  0.000000  0.000000      6.000000
  0.400000  0.000000  0.000000      6.000000
  0.400000  0.200000  0.000000      6.000000
 -0.400000  0.200000  0.000000      6.000000

 Following cartesian coordinates:
            Coordinates               Weight
  0.000000  0.000000  0.000000      1.000000
  0.028953 -0.016716  0.000000      6.000000
  0.057906 -0.033432  0.000000      6.000000
  0.057906  0.000000  0.000000      6.000000
 -0.057906  0.066864  0.000000      6.000000

 TETIRR: Found     15 inequivalent tetrahedra from      150

 SYSTEM =  unknown system
 POSCAR =  Co2 Ge2 S6

 Startparameter for this run:
   NWRITE =      2    write-flag & timer
   PREC   = accura    normal or accurate (medium, high low for compatibility)
   ISTART =      0    job   : 0-new  1-cont  2-samecut
   ICHARG =      2    charge: 1-file 2-atom 10-const
   ISPIN  =      2    spin polarized calculation?
   LNONCOLLINEAR =      F non collinear calculations
   LSORBIT =      F    spin-orbit coupling
   INIWAV =      1    electr: 0-lowe 1-rand  2-diag
   LASPH  =      F    aspherical Exc in radial PAW
   METAGGA=      F    non-selfconsistent MetaGGA calc.

 Electronic Relaxation 1
   ENCUT  =  520.0 eV  38.22 Ry    6.18 a.u.  12.84 12.84 43.59*2*pi/ulx,y,z
   ENINI  =  520.0     initial cutoff
   ENAUG  =  477.8 eV  augmentation charge cutoff
   NELM   =    400;   NELMIN=  2; NELMDL=  0     # of ELM steps
   EDIFF  = 0.1E-03   stopping-criterion for ELM
   LREAL  =      T    real-space projection
   NLSPLINE    = F    spline interpolate recip. space projectors
   LCOMPAT=      F    compatible to vasp.4.4
   GGA_COMPAT  = T    GGA compatible to vasp.4.4-vasp.4.6
   LMAXPAW     = -100 max onsite density
   LMAXMIX     =    2 max onsite mixed and CHGCAR
   VOSKOWN=      0    Vosko Wilk Nusair interpolation
   ROPT   =   -0.00025  -0.00025  -0.00025
 Ionic relaxation
   EDIFFG = 0.1E-02   stopping-criterion for IOM
   NSW    =     99    number of steps for IOM
   NBLOCK =      1;   KBLOCK =     99    inner block; outer block
   IBRION =      2    ionic relax: 0-MD 1-quasi-New 2-CG
   NFREE  =      1    steps in history (QN), initial steepest desc. (CG)
   ISIF   =      3    stress and relaxation
   IWAVPR =     11    prediction:  0-non 1-charg 2-wave 3-comb
   ISYM   =      2    0-nonsym 1-usesym 2-fastsym
   LCORR  =      T    Harris-Foulkes like correction to forces

   POTIM  = 0.5000    time-step for ionic-motion
   TEIN   =    0.0    initial temperature
   TEBEG  =    0.0;   TEEND  =   0.0 temperature during run
   SMASS  =  -3.00    Nose mass-parameter (am)
   estimated Nose-frequenzy (Omega)   =  0.10E-29 period in steps =****** mass=  -0.109E-26a.u.
   SCALEE = 1.0000    scale energy and forces
   NPACO  =    256;   APACO  = 16.0  distance and # of slots for P.C.
   PSTRESS=    0.0 pullay stress

  Mass of Ions in am
   POMASS =  58.93 72.61 32.07
  Ionic Valenz
   ZVAL   =   9.00  4.00  6.00
  Atomic Wigner-Seitz radii
  virtual crystal weights
   VCA    =   1.00  1.00  1.00
   NELECT =      62.0000    total number of electrons
   NUPDOWN=      -1.0000    fix difference up-down

 DOS related values:
   EMIN   =  10.00;   EMAX   =-10.00  energy-range for DOS
   EFERMI =   0.00
   ISMEAR =    -5;   SIGMA  =   0.05  broadening in eV -4-tet -1-fermi 0-gaus

 Electronic relaxation 2 (details)
   IALGO  =     38    algorithm
   LDIAG  =      T    sub-space diagonalisation (order eigenvalues)
   LSUBROT=      F    optimize rotation matrix (better conditioning)
   TURBO    =      0    0=normal 1=particle mesh
   IRESTART =      0    0=no restart 2=restart with 2 vectors
   NREBOOT  =      0    no. of reboots
   NMIN     =      0    reboot dimension
   EREF     =   0.00    reference energy to select bands
   IMIX   =      4    mixing-type and parameters
     AMIX     =   0.40;   BMIX     =  1.00
     AMIX_MAG =   1.60;   BMIX_MAG =  1.00
     AMIN     =   0.01
     WC   =   100.;   INIMIX=   1;  MIXPRE=   1;  MAXMIX= -45

 Intra band minimization:
   WEIMIN = 0.0010     energy-eigenvalue tresh-hold
   EBREAK =  0.52E-06  absolut break condition
   DEPER  =   0.30     relativ break condition

   TIME   =   0.40     timestep for ELM
[...]
  energy-cutoff  :      520.00
  volume of cell :      968.84
      direct lattice vectors                 reciprocal lattice vectors
     6.907777000 -0.000000000  0.000000000     0.144764372 -0.083579742  0.000000000
     3.453888000  5.982310000  0.000000000     0.000000000  0.167159509 -0.000000000
     0.000000000  0.000000000 23.444588000    -0.000000000  0.000000000  0.042653767

[...]

 FORCES acting on ions
    electron-ion (+dipol)            ewald-force                    non-local-force                 convergence-correction
   0.165E-03 0.824E-04 0.114E+01   0.549E-03 0.331E-03 -.104E+01   0.542E-18 0.434E-18 -.637E-02   -.108E-06 -.434E-06 -.901E-01
   -.165E-03 -.824E-04 -.114E+01   -.549E-03 -.331E-03 0.104E+01   0.325E-18 -.434E-18 0.637E-02   0.108E-06 0.434E-06 0.901E-01
   -.239E-04 -.738E-05 0.181E+03   -.141E-03 -.779E-04 -.179E+03   -.347E-17 -.173E-17 -.299E+01   0.465E-06 -.368E-06 -.395E-01
   0.239E-04 0.738E-05 -.181E+03   0.141E-03 0.779E-04 0.179E+03   -.347E-17 0.173E-17 0.299E+01   -.465E-06 0.368E-06 0.395E-01
   -.214E+02 0.227E+00 -.401E+03   0.186E+02 -.155E+00 0.405E+03   0.379E+01 -.989E-02 -.483E+01   -.482E-01 -.637E-01 -.175E-01
   0.109E+02 0.184E+02 -.401E+03   -.941E+01 -.160E+02 0.405E+03   -.191E+01 -.328E+01 -.483E+01   -.311E-01 0.736E-01 -.175E-01
   0.105E+02 -.186E+02 -.401E+03   -.915E+01 0.162E+02 0.405E+03   -.189E+01 0.329E+01 -.483E+01   0.793E-01 -.986E-02 -.175E-01
   0.214E+02 -.227E+00 0.401E+03   -.186E+02 0.155E+00 -.405E+03   -.379E+01 0.989E-02 0.483E+01   0.482E-01 0.637E-01 0.175E-01
   -.109E+02 -.184E+02 0.401E+03   0.941E+01 0.160E+02 -.405E+03   0.191E+01 0.328E+01 0.483E+01   0.311E-01 -.736E-01 0.175E-01
   -.105E+02 0.186E+02 0.401E+03   0.915E+01 -.162E+02 -.405E+03   0.189E+01 -.329E+01 0.483E+01   -.793E-01 0.986E-02 0.175E-01
   0.726E-10 0.694E-10 0.493E-10   0.711E-14 0.711E-14 0.171E-12   0.444E-15 -.888E-15 -.888E-15   -.345E-13 0.441E-13 0.203E-10

 POSITION                                       TOTAL-FORCE (eV/Angst)
      3.45388      1.99410     11.72054         0.000000     -0.000000      0.006564
      6.90778      3.98821     11.72405         0.000000     -0.000000     -0.006564
      0.00000      0.00000     10.50824         0.000000     -0.000000     -1.369429
      0.00000      0.00000     12.93635         0.000000     -0.000000      1.369429
      4.32819      0.00251     13.45138         0.947777     -0.000005     -1.609641
      1.29198      2.23274     13.45138        -0.473893     -0.820796     -1.609641
      4.74152      3.74706     13.45138        -0.473884      0.820801     -1.609641
      6.03348      5.97980      9.99321        -0.947777      0.000005      1.609641
      9.06969      3.74957      9.99321         0.473893      0.820796      1.609641
      5.62015      2.23525      9.99321         0.473884     -0.820801      1.609641
    total drift:                                0.000000      0.000000      0.000000

  FREE ENERGIE OF THE ION-ELECTRON SYSTEM (eV)
  free  energy   TOTEN  =       -37.81955161 eV

  energy  without entropy=      -37.81955161  energy(sigma->0) =      -37.81955161

[...]

 d Force = 0.4997667E+00[ 0.751E-01, 0.924E+00]  d Energy = 0.7092571E+01-0.659E+01
 d Force =-0.2022914E+03[-0.233E+03,-0.171E+03]  d Ewald  =-0.2398008E+04 0.220E+04

 Steepest descent step on ions:
 trial-energy change:   -7.092571  1 .order   -5.353179   -9.459881   -1.246476
  (g-gl).g = 0.946E+01      g.g   = 0.946E+01  gl.gl    = 0.000E+00
 g(Force)  = 0.101E+01   g(Stress)= 0.845E+01 ortho     = 0.000E+00
 gamma     =   0.00000
 trial     =   1.00000
 opt step  =   1.06451  (harmonic =   1.15176) maximal distance =0.08266256
 next E    =   -44.952793   (d E  =  -7.13324)

[...]

 d Force =-0.9546539E-03[-0.575E-02, 0.384E-02]  d Energy = 0.4867016E-01-0.496E-01
 d Force =-0.1620596E+02[-0.164E+02,-0.160E+02]  d Ewald  =-0.1939851E+03 0.178E+03

[...]

 Conjugate gradient step on ions:
 trial-energy change:   -0.502287  1 .order   -0.495476   -0.771216   -0.219735
  (g-gl).g = 0.715E+00      g.g   = 0.758E+00  gl.gl    = 0.946E+01
 g(Force)  = 0.692E+00   g(Stress)= 0.659E-01 ortho     = 0.433E-01
 gamma     =   0.07557
 trial     =   1.01290
 opt step  =   1.37949  (harmonic =   1.41649) maximal distance =0.08910155
 next E    =   -45.503166   (d E  =  -0.54237)

[...]

 d Force = 0.3591960E-01[-0.582E-02, 0.777E-01]  d Energy = 0.1093320E+00-0.734E-01
 d Force =-0.4399106E+02[-0.439E+02,-0.441E+02]  d Ewald  =-0.1533861E+03 0.109E+03

 Conjugate gradient step on ions:
 trial-energy change:   -0.109332  1 .order   -0.113382   -0.243928    0.017163
  (g-gl).g = 0.154E+00      g.g   = 0.226E+00  gl.gl    = 0.758E+00
 g(Force)  = 0.396E-01   g(Stress)= 0.186E+00 ortho     =-0.477E-02
 gamma     =   0.20319
 trial     =   1.08622
 opt step  =   1.00806  (harmonic =   1.01482) maximal distance =0.03104469
 next E    =   -45.611129   (d E  =  -0.10995)

[...]

 d Force = 0.2723602E-03[ 0.104E-03, 0.440E-03]  d Energy = 0.1050097E-03 0.167E-03
 d Force = 0.3085608E+01[ 0.309E+01, 0.308E+01]  d Ewald  = 0.1079470E+02-0.771E+01

[...]

 d Force = 0.3721354E-01[ 0.319E-01, 0.425E-01]  d Energy =-0.3115889E-01 0.684E-01
 d Force =-0.1102559E+03[-0.112E+03,-0.109E+03]  d Ewald  =-0.7475724E+03 0.637E+03

[...]

 d Force =-0.2513979E-01[-0.277E-01,-0.225E-01]  d Energy = 0.3190366E-01-0.570E-01
 d Force = 0.7907249E+02[ 0.783E+02, 0.798E+02]  d Ewald  = 0.5579901E+03-0.479E+03

[...]

 d Force = 0.3998327E-02[ 0.221E-03, 0.778E-02]  d Energy = 0.4927976E-02-0.930E-03
 d Force =-0.8658750E+01[-0.866E+01,-0.866E+01]  d Ewald  = 0.2247643E+02-0.311E+02

 Conjugate gradient step on ions:
 trial-energy change:   -0.004928  1 .order   -0.003704   -0.009133    0.001726
  (g-gl).g =-0.102E-02      g.g   = 0.608E-02  gl.gl    = 0.483E-01
 g(Force)  = 0.527E-02   g(Stress)= 0.809E-03 ortho     = 0.349E-02
 gamma     =  -0.02110
 trial     =   1.52132
 opt step  =   1.37113  (harmonic =   1.27955) maximal distance =0.00824540
 next E    =   -45.769861   (d E  =  -0.00501)

[...]

 d Force =-0.6678808E-04[-0.112E-03,-0.217E-04]  d Energy = 0.8799559E-04-0.155E-03
 d Force = 0.8583358E+00[ 0.858E+00, 0.858E+00]  d Ewald  =-0.2223425E+01 0.308E+01

[...]

 d Force =-0.7473982E-04[-0.885E-03, 0.735E-03]  d Energy = 0.1472334E-02-0.155E-02
 d Force =-0.2906465E+01[-0.290E+01,-0.291E+01]  d Ewald  = 0.5416992E+02-0.571E+02

 Conjugate gradient step on ions:
 trial-energy change:   -0.001472  1 .order   -0.001736   -0.003606    0.000134
  (g-gl).g = 0.778E-02      g.g   = 0.702E-02  gl.gl    = 0.608E-02
 g(Force)  = 0.240E-03   g(Stress)= 0.678E-02 ortho     =-0.905E-03
 gamma     =   1.27978
 trial     =   0.61473
 opt step  =   0.59263  (harmonic =   0.59263) maximal distance =0.00528162
 next E    =   -45.771603   (d E  =  -0.00174)

[...]

 d Force = 0.2960099E-04[ 0.275E-04, 0.317E-04]  d Energy = 0.3389226E-04-0.429E-05
 d Force = 0.1043534E+00[ 0.104E+00, 0.104E+00]  d Ewald  =-0.1941726E+01 0.205E+01

[...]

 d Force =-0.1503555E-04[-0.403E-04, 0.102E-04]  d Energy =-0.8948889E-03 0.880E-03
 d Force = 0.5457850E+00[ 0.544E+00, 0.547E+00]  d Ewald  = 0.3209117E+02-0.315E+02

 Conjugate gradient step on ions:
 trial-energy change:    0.000895  1 .order   -0.000744   -0.004893    0.003406
  (g-gl).g = 0.802E-03      g.g   = 0.767E-02  gl.gl    = 0.702E-02
 g(Force)  = 0.159E-03   g(Stress)= 0.751E-02 ortho     = 0.302E-02
 gamma     =   0.11419
 trial     =   0.61031
 opt step  =   0.20040  (harmonic =   0.35983) maximal distance =0.00005196
 next E    =   -45.772116   (d E  =  -0.00075)

[...]

 eigenvalue-minimisations  :  1040
 total energy-change (2. order) :-0.3826508E-01  (-0.1869985E-01)
 number of electron      62.0000004 magnetization       0.0000000
 augmentation part        4.3387252 magnetization       0.0000150

[...]

 Broyden mixing:
  rms(total) = 0.10422E-01    rms(broyden)= 0.10422E-01
  rms(prec ) = 0.11438E-01
  weight for this iteration     100.00

 eigenvalues of (default mixing * dielectric matrix)
  average eigenvalue GAMMA=   0.9789
  0.2583  0.9537  1.7249

[...]

--------------------------------------- Iteration     19(   5)  ---------------------------------------

[...]

 eigenvalue-minimisations  :  1088
 total energy-change (2. order) : 0.6886550E-04  (-0.2825286E-04)
 number of electron      62.0000004 magnetization       0.0000000
 augmentation part        4.0455942 magnetization       0.0000154

 Free energy of the ion-electron system (eV)
  alpha Z        PSCENC =        40.47766106
  Ewald energy   TEWEN  =     11544.68997580
  -Hartree energ DENC   =    -14687.57500302
  -exchange      EXHF   =         0.00000000
  -V(xc)+E(xc)   XCENC  =        89.84354618
  PAW double counting   =      2122.50114117    -2176.40079818
  entropy T*S    EENTRO =         0.00000000
  eigenvalues    EBANDS =      -491.75309670
  atomic energy  EATOM  =      3512.44449572
  Solvation  Ediel_sol  =         0.00000000
  free energy    TOTEN  =       -45.77207797 eV

  energy without entropy =      -45.77207797  energy(sigma->0) =      -45.77207797

 average (electrostatic) potential at core
  the test charge radii are     1.0452  1.1631  0.9698
  (the norm of the test charge is              1.0000)
       1 -49.2174       2 -49.2174       3 -39.7998       4 -39.7998       5 -94.5869
       6 -94.5869       7 -94.5869       8 -94.5869       9 -94.5869      10 -94.5869

 E-fermi :  -2.9457     XC(G=0):  -3.5474     alpha+bet : -2.8172

[...]

 spin component 2

[...]

 k-point     5 :      -0.4000    0.2000    0.0000
  band No.  band energies     occupation
      1     -16.7281      1.00000
      2     -16.5812      1.00000
      3     -16.0498      1.00000
      4     -15.8616      1.00000
      5     -15.6958      1.00000
      6     -15.4822      1.00000
      7     -11.5788      1.00000
      8     -10.1825      1.00000
      9      -8.3809      1.00000
     10      -7.7964      1.00000
     11      -7.7885      1.00000
     12      -7.2864      1.00000
     13      -6.9575      1.00000
     14      -6.9363      1.00000
     15      -6.6453      1.00000
     16      -6.2893      1.00000
     17      -6.1436      1.00000
     18      -6.0792      1.00000
     19      -5.8913      1.00000
     20      -5.7252      1.00000
     21      -5.5928      1.00000
     22      -4.7516      1.00000
     23      -4.6290      1.00000
     24      -4.5111      1.00000
     25      -4.4161      1.00000
     26      -3.8293      1.00000
     27      -3.7497      1.00000
     28      -3.7198      1.00000
     29      -3.5103      1.00000
     30      -3.4882      1.00000
     31      -3.3366      1.00000
     32      -2.1351      0.00000
     33      -1.8959      0.00000
     34      -1.7867      0.00000
     35      -1.3995      0.00000
     36      -1.3756      0.00000
     37      -0.4099      0.00000
     38       0.9142      0.00000
     39       0.9258      0.00000
     40       1.5797      0.00000
     41       1.7309      0.00000
     42       1.8800      0.00000
     43       2.9863      0.00000
     44       3.0230      0.00000
     45       3.1110      0.00000
     46       3.1286      0.00000
     47       3.7696      0.00000
     48       3.8295      0.00000

[...]

 soft charge-density along one line, spin component           2
         0         1         2         3         4         5         6         7         8         9
 total charge-density along one line

------------------------ aborting loop because EDIFF is reached ----------------------------------------

[...]

  FORCE on cell =-STRESS in cart. coord.  units (eV):
  Direction    XX          YY          ZZ          XY          YZ          ZX
  Alpha Z    40.47766    40.47766    40.47766
  Ewald   13640.71608 13640.71407-15736.74233    -0.00250    -0.00054    -0.00096
  Hartree 14219.37966 14219.38067-13752.25046    -0.00055     0.00005     0.00008
  E(xc)    -251.03700  -251.03707  -250.57059     0.00007     0.00000     0.00001
  Local  -28743.88433-28743.88457 28568.36075     0.00256     0.00032     0.00059
  n-local   411.98059   412.55146   416.12691     0.25062     0.89257     0.84847
  augment    -5.42439    -5.42447    -9.57383     0.00022     0.00023    -0.00007
  Kinetic   689.64938   684.86682   723.91699    -3.07570     1.91449     2.08418
  Fock        0.00000     0.00000     0.00000     0.00000     0.00000     0.00000
  Total      -0.24890    -0.24890    -0.25490     0.00000    -0.00000    -0.00000
  in kB      -0.58434    -0.58434    -0.59844     0.00001    -0.00000    -0.00000

 VOLUME and BASIS-vectors are now :
  energy-cutoff  :      520.00
  volume of cell :      682.45
      direct lattice vectors                 reciprocal lattice vectors
     5.885379045 -0.000000155 -0.000000000     0.169912588 -0.098099079 -0.000000000
     2.942689382  5.096887486 -0.000000000     0.000000005  0.196198168  0.000000000
     0.000000000 -0.000000000 22.750479360     0.000000000  0.000000000  0.043955118

  length of vectors
     5.885379045  5.885378734 22.750479360     0.196198157  0.196198168  0.043955118

 FORCES acting on ions
    electron-ion (+dipol)            ewald-force                    non-local-force                 convergence-correction
   -.629E-04 -.519E-04 -.195E+00   0.764E-03 0.458E-03 0.197E+00   -.694E-17 0.266E-20 -.429E-02   0.334E-06 0.218E-06 0.447E-03
   0.629E-04 0.519E-04 0.195E+00   -.764E-03 -.458E-03 -.197E+00   0.694E-17 -.139E-16 0.429E-02   -.334E-06 -.218E-06 -.447E-03
   -.189E-04 -.366E-04 0.285E+03   -.202E-03 -.114E-03 -.282E+03   0.937E-17 0.162E-16 -.378E+01   0.572E-08 0.114E-07 0.198E-01
   0.189E-04 0.366E-04 -.285E+03   0.202E-03 0.114E-03 0.282E+03   -.267E-16 -.197E-16 0.378E+01   -.572E-08 -.114E-07 -.198E-01
   -.385E+02 0.922E-02 -.570E+03   0.340E+02 -.121E-01 0.575E+03   0.448E+01 0.244E-02 -.498E+01   -.158E-01 0.157E-03 -.546E-01
   0.193E+02 0.333E+02 -.570E+03   -.170E+02 -.295E+02 0.575E+03   -.224E+01 -.388E+01 -.498E+01   0.804E-02 0.136E-01 -.546E-01
   0.192E+02 -.333E+02 -.570E+03   -.170E+02 0.295E+02 0.575E+03   -.224E+01 0.388E+01 -.498E+01   0.776E-02 -.138E-01 -.546E-01
   0.385E+02 -.922E-02 0.570E+03   -.340E+02 0.121E-01 -.575E+03   -.448E+01 -.244E-02 0.498E+01   0.158E-01 -.157E-03 0.546E-01
   -.193E+02 -.333E+02 0.570E+03   0.170E+02 0.295E+02 -.575E+03   0.224E+01 0.388E+01 0.498E+01   -.804E-02 -.136E-01 0.546E-01
   -.192E+02 0.333E+02 0.570E+03   0.170E+02 -.295E+02 -.575E+03   0.224E+01 -.388E+01 0.498E+01   -.776E-02 0.138E-01 0.546E-01
   -.609E-10 -.953E-10 0.392E-09   0.391E-13 -.711E-14 -.114E-12   0.888E-15 0.000E+00 0.178E-14   0.178E-12 -.216E-12 -.122E-10

 POSITION                                       TOTAL-FORCE (eV/Angst)
      2.94269      1.69896     11.37556        -0.000000     -0.000000     -0.002345
      5.88538      3.39793     11.37492        -0.000000      0.000000      0.002345
      0.00000     -0.00000     10.19713        -0.000000      0.000000     -0.037514
      0.00000     -0.00000     12.55335         0.000000     -0.000000      0.037514
      3.60257     -0.00016     12.79466        -0.014862      0.000548     -0.004687
      1.14127      1.97705     12.79466         0.007906      0.012597     -0.004687
      4.08424      3.12000     12.79466         0.006957     -0.013145     -0.004687
      2.28281      0.00016      9.95582         0.014862     -0.000548      0.004687
      1.80142      3.11983      9.95582        -0.007906     -0.012597      0.004687
      4.74383      1.97689      9.95582        -0.006957      0.013145      0.004687
    total drift:                               -0.000000     -0.000000      0.000000

  FREE ENERGIE OF THE ION-ELECTRON SYSTEM (eV)
  free  energy   TOTEN  =       -45.77207797 eV

  energy  without entropy=      -45.77207797  energy(sigma->0) =      -45.77207797

 d Force = 0.1473360E-04[ 0.253E-05, 0.269E-04]  d Energy = 0.1602024E-02-0.159E-02
 d Force =-0.3650205E+00[-0.366E+00,-0.364E+00]  d Ewald  =-0.2153390E+02 0.212E+02

 reached required accuracy - stopping structural energy minimisation

 total charge

[...]

 magnetization (x)

# of ion       s       p       d       tot
    1        0.000   0.000   0.000   0.000
    2        0.000   0.000   0.000   0.000
    3        0.000   0.000   0.000   0.000
    4        0.000   0.000   0.000   0.000
    5        0.000  -0.000   0.000  -0.000
    6        0.000  -0.000   0.000  -0.000
    7        0.000  -0.000   0.000  -0.000
    8        0.000  -0.000   0.000  -0.000
    9        0.000  -0.000   0.000  -0.000
   10        0.000  -0.000   0.000  -0.000
tot          0.000  -0.000   0.000   0.000

 BZINTS: Fermi energy: -2.945703; 62.000000 electrons
         Band energy:-491.753097;  BLOECHL correction:  0.000000