 vasp.5.4.4.18Apr17-6-g9f103f2a35 (build May  1 2020 15:48:39) complex
 executed on             LinuxGNU date 2020.06.17  21:31:16

 INCAR:
 POTCAR:   PAW_PBE Cr 06Sep2000
 POTCAR:    PAW_PBE P 17Jan2003
 POTCAR:   PAW_PBE Ge 05Jan2001
 POTCAR:   PAW_PBE Te 08Apr2002

 POTCAR:   PAW_PBE Cr 06Sep2000
   VRHFIN =Cr : d5 s1

   TITEL  = PAW_PBE Cr 06Sep2000
   POMASS =   51.996; ZVAL   =    6.000    mass and valenz
   ENMAX  =  227.082; ENMIN  =  170.311 eV
   QCUT   =   -4.085; QGAM   =    8.171    optimization parameters

   Description
     l     E      TYP  RCUT    TYP  RCUT
     2   .000     23  2.500
     2   .000     23  2.500
     0   .000     23  2.500
     0   .000     23  2.500
     1  -.400     23  2.500
     1  2.000     23  2.500
     3   .000      7   .000

 POTCAR:    PAW_PBE P 17Jan2003
   VRHFIN =P : s2p3

   TITEL  = PAW_PBE P 17Jan2003
   POMASS =   30.974; ZVAL   =    5.000    mass and valenz
   ENMAX  =  270.000; ENMIN  =  191.280 eV
   QCUT   =   -4.330; QGAM   =    8.659    optimization parameters

[...]

 POTCAR:   PAW_PBE Ge 05Jan2001
   VRHFIN =Ge: s2p2

   TITEL  = PAW_PBE Ge 05Jan2001
   POMASS =   72.610; ZVAL   =    4.000    mass and valenz
   ENMAX  =  173.807; ENMIN  =  130.355 eV
   QCUT   =   -3.574; QGAM   =    7.148    optimization parameters

[...]

 POTCAR:   PAW_PBE Te 08Apr2002
   VRHFIN =Te: s2p4

   TITEL  = PAW_PBE Te 08Apr2002
   POMASS =  127.600; ZVAL   =    6.000    mass and valenz
   ENMAX  =  174.982; ENMIN  =  131.236 eV
   QCUT   =   -3.586; QGAM   =    7.172    optimization parameters

   Description
     l     E      TYP  RCUT    TYP  RCUT
     0   .000     23  2.300
     0   .000     23  2.300
     1   .000     23  2.300
     1   .000     23  2.300
     2   .000     23  2.300
     3  -.100     23  2.300

 Optimization of the real space projectors (new method)

 maximal supplied QI-value         = 15.12
 optimisation between [QCUT,QGAM] = [ 11.64, 23.28] = [ 37.95,151.78] Ry
 Optimized for a Real-space Cutoff    1.49 Angstroem

   l    n(q)    QCUT    max X(q) W(low)/X(q) W(high)/X(q)  e(spline)
   2      9    11.641     4.777    0.25E-04    0.21E-05    0.63E-07
   2      9    11.641    31.132    0.13E-03    0.22E-03    0.64E-06
   0     10    11.641    20.416    0.11E-04    0.74E-05    0.19E-07
   0     10    11.641    45.408    0.10E-03    0.85E-04    0.30E-06
   1     10    11.641     7.848    0.22E-04    0.23E-04    0.56E-07
   1     10    11.641     9.895    0.85E-04    0.54E-04    0.16E-06
 Optimization of the real space projectors (new method)

[...]

   l    n(q)    QCUT    max X(q) W(low)/X(q) W(high)/X(q)  e(spline)
   0      9    11.539     8.651    0.22E-04    0.16E-04    0.10E-07
   0      9    11.539    33.192    0.11E-03    0.16E-03    0.65E-07
   1      8    11.539     5.899    0.37E-04    0.28E-04    0.43E-07
   1      8    11.539    27.289    0.22E-03    0.28E-04    0.14E-06
   2      8    11.539     4.673    0.11E-03    0.18E-03    0.58E-07
 Optimization of the real space projectors (new method)

 maximal supplied QI-value         = 16.25
 optimisation between [QCUT,QGAM] = [ 11.54, 23.24] = [ 37.28,151.24] Ry
 Optimized for a Real-space Cutoff    1.36 Angstroem

   l    n(q)    QCUT    max X(q) W(low)/X(q) W(high)/X(q)  e(spline)
   0      9    11.539     7.090    0.13E-04    0.25E-05    0.51E-08
   0      9    11.539   101.654    0.53E-04    0.69E-04    0.12E-06
   1      9    11.539     5.276    0.20E-04    0.98E-05    0.24E-07
   1      9    11.539    81.891    0.24E-03    0.13E-04    0.15E-06
   2      9    11.539     5.599    0.30E-04    0.97E-04    0.54E-07

 PAW_PBE Cr 06Sep2000                   :
  PAW_PBE P 17Jan2003                   :
 PAW_PBE Ge 05Jan2001                   :
 PAW_PBE Te 08Apr2002                   :

 POSCAR: Cr2 P Ge Te6
  positions in direct lattice
  velocities in cartesian coordinates
 exchange correlation table for  LEXCH =       42
   RHO(1)=    0.500       N(1)  =     2000
   RHO(2)=  100.500       N(2)  =     4000

 ion  position               nearest neighbor table
   1  0.333  0.333  0.500-   6 2.78   5 2.78   7 2.78   8 2.78  10 2.78   9 2.78
   2  0.667  0.667  0.500-   9 2.78   8 2.78  10 2.78   5 2.78   7 2.78   6 2.78
   3  0.000  0.000  0.448-   4 2.43   8 2.63  10 2.63   9 2.63
   4  0.000  0.000  0.552-   3 2.43   5 2.63   7 2.63   6 2.63
   5  0.626  0.000  0.574-   4 2.63   1 2.78   2 2.78
   6  0.000  0.373  0.574-   4 2.63   1 2.78   2 2.78
   7  0.373  0.626  0.574-   4 2.63   1 2.78   2 2.78
   8  0.374  1.000  0.426-   3 2.63   2 2.78   1 2.78
   9  1.000  0.627  0.426-   3 2.63   2 2.78   1 2.78
  10  0.627  0.374  0.426-   3 2.63   2 2.78   1 2.78

  LATTYP: Found a hexagonal cell.
 ALAT       =     6.9077769333
 C/A-ratio  =     3.3939410937

  Lattice vectors:

 A1 = (   3.4538890000,  -5.9823100000,   0.0000000000)
 A2 = (  -6.9077770000,   0.0000000000,   0.0000000000)
 A3 = (   0.0000000000,   0.0000000000, -23.4445880000)

Analysis of symmetry for initial positions (statically):
 Subroutine PRICEL returns:
 Original cell was already a primitive cell.

 Routine SETGRP: Setting up the symmetry group for a
 hexagonal supercell.

 Subroutine GETGRP returns: Found  3 space group operations
 (whereof  3 operations were pure point group operations)
 out of a pool of 24 trial point group operations.

The static configuration has the point symmetry C_3 .

Analysis of symmetry for dynamics (positions and initial velocities):
 Subroutine PRICEL returns:
 Original cell was already a primitive cell.

[...]

The dynamic configuration has the point symmetry C_3 .

Analysis of constrained symmetry for selective dynamics:
 Subroutine PRICEL returns:
 Original cell was already a primitive cell.

[...]

The constrained configuration has the point symmetry C_3 .

Analysis of structural, dynamic, and magnetic symmetry:
 Subroutine PRICEL returns:
 Original cell was already a primitive cell.

 Routine SETGRP: Setting up the symmetry group for a
 hexagonal supercell.

 Subroutine GETGRP returns: Found  3 space group operations
 (whereof  3 operations were pure point group operations)
 out of a pool of 24 trial point group operations.

The magnetic configuration has the point symmetry C_3 .

 Subroutine INISYM returns: Found  3 space group operations
 (whereof  3 operations are pure point group operations),
 and found     1 'primitive' translations

 KPOINTS: Kpoints from vasprun.xml

Automatic generation of k-mesh.
Space group operators:
 irot       det(A)        alpha          n_x          n_y          n_z        tau_x        tau_y        tau_z
    1     1.000000     0.000000     1.000000     0.000000     0.000000     0.000000     0.000000     0.000000
    2     1.000000   120.000000     0.000000     0.000000     1.000000     0.000000     0.000000     0.000000
    3     1.000000   120.000000     0.000000     0.000000    -1.000000     0.000000     0.000000     0.000000

 Subroutine IBZKPT returns following result:

 Found      5 irreducible k-points:

 Following reciprocal coordinates:
            Coordinates               Weight
  0.000000  0.000000  0.000000      1.000000
  0.200000  0.000000  0.000000      6.000000
  0.400000  0.000000  0.000000      6.000000
  0.400000  0.200000  0.000000      6.000000
 -0.400000  0.200000  0.000000      6.000000

 Following cartesian coordinates:
            Coordinates               Weight
  0.000000  0.000000  0.000000      1.000000
  0.028953 -0.016716  0.000000      6.000000
  0.057906 -0.033432  0.000000      6.000000
  0.057906  0.000000  0.000000      6.000000
 -0.057906  0.066864  0.000000      6.000000

 TETIRR: Found     15 inequivalent tetrahedra from      150

 SYSTEM =  unknown system
 POSCAR =  Cr2 P Ge Te6

 Startparameter for this run:
   NWRITE =      2    write-flag & timer
   PREC   = accura    normal or accurate (medium, high low for compatibility)
   ISTART =      0    job   : 0-new  1-cont  2-samecut
   ICHARG =      2    charge: 1-file 2-atom 10-const
   ISPIN  =      2    spin polarized calculation?
   LNONCOLLINEAR =      F non collinear calculations
   LSORBIT =      F    spin-orbit coupling
   INIWAV =      1    electr: 0-lowe 1-rand  2-diag
   LASPH  =      F    aspherical Exc in radial PAW
   METAGGA=      F    non-selfconsistent MetaGGA calc.

 Electronic Relaxation 1
   ENCUT  =  520.0 eV  38.22 Ry    6.18 a.u.  12.84 12.84 43.59*2*pi/ulx,y,z
   ENINI  =  520.0     initial cutoff
   ENAUG  =  402.1 eV  augmentation charge cutoff
   NELM   =    400;   NELMIN=  2; NELMDL=  0     # of ELM steps
   EDIFF  = 0.1E-03   stopping-criterion for ELM
   LREAL  =      T    real-space projection
   NLSPLINE    = F    spline interpolate recip. space projectors
   LCOMPAT=      F    compatible to vasp.4.4
   GGA_COMPAT  = T    GGA compatible to vasp.4.4-vasp.4.6
   LMAXPAW     = -100 max onsite density
   LMAXMIX     =    2 max onsite mixed and CHGCAR
   VOSKOWN=      0    Vosko Wilk Nusair interpolation
   ROPT   =   -0.00025  -0.00025  -0.00025  -0.00025
 Ionic relaxation
   EDIFFG = 0.1E-02   stopping-criterion for IOM
   NSW    =     99    number of steps for IOM
   NBLOCK =      1;   KBLOCK =     99    inner block; outer block
   IBRION =      2    ionic relax: 0-MD 1-quasi-New 2-CG
   NFREE  =      1    steps in history (QN), initial steepest desc. (CG)
   ISIF   =      3    stress and relaxation
   IWAVPR =     11    prediction:  0-non 1-charg 2-wave 3-comb
   ISYM   =      2    0-nonsym 1-usesym 2-fastsym
   LCORR  =      T    Harris-Foulkes like correction to forces

   POTIM  = 0.5000    time-step for ionic-motion
   TEIN   =    0.0    initial temperature
   TEBEG  =    0.0;   TEEND  =   0.0 temperature during run
   SMASS  =  -3.00    Nose mass-parameter (am)
   estimated Nose-frequenzy (Omega)   =  0.10E-29 period in steps =****** mass=  -0.109E-26a.u.
   SCALEE = 1.0000    scale energy and forces
   NPACO  =    256;   APACO  = 16.0  distance and # of slots for P.C.
   PSTRESS=    0.0 pullay stress

  Mass of Ions in am
   POMASS =  52.00 30.97 72.61127.60
  Ionic Valenz
   ZVAL   =   6.00  5.00  4.00  6.00
  Atomic Wigner-Seitz radii
  virtual crystal weights
   VCA    =   1.00  1.00  1.00  1.00
   NELECT =      57.0000    total number of electrons
   NUPDOWN=      -1.0000    fix difference up-down

 DOS related values:
   EMIN   =  10.00;   EMAX   =-10.00  energy-range for DOS
   EFERMI =   0.00
   ISMEAR =    -5;   SIGMA  =   0.05  broadening in eV -4-tet -1-fermi 0-gaus

 Electronic relaxation 2 (details)
   IALGO  =     38    algorithm
   LDIAG  =      T    sub-space diagonalisation (order eigenvalues)
   LSUBROT=      F    optimize rotation matrix (better conditioning)
   TURBO    =      0    0=normal 1=particle mesh
   IRESTART =      0    0=no restart 2=restart with 2 vectors
   NREBOOT  =      0    no. of reboots
   NMIN     =      0    reboot dimension
   EREF     =   0.00    reference energy to select bands
   IMIX   =      4    mixing-type and parameters
     AMIX     =   0.40;   BMIX     =  1.00
     AMIX_MAG =   1.60;   BMIX_MAG =  1.00
     AMIN     =   0.01
     WC   =   100.;   INIMIX=   1;  MIXPRE=   1;  MAXMIX= -45

 Intra band minimization:
[...]
     38       0.0955      0.00000
     39       0.0956      0.00000
     40       1.3885      0.00000
     41       1.6636      0.00000
     42       1.7070      0.00000
     43       1.7600      0.00000
     44       1.7600      0.00000
     45       2.1591      0.00000
     46       2.4585      0.00000
     47       3.0334      0.00000
     48       3.0334      0.00000

[...]

 soft charge-density along one line, spin component           1
         0         1         2         3         4         5         6         7         8         9
 total charge-density along one line

[...]

------------------------ aborting loop because EDIFF is reached ----------------------------------------

 total charge

# of ion       s       p       d       tot
    1        0.329   0.399   4.254   4.983
    2        0.329   0.399   4.255   4.983
    3        1.100   1.316   0.000   2.416
    4        1.175   1.096   0.077   2.348
    5        1.395   1.977   0.033   3.405
    6        1.387   1.957   0.033   3.377
    7        1.392   1.966   0.034   3.392
    8        1.403   1.934   0.036   3.373
    9        1.392   1.908   0.037   3.336
   10        1.400   1.925   0.036   3.361
tot         11.302  14.877   8.795  34.974

 magnetization (x)

[...]

  FORCE on cell =-STRESS in cart. coord.  units (eV):
  Direction    XX          YY          ZZ          XY          YZ          ZX
  Alpha Z    13.62041    13.62041    13.62041
  Ewald    7704.79684  7704.79469 -9187.98168    -0.00106    -0.00039    -0.00072
  Hartree  8022.25130  8022.25169 -7879.29785    -0.00001     0.00005     0.00009
  E(xc)    -226.90320  -226.90320  -227.04552     0.00003     0.00002     0.00002
  Local  -16598.48024-16598.47932 16159.24170     0.00081     0.00025     0.00047
  n-local   714.91420   715.86769   732.26412     0.26224     0.50331     0.46365
  augment  -108.36026  -108.36016  -116.18610     0.00001     0.00003     0.00002
  Kinetic   479.13786   472.16400   502.86616    -4.68487    -0.11397    -0.34806
  Fock        0.00000     0.00000     0.00000     0.00000     0.00000     0.00000
  Total      -2.03364    -2.03364    -2.51877     0.00000     0.00000     0.00000
  in kB      -3.36306    -3.36306    -4.16532     0.00000     0.00000     0.00000

 VOLUME and BASIS-vectors are now :
  energy-cutoff  :      520.00
  volume of cell :      968.84
      direct lattice vectors                 reciprocal lattice vectors
     6.907777000 -0.000000000  0.000000000     0.144764372 -0.083579742  0.000000000
     3.453888000  5.982310000  0.000000000     0.000000000  0.167159509 -0.000000000
     0.000000000  0.000000000 23.444588000    -0.000000000  0.000000000  0.042653767

[...]

 FORCES acting on ions
    electron-ion (+dipol)            ewald-force                    non-local-force                 convergence-correction
   -.333E-04 -.283E-04 -.468E+01   0.314E-03 0.187E-03 0.471E+01   0.000E+00 -.139E-16 -.128E+00   0.590E-05 0.338E-05 0.720E-02
   0.372E-04 0.162E-04 -.597E+01   -.314E-03 -.187E-03 0.600E+01   0.000E+00 0.000E+00 -.126E+00   -.583E-05 -.340E-05 0.719E-02
   -.367E-04 -.262E-04 0.196E+03   -.176E-03 -.973E-04 -.197E+03   -.386E-16 0.260E-17 0.934E+00   -.210E-05 -.115E-05 0.515E-02
   0.241E-04 0.297E-04 -.171E+03   0.141E-03 0.779E-04 0.170E+03   -.347E-17 -.139E-16 -.392E-01   0.143E-05 0.771E-06 0.799E-02
   -.664E+01 0.154E+00 -.347E+03   0.308E+01 -.150E+00 0.352E+03   0.339E+01 -.153E-01 -.456E+01   -.175E-03 0.311E-02 0.113E-01
   0.345E+01 0.567E+01 -.347E+03   -.167E+01 -.259E+01 0.352E+03   -.171E+01 -.293E+01 -.456E+01   0.277E-02 -.140E-02 0.113E-01
   0.318E+01 -.583E+01 -.347E+03   -.141E+01 0.274E+01 0.352E+03   -.168E+01 0.294E+01 -.456E+01   -.260E-02 -.170E-02 0.113E-01
   -.251E+00 -.150E+00 0.342E+03   0.353E+01 0.143E+00 -.346E+03   -.336E+01 0.121E-01 0.466E+01   0.607E-02 0.287E-02 -.126E-01
   -.394E-02 0.294E+00 0.342E+03   -.164E+01 -.313E+01 -.346E+03   0.169E+01 0.291E+01 0.466E+01   -.550E-03 -.669E-02 -.126E-01
   0.258E+00 -.142E+00 0.342E+03   -.189E+01 0.298E+01 -.346E+03   0.167E+01 -.292E+01 0.466E+01   -.552E-02 0.383E-02 -.126E-01
   -.337E-04 -.810E-05 -.942E+00   0.844E-14 0.711E-14 -.568E-13   -.666E-15 0.888E-15 0.917E+00   -.743E-06 -.478E-06 0.237E-01

 POSITION                                       TOTAL-FORCE (eV/Angst)
      3.45388      1.99410     11.72054        -0.000000      0.000000     -0.094841
      6.90778      3.98821     11.72405         0.000000      0.000000     -0.090885
      0.00000      0.00000     10.50824         0.000000      0.000000      0.003725
      0.00000      0.00000     12.93635         0.000000     -0.000000     -0.567881
      4.32819      0.00251     13.45138        -0.168649     -0.007652     -0.056172
      1.29198      2.23274     13.45138         0.077697      0.149880     -0.056172
      4.74152      3.74706     13.45138         0.090951     -0.142228     -0.056172
      6.03348      5.97980      9.99321        -0.080192      0.006916      0.306132
      9.06969      3.74957      9.99321         0.046085      0.065990      0.306132
      5.62015      2.23525      9.99321         0.034107     -0.072906      0.306132
    total drift:                               -0.000034     -0.000009     -0.001393

  FREE ENERGIE OF THE ION-ELECTRON SYSTEM (eV)
  free  energy   TOTEN  =       -42.53053989 eV

  energy  without entropy=      -42.53053989  energy(sigma->0) =      -42.53053989

[...]

 d Force =-0.1010252E-04[-0.209E-04, 0.661E-06]  d Energy = 0.2961427E-01-0.296E-01
 d Force =-0.3538838E-01[-0.357E-01,-0.350E-01]  d Ewald  =-0.3974635E+02 0.397E+02

 Steepest descent step on ions:
 trial-energy change:   -0.029614  1 .order   -0.028113   -0.070510    0.014283
  (g-gl).g = 0.705E-01      g.g   = 0.705E-01  gl.gl    = 0.000E+00
 g(Force)  = 0.669E-06   g(Stress)= 0.705E-01 ortho     = 0.000E+00
 gamma     =   0.00000
 trial     =   1.00000
 opt step  =   0.84543  (harmonic =   0.83155) maximal distance =0.00015194
 next E    =   -42.561252   (d E  =  -0.03071)

[...]

 d Force = 0.2986833E-05[ 0.270E-05, 0.327E-05]  d Energy = 0.1340746E-02-0.134E-02
 d Force = 0.5595237E-02[ 0.559E-02, 0.560E-02]  d Ewald  = 0.6166479E+01-0.616E+01

[...]

 Conjugate gradient step on ions:
 trial-energy change:   -0.003133  1 .order   -0.003916   -0.004056   -0.003777
  (g-gl).g = 0.824E-02      g.g   = 0.461E-02  gl.gl    = 0.705E-01
 g(Force)  = 0.455E-03   g(Stress)= 0.415E-02 ortho     =-0.363E-02
 gamma     =   0.11691
 trial     =   0.96909
 opt step  =   3.87634  (harmonic =  14.10119) maximal distance =0.00000000
 next E    =   -42.591002   (d E  =  -0.02951)

[...]

 d Force = 0.2511928E-02[ 0.326E-02, 0.177E-02]  d Energy = 0.9836603E-03 0.153E-02
 d Force = 0.2694216E+01[ 0.270E+01, 0.269E+01]  d Ewald  = 0.1734722E+03-0.171E+03

[...]

 d Force =-0.9341809E-03[-0.863E-03,-0.101E-02]  d Energy = 0.1195085E-02-0.213E-02
 d Force =-0.8319949E+00[-0.832E+00,-0.832E+00]  d Ewald  =-0.5244274E+02 0.516E+02

[...]

 eigenvalue-minimisations  :  1120
 total energy-change (2. order) :-0.8246991E-04  (-0.2210251E-02)
 number of electron      56.9999993 magnetization       5.4914974
 augmentation part       -3.1285843 magnetization       4.0676465

[...]

 eigenvalues of (default mixing * dielectric matrix)
  average eigenvalue GAMMA=   0.8888
  2.0659  0.7837  0.3529  0.3529

[...]

 d Force = 0.1519704E-02[ 0.139E-03, 0.290E-02]  d Energy = 0.2014294E-02-0.495E-03
 d Force = 0.2802755E+01[ 0.281E+01, 0.279E+01]  d Ewald  =-0.3108697E+02 0.339E+02

 Steepest descent step on ions:
 trial-energy change:   -0.002014  1 .order   -0.002400   -0.004769   -0.000030
  (g-gl).g = 0.401E-02      g.g   = 0.347E-02  gl.gl    = 0.461E-02
 g(Force)  = 0.210E-02   g(Stress)= 0.137E-02 ortho     =-0.125E-02
 gamma     =   0.00000
 trial     =   1.37392
 opt step  =   1.38273  (harmonic =   1.38273) maximal distance =0.00000000
 next E    =   -42.569207   (d E  =  -0.00240)

[...]

 Broyden mixing:
  rms(total) = 0.14211E-02    rms(broyden)= 0.14211E-02
  rms(prec ) = 0.32205E-02
  weight for this iteration     100.00

[...]

--------------------------------------- Iteration      8(   2)  ---------------------------------------

[...]

 eigenvalue-minimisations  :   688
 total energy-change (2. order) : 0.2332265E-04  (-0.2790166E-05)
 number of electron      56.9999993 magnetization       5.4981477
 augmentation part       -3.0674774 magnetization       4.0875517

 Free energy of the ion-electron system (eV)
  alpha Z        PSCENC =        14.00275579
  Ewald energy   TEWEN  =      6107.07637810
  -Hartree energ DENC   =     -8050.48207251
  -exchange      EXHF   =         0.00000000
  -V(xc)+E(xc)   XCENC  =      -216.26370095
  PAW double counting   =      1247.59440361     -943.70336375
  entropy T*S    EENTRO =         0.00000000
  eigenvalues    EBANDS =      -386.15478277
  atomic energy  EATOM  =      2185.36163785
  Solvation  Ediel_sol  =         0.00000000
  free energy    TOTEN  =       -42.56874462 eV

  energy without entropy =      -42.56874462  energy(sigma->0) =      -42.56874462

 average (electrostatic) potential at core
  the test charge radii are     1.1394  0.9587  1.1631  1.1897
  (the norm of the test charge is              1.0000)
       1 -50.5300       2 -50.5276       3 -91.6054       4 -39.2087       5 -96.4040
       6 -96.4040       7 -96.4039       8 -96.5687       9 -96.5686      10 -96.5686

 E-fermi :  -1.6488     XC(G=0):  -3.6176     alpha+bet : -3.1386

[...]

 spin component 2

[...]

 k-point     5 :      -0.4000    0.2000    0.0000
  band No.  band energies     occupation
      1     -14.7092      1.00000
      2     -13.6816      1.00000
      3     -13.5347      1.00000
      4     -13.3515      1.00000
      5     -13.1061      1.00000
      6     -12.9545      1.00000
      7     -11.1761      1.00000
      8      -9.4276      1.00000
      9      -6.7446      1.00000
     10      -6.3072      1.00000
     11      -6.2217      1.00000
     12      -5.7273      1.00000
     13      -5.6113      1.00000
     14      -5.1514      1.00000
     15      -4.7933      1.00000
     16      -4.7081      1.00000
     17      -4.5422      1.00000
     18      -4.3357      1.00000
     19      -4.1390      1.00000
     20      -4.0284      1.00000
     21      -3.7211      1.00000
     22      -3.4821      1.00000
     23      -3.2880      1.00000
     24      -3.1531      1.00000
     25      -3.1292      1.00000
     26      -2.2929      1.00000
     27      -1.4834      0.00000
     28      -1.0999      0.00000
     29      -1.0002      0.00000
     30      -0.4153      0.00000
     31      -0.3775      0.00000
     32      -0.3763      0.00000
     33      -0.0561      0.00000
     34      -0.0023      0.00000
     35       0.2874      0.00000
     36       0.4452      0.00000
     37       0.4940      0.00000
     38       0.6064      0.00000
     39       0.9620      0.00000
     40       1.4152      0.00000
     41       1.6059      0.00000
     42       1.6805      0.00000
     43       2.7420      0.00000
     44       2.8422      0.00000
     45       2.8521      0.00000
     46       2.9370      0.00000
     47       3.0207      0.00000
     48       3.4331      0.00000

[...]

 soft charge-density along one line, spin component           2
         0         1         2         3         4         5         6         7         8         9
 total charge-density along one line

------------------------ aborting loop because EDIFF is reached ----------------------------------------

[...]

  FORCE on cell =-STRESS in cart. coord.  units (eV):
  Direction    XX          YY          ZZ          XY          YZ          ZX
  Alpha Z    14.00276    14.00276    14.00276
  Ewald    7601.93752  7601.93531 -9096.79891    -0.00109    -0.00040    -0.00073
  Hartree  7913.20667  7913.20707 -7772.55873    -0.00001     0.00005     0.00009
  E(xc)    -227.44349  -227.44346  -227.58936     0.00000     0.00002     0.00002
  Local  -16387.81771-16387.81678 15959.04520     0.00083     0.00025     0.00047
  n-local   716.96324   717.79735   734.05548     0.25670     0.49393     0.49472
  augment  -108.44641  -108.44637  -116.32566     0.00007    -0.00004     0.00005
  Kinetic   480.61793   473.53028   506.03421    -4.72146    -0.08806    -0.29871
  Fock        0.00000     0.00000     0.00000     0.00000     0.00000     0.00000
  Total      -0.10667    -0.10667    -0.13502     0.00000    -0.00000     0.00000
  in kB      -0.18136    -0.18136    -0.22956     0.00000    -0.00000     0.00000

 VOLUME and BASIS-vectors are now :
  energy-cutoff  :      520.00
  volume of cell :      942.38
      direct lattice vectors                 reciprocal lattice vectors
     6.878197704 -0.000000065  0.000000000     0.145386922 -0.083939174  0.000000000
     3.439098415  5.956693550 -0.000000000     0.000000002  0.167878368  0.000000000
    -0.000000000 -0.000000000 23.000989970    -0.000000000  0.000000000  0.043476390

  length of vectors
     6.878197704  6.878197145 23.000989970     0.167878355  0.167878368  0.043476390

 FORCES acting on ions
    electron-ion (+dipol)            ewald-force                    non-local-force                 convergence-correction
   -.214E-04 -.934E-05 -.509E+01   0.323E-03 0.192E-03 0.514E+01   0.117E-19 -.277E-16 -.160E+00   -.502E-07 -.331E-07 0.575E-02
   0.139E-04 0.228E-04 -.640E+01   -.323E-03 -.192E-03 0.646E+01   -.277E-16 0.139E-16 -.157E+00   -.460E-08 -.419E-08 0.582E-02
   -.363E-04 -.330E-04 0.201E+03   -.180E-03 -.997E-04 -.202E+03   0.207E-16 -.105E-16 0.915E+00   -.149E-07 -.731E-08 -.328E-01
   0.231E-04 0.276E-04 -.172E+03   0.142E-03 0.785E-04 0.171E+03   0.104E-16 -.497E-20 0.841E-01   -.107E-08 -.377E-09 0.334E-01
   -.739E+01 0.167E+00 -.349E+03   0.375E+01 -.153E+00 0.354E+03   0.346E+01 -.144E-01 -.444E+01   -.187E-02 -.779E-02 0.648E-01
   0.384E+01 0.631E+01 -.349E+03   -.201E+01 -.317E+01 0.354E+03   -.174E+01 -.299E+01 -.444E+01   -.581E-02 0.552E-02 0.648E-01
   0.355E+01 -.648E+01 -.349E+03   -.174E+01 0.332E+01 0.354E+03   -.172E+01 0.300E+01 -.444E+01   0.769E-02 0.228E-02 0.648E-01
   0.227E-01 -.143E+00 0.343E+03   0.339E+01 0.145E+00 -.347E+03   -.346E+01 0.132E-01 0.451E+01   0.291E-02 -.778E-02 -.562E-01
   -.134E+00 0.536E-01 0.343E+03   -.157E+01 -.301E+01 -.347E+03   0.174E+01 0.299E+01 0.451E+01   -.820E-02 0.137E-02 -.562E-01
   0.114E+00 0.908E-01 0.343E+03   -.182E+01 0.286E+01 -.347E+03   0.172E+01 -.300E+01 0.451E+01   0.528E-02 0.641E-02 -.562E-01
   -.484E-04 0.292E-04 -.930E+00   -.129E-13 0.711E-14 0.568E-13   -.222E-15 -.444E-15 0.891E+00   -.954E-07 -.574E-07 0.379E-01

 POSITION                                       TOTAL-FORCE (eV/Angst)
      3.43910      1.98556     11.49877         0.000000     -0.000000     -0.104972
      6.87820      3.97113     11.50222         0.000000     -0.000000     -0.095825
     -0.00000     -0.00000     10.28176         0.000000     -0.000000     -0.006550
     -0.00000     -0.00000     12.69158         0.000000     -0.000000     -0.516379
      4.30965      0.00250     13.19686        -0.184975     -0.007785      0.149028
      1.28644      2.22318     13.19686         0.085746      0.164085      0.149028
      4.72121      3.73102     13.19686         0.099229     -0.156301      0.149028
      6.00764      5.95419      9.80413        -0.047581      0.007696      0.092214
      9.03085      3.73351      9.80413         0.030456      0.037359      0.092214
      5.59608      2.22568      9.80413         0.017126     -0.045055      0.092214
    total drift:                               -0.000049      0.000029     -0.000709

  FREE ENERGIE OF THE ION-ELECTRON SYSTEM (eV)
  free  energy   TOTEN  =       -42.56874462 eV

  energy  without entropy=      -42.56874462  energy(sigma->0) =      -42.56874462

 d Force = 0.7342180E-06[ 0.582E-06, 0.887E-06]  d Energy =-0.7672859E-04 0.775E-04
 d Force = 0.1797213E-01[ 0.180E-01, 0.180E-01]  d Ewald  =-0.1994623E+00 0.217E+00

 reached required accuracy - stopping structural energy minimisation

 total charge

[...]

 magnetization (x)

# of ion       s       p       d       tot
    1        0.041   0.045   2.895   2.981
    2        0.041   0.045   2.895   2.981
    3       -0.016   0.002   0.000  -0.014
    4        0.005   0.022  -0.002   0.025
    5       -0.000  -0.093   0.005  -0.088
    6       -0.002  -0.075   0.005  -0.072
    7       -0.002  -0.090   0.005  -0.086
    8       -0.002  -0.103   0.004  -0.101
    9       -0.003  -0.099   0.004  -0.097
   10       -0.004  -0.109   0.004  -0.109
tot          0.058  -0.454   5.814   5.418

 BZINTS: Fermi energy: -1.648767; 57.000000 electrons
         Band energy:-386.154783;  BLOECHL correction: -0.030243